p cnf 4096 23439
-6 0
5 0
-10 0
9 0
-15 0
-18 0
17 0
-23 0
-27 0
30 0
-34 0
33 0
-39 0
-43 0
46 0
-51 0
54 0
58 0
-66 0
65 0
-71 0
-75 0
-80 0
78 0
-83 0
-88 0
86 0
-92 0
90 0
-99 0
-104 0
102 0
-108 0
106 0
-116 0
114 0
-130 0
129 0
-135 0
-139 0
-144 0
142 0
-147 0
-152 0
150 0
-156 0
154 0
-163 0
-168 0
166 0
-172 0
170 0
-180 0
178 0
-195 0
-200 0
198 0
-204 0
202 0
-212 0
210 0
-228 0
226 0
234 0
255 0
-258 0
257 0
-263 0
-267 0
-272 0
270 0
-275 0
-280 0
278 0
-284 0
282 0
-291 0
-296 0
294 0
-300 0
298 0
-308 0
306 0
-323 0
-328 0
326 0
-332 0
330 0
-340 0
338 0
346 0
-356 0
354 0
362 0
383 0
-387 0
-392 0
390 0
-396 0
394 0
398 0
-404 0
402 0
-420 0
418 0
447 0
-452 0
450 0
454 0
466 0
479 0
-492 491 0
495 0
503 0
507 0
-514 0
513 0
-519 0
-523 0
-528 0
526 0
-531 0
-536 0
534 0
-540 0
538 0
-547 0
-552 0
550 0
-556 0
554 0
-564 0
562 0
-579 0
-584 0
582 0
-588 0
586 0
-596 0
594 0
-612 0
610 0
614 0
626 0
639 0
-643 0
-648 0
646 0
-652 0
650 0
-660 0
658 0
-676 0
674 0
682 0
690 0
703 0
-708 0
706 0
722 0
735 0
738 0
751 0
759 0
763 0
-771 0
-776 0
774 0
-780 0
778 0
-788 0
786 0
-804 0
802 0
831 0
-836 0
834 0
838 0
842 0
850 0
863 0
879 0
887 0
891 0
-900 0
898 0
902 0
906 0
914 0
927 0
930 0
943 0
951 0
955 0
962 0
975 0
983 0
987 0
999 0
1003 0
1011 0
1024 0
-1026 0
1025 0
-1031 0
-1035 0
-1040 0
1038 0
-1043 0
-1048 0
1046 0
-1052 0
1050 0
-1059 0
-1064 0
1062 0
-1068 0
1066 0
-1076 0
1074 0
-1091 0
-1096 0
1094 0
-1100 0
1098 0
-1108 0
1106 0
-1124 0
1122 0
1138 0
1151 0
-1155 0
-1160 0
1158 0
-1164 0
1162 0
-1172 0
1170 0
1178 0
-1188 0
1186 0
1202 0
1215 0
-1220 0
1218 0
1222 0
1226 0
1234 0
1247 0
1250 0
1263 0
1271 0
1275 0
-1283 0
-1288 0
1286 0
-1292 0
1290 0
-1300 0
1298 0
-1316 0
1314 0
1343 0
-1348 0
1346 0
1362 0
1375 0
1378 0
1391 0
1399 0
1403 0
-1412 0
1410 0
-1416 1415 0
1414 0
1418 0
1439 0
1442 0
1455 0
1463 0
1467 0
1474 0
1487 0
1495 0
1499 0
1511 0
1515 0
1523 0
1536 0
-1539 0
-1544 0
1542 0
-1548 0
1546 0
-1556 0
1554 0
-1572 0
1570 0
1586 0
1599 0
-1604 0
1602 0
1606 0
1610 0
1647 0
1655 0
-1668 0
1666 0
1695 0
1711 0
1719 0
1723 0
1730 0
1743 0
1751 0
1755 0
1767 0
1771 0
1779 0
1792 0
-1796 0
1794 0
1798 0
1802 0
1810 0
1823 0
1839 0
1847 0
1851 0
1858 0
1871 0
1879 0
1883 0
1895 0
1899 0
1907 0
1920 0
1922 0
1935 0
1943 0
1947 0
1959 0
1963 0
1971 0
1984 0
1991 0
1995 0
2003 0
2019 0
-2050 0
2049 0
-2055 0
-2059 0
-2064 0
2062 0
-2067 0
-2072 0
2070 0
-2076 0
2074 0
-2083 0
-2088 0
2086 0
-2092 0
2090 0
-2100 0
2098 0
-2115 0
-2120 0
2118 0
-2124 0
2122 0
-2132 0
2130 0
2138 0
-2148 0
2146 0
2175 0
-2179 0
-2184 0
2182 0
-2188 0
2186 0
-2196 0
2194 0
2202 0
-2212 0
2210 0
2226 0
2239 0
-2244 0
2242 0
2246 0
2250 0
2258 0
2271 0
2274 0
2287 0
2295 0
2299 0
-2307 0
-2312 0
2310 0
-2316 0
2314 0
-2324 0
2322 0
2330 0
-2340 0
2338 0
2367 0
-2372 0
2370 0
2378 0
2386 0
2399 0
2402 0
-2408 2407 0
2415 0
2423 0
2427 0
-2436 0
2434 0
2438 0
2442 0
2450 0
2463 0
2487 0
2491 0
2498 0
2511 0
2519 0
2523 0
2535 0
2539 0
2547 0
2560 0
-2563 0
-2568 0
2566 0
-2572 0
2570 0
2574 0
-2580 0
2578 0
2582 0
-2596 0
2594 0
2610 0
2623 0
-2628 0
2626 0
2642 0
2655 0
-2660 2659 0
2658 0
2671 0
2679 0
2683 0
-2692 0
2690 0
2719 0
2735 0
2743 0
2747 0
2754 0
2767 0
2775 0
2779 0
2791 0
2795 0
2803 0
2816 0
-2820 0
2818 0
-2832 2831 0
2834 0
2847 0
2850 0
2863 0
2871 0
2875 0
2882 0
2895 0
2903 0
2907 0
2919 0
2923 0
2931 0
2944 0
2946 0
2959 0
2967 0
2971 0
2983 0
2987 0
2995 0
3008 0
3015 0
3019 0
3027 0
3040 0
3043 0
3056 0
-3075 0
-3080 0
3078 0
-3084 0
3082 0
-3092 0
3090 0
-3108 0
3106 0
3114 0
3122 0
3135 0
-3140 0
3138 0
3142 0
3146 0
3154 0
3167 0
3183 0
3191 0
3195 0
-3204 0
3202 0
3206 0
3210 0
3218 0
3231 0
3234 0
3247 0
3255 0
3259 0
3266 0
3279 0
3287 0
3291 0
3303 0
3307 0
3315 0
3328 0
-3332 0
3330 0
3338 0
3346 0
3359 0
3362 0
3375 0
3383 0
3387 0
3394 0
3407 0
3415 0
3419 0
3431 0
3435 0
3443 0
3456 0
3458 0
3471 0
3479 0
3483 0
3495 0
3499 0
3507 0
3520 0
3527 0
3531 0
3539 0
3555 0
3568 0
3576 0
3580 0
-3588 0
3586 0
3590 0
3594 0
3602 0
3615 0
3618 0
3631 0
3639 0
3643 0
3650 0
3663 0
3671 0
3675 0
3687 0
3691 0
3699 0
3712 0
3727 0
3735 0
3739 0
3751 0
3755 0
3763 0
3776 0
3783 0
3787 0
3795 0
3811 0
3842 0
3855 0
3863 0
3867 0
3879 0
3883 0
3891 0
3904 0
3911 0
3915 0
3923 0
3939 0
3952 0
3975 0
3979 0
3987 0
4000 0
4003 0
4016 0
4035 0
4048 0
4056 0
4060 0
4072 0
4076 0
4084 0
-30 14 22 6 -5 0
-46 14 38 6 -5 0
-78 14 70 6 -5 0
-142 14 134 6 -5 0
-270 14 262 6 -5 0
-526 14 518 6 -5 0
-1038 14 1030 6 -5 0
-54 22 38 6 -5 0
-86 22 70 6 -5 0
-278 22 262 6 -5 0
-534 22 518 6 -5 0
-1046 22 1030 6 -5 0
-2070 22 2054 6 -5 0
-102 38 70 6 -5 0
-166 38 134 6 -5 0
-294 38 262 6 -5 0
-550 38 518 6 -5 0
-1062 38 1030 6 -5 0
-2086 38 2054 6 -5 0
-30 14 26 10 -9 0
-46 14 42 10 -9 0
-78 14 74 10 -9 0
-1038 14 1034 10 -9 0
-58 26 42 10 -9 0
-154 26 138 10 -9 0
-282 26 266 10 -9 0
-538 26 522 10 -9 0
-2074 26 2058 10 -9 0
-298 42 266 10 -9 0
-95 31 79 15 -14 0
-159 31 143 15 -14 0
-287 31 271 15 -14 0
-543 31 527 15 -14 0
-1055 31 1039 15 -14 0
-2079 31 2063 15 -14 0
-1071 47 1039 15 -14 0
-79 14 0
-143 14 0
-655 143 527 15 -14 0
-1167 143 1039 15 -14 0
-271 14 0
-527 14 0
-1551 527 1039 15 -14 0
-1039 14 0
-2063 14 0
-30 22 26 18 -17 0
-54 22 50 18 -17 0
-150 22 146 18 -17 0
-534 22 530 18 -17 0
-58 26 50 18 -17 0
-90 26 82 18 -17 0
-154 26 146 18 -17 0
-282 26 274 18 -17 0
-538 26 530 18 -17 0
-1050 26 1042 18 -17 0
-2074 26 2066 18 -17 0
-306 50 274 18 -17 0
-95 31 87 23 -22 0
-159 31 151 23 -22 0
-287 31 279 23 -22 0
-543 31 535 23 -22 0
-1055 31 1047 23 -22 0
-2079 31 2071 23 -22 0
-311 55 279 23 -22 0
-87 22 0
-151 22 0
-279 22 0
-535 22 0
-1047 22 0
-2071 22 0
-95 31 91 27 -26 0
-159 31 155 27 -26 0
-287 31 283 27 -26 0
-543 31 539 27 -26 0
-1055 31 1051 27 -26 0
-2079 31 2075 27 -26 0
-91 26 0
-2139 91 2075 27 -26 0
-155 26 0
-283 26 0
-539 26 0
-1051 26 0
-2075 26 0
-31 63 0
-127 63 95 31 -30 0
-191 63 159 31 -30 0
-319 63 287 31 -30 0
-575 63 543 31 -30 0
-1087 63 1055 31 -30 0
-2111 63 2079 31 -30 0
-96 31 0
-160 31 0
-288 31 0
-544 31 0
-1056 31 0
-2080 31 0
-46 38 42 34 -33 0
-54 38 50 34 -33 0
-102 38 98 34 -33 0
-166 38 162 34 -33 0
-294 38 290 34 -33 0
-550 38 546 34 -33 0
-1062 38 1058 34 -33 0
-2086 38 2082 34 -33 0
-58 42 50 34 -33 0
-106 42 98 34 -33 0
-170 42 162 34 -33 0
-298 42 290 34 -33 0
-554 42 546 34 -33 0
-1066 42 1058 34 -33 0
-2090 42 2082 34 -33 0
-562 50 546 34 -33 0
-1074 50 1058 34 -33 0
-2098 50 2082 34 -33 0
-111 47 103 39 -38 0
-175 47 167 39 -38 0
-303 47 295 39 -38 0
-559 47 551 39 -38 0
-1071 47 1063 39 -38 0
-2095 47 2087 39 -38 0
-183 55 167 39 -38 0
-567 55 551 39 -38 0
-103 38 0
-167 38 0
-295 38 0
-551 38 0
-1063 38 0
-2087 38 0
-111 47 107 43 -42 0
-175 47 171 43 -42 0
-303 47 299 43 -42 0
-559 47 555 43 -42 0
-1071 47 1067 43 -42 0
-2095 47 2091 43 -42 0
-107 42 0
-171 42 0
-299 42 0
-555 42 0
-1067 42 0
-2091 42 0
-47 63 0
-127 63 111 47 -46 0
-191 63 175 47 -46 0
-319 63 303 47 -46 0
-575 63 559 47 -46 0
-1087 63 1071 47 -46 0
-2111 63 2095 47 -46 0
-112 47 0
-176 47 0
-304 47 0
-560 47 0
-1072 47 0
-2096 47 0
-119 55 115 51 -50 0
-183 55 179 51 -50 0
-311 55 307 51 -50 0
-567 55 563 51 -50 0
-1079 55 1075 51 -50 0
-2103 55 2099 51 -50 0
-115 50 0
-2163 115 2099 51 -50 0
-179 50 0
-307 50 0
-563 50 0
-1075 50 0
-2099 50 0
-55 63 0
-127 63 119 55 -54 0
-191 63 183 55 -54 0
-319 63 311 55 -54 0
-575 63 567 55 -54 0
-1087 63 1079 55 -54 0
-2111 63 2103 55 -54 0
-120 55 0
-184 55 0
-312 55 0
-568 55 0
-1080 55 0
-2104 55 0
-59 63 0
-127 63 123 59 -58 0
-191 63 187 59 -58 0
-319 63 315 59 -58 0
-575 63 571 59 -58 0
-1087 63 1083 59 -58 0
-2111 63 2107 59 -58 0
-124 59 0
-188 59 0
-316 59 0
-572 59 0
-1084 59 0
-2108 59 0
-128 63 0
-192 63 0
-320 63 0
-576 63 0
-1088 63 0
-2112 63 0
-450 194 322 66 -65 0
-706 194 578 66 -65 0
-1218 194 1090 66 -65 0
-2242 194 2114 66 -65 0
-834 322 578 66 -65 0
-1346 322 1090 66 -65 0
-2370 322 2114 66 -65 0
-1602 578 1090 66 -65 0
-2626 578 2114 66 -65 0
-3138 1090 2114 66 -65 0
-79 70 0
-95 79 87 71 -70 0
-111 79 103 71 -70 0
-207 79 199 71 -70 0
-335 79 327 71 -70 0
-591 79 583 71 -70 0
-1103 79 1095 71 -70 0
-2127 79 2119 71 -70 0
-87 70 0
-119 87 103 71 -70 0
-215 87 199 71 -70 0
-343 87 327 71 -70 0
-599 87 583 71 -70 0
-1111 87 1095 71 -70 0
-2135 87 2119 71 -70 0
-103 70 0
-231 103 199 71 -70 0
-359 103 327 71 -70 0
-615 103 583 71 -70 0
-1127 103 1095 71 -70 0
-2151 103 2119 71 -70 0
-199 70 0
-455 199 327 71 -70 0
-711 199 583 71 -70 0
-1223 199 1095 71 -70 0
-2247 199 2119 71 -70 0
-839 327 583 71 -70 0
-1351 327 1095 71 -70 0
-2375 327 2119 71 -70 0
-1607 583 1095 71 -70 0
-2631 583 2119 71 -70 0
-3143 1095 2119 71 -70 0
-79 74 0
-111 79 107 75 -74 0
-207 79 203 75 -74 0
-335 79 331 75 -74 0
-591 79 587 75 -74 0
-1103 79 1099 75 -74 0
-2127 79 2123 75 -74 0
-91 74 0
-219 91 203 75 -74 0
-347 91 331 75 -74 0
-603 91 587 75 -74 0
-1115 91 1099 75 -74 0
-2139 91 2123 75 -74 0
-107 74 0
-235 107 203 75 -74 0
-363 107 331 75 -74 0
-619 107 587 75 -74 0
-1131 107 1099 75 -74 0
-2155 107 2123 75 -74 0
-459 203 331 75 -74 0
-715 203 587 75 -74 0
-1227 203 1099 75 -74 0
-2251 203 2123 75 -74 0
-843 331 587 75 -74 0
-1355 331 1099 75 -74 0
-2379 331 2123 75 -74 0
-1611 587 1099 75 -74 0
-2635 587 2123 75 -74 0
-3147 1099 2123 75 -74 0
-224 96 208 80 -79 0
-352 96 336 80 -79 0
-608 96 592 80 -79 0
-1120 96 1104 80 -79 0
-2144 96 2128 80 -79 0
-240 112 208 80 -79 0
-368 112 336 80 -79 0
-624 112 592 80 -79 0
-1136 112 1104 80 -79 0
-2160 112 2128 80 -79 0
-79 207 0
-208 79 0
-463 207 335 79 -78 0
-464 208 336 80 -79 0
-720 208 592 80 -79 0
-1231 207 1103 79 -78 0
-1232 208 1104 80 -79 0
-2255 207 2127 79 -78 0
-2256 208 2128 80 -79 0
-79 335 0
-336 79 0
-848 336 592 80 -79 0
-1360 336 1104 80 -79 0
-2384 336 2128 80 -79 0
-79 591 0
-592 79 0
-1616 592 1104 80 -79 0
-2640 592 2128 80 -79 0
-79 1103 0
-1104 79 0
-3152 1104 2128 80 -79 0
-79 2127 0
-2128 79 0
-87 82 0
-95 87 91 83 -82 0
-119 87 115 83 -82 0
-215 87 211 83 -82 0
-343 87 339 83 -82 0
-599 87 595 83 -82 0
-1111 87 1107 83 -82 0
-2135 87 2131 83 -82 0
-91 82 0
-123 91 115 83 -82 0
-347 91 339 83 -82 0
-603 91 595 83 -82 0
-1115 91 1107 83 -82 0
-2139 91 2131 83 -82 0
-115 82 0
-243 115 211 83 -82 0
-371 115 339 83 -82 0
-627 115 595 83 -82 0
-1139 115 1107 83 -82 0
-2163 115 2131 83 -82 0
-467 211 339 83 -82 0
-723 211 595 83 -82 0
-1235 211 1107 83 -82 0
-2259 211 2131 83 -82 0
-851 339 595 83 -82 0
-1363 339 1107 83 -82 0
-2387 339 2131 83 -82 0
-1619 595 1107 83 -82 0
-2643 595 2131 83 -82 0
-1107 82 0
-3155 1107 2131 83 -82 0
-224 96 216 88 -87 0
-352 96 344 88 -87 0
-608 96 600 88 -87 0
-1120 96 1112 88 -87 0
-2144 96 2136 88 -87 0
-248 120 216 88 -87 0
-376 120 344 88 -87 0
-632 120 600 88 -87 0
-1144 120 1112 88 -87 0
-2168 120 2136 88 -87 0
-87 215 0
-216 87 0
-472 216 344 88 -87 0
-728 216 600 88 -87 0
-1240 216 1112 88 -87 0
-2264 216 2136 88 -87 0
-87 343 0
-344 87 0
-856 344 600 88 -87 0
-1368 344 1112 88 -87 0
-2391 343 2135 87 -86 0
-2392 344 2136 88 -87 0
-87 599 0
-600 87 0
-1624 600 1112 88 -87 0
-2648 600 2136 88 -87 0
-87 1111 0
-1112 87 0
-3159 1111 2135 87 -86 0
-3160 1112 2136 88 -87 0
-87 2135 0
-2136 87 0
-224 96 220 92 -91 0
-352 96 348 92 -91 0
-608 96 604 92 -91 0
-1120 96 1116 92 -91 0
-2144 96 2140 92 -91 0
-252 124 220 92 -91 0
-380 124 348 92 -91 0
-636 124 604 92 -91 0
-1148 124 1116 92 -91 0
-2172 124 2140 92 -91 0
-91 219 0
-220 91 0
-475 219 347 91 -90 0
-476 220 348 92 -91 0
-732 220 604 92 -91 0
-1243 219 1115 91 -90 0
-1244 220 1116 92 -91 0
-2267 219 2139 91 -90 0
-2268 220 2140 92 -91 0
-91 347 0
-348 91 0
-859 347 603 91 -90 0
-860 348 604 92 -91 0
-1372 348 1116 92 -91 0
-2396 348 2140 92 -91 0
-91 603 0
-604 91 0
-1628 604 1116 92 -91 0
-2651 603 2139 91 -90 0
-2652 604 2140 92 -91 0
-91 1115 0
-1116 91 0
-3163 1115 2139 91 -90 0
-3164 1116 2140 92 -91 0
-91 2139 0
-2140 91 0
-256 128 224 96 -95 0
-384 128 352 96 -95 0
-640 128 608 96 -95 0
-1152 128 1120 96 -95 0
-2176 128 2144 96 -95 0
-95 223 0
-480 224 352 96 -95 0
-736 224 608 96 -95 0
-1248 224 1120 96 -95 0
-2272 224 2144 96 -95 0
-95 351 0
-864 352 608 96 -95 0
-1376 352 1120 96 -95 0
-2400 352 2144 96 -95 0
-95 607 0
-1632 608 1120 96 -95 0
-2656 608 2144 96 -95 0
-95 1119 0
-3168 1120 2144 96 -95 0
-95 2143 0
-103 98 0
-111 103 107 99 -98 0
-119 103 115 99 -98 0
-231 103 227 99 -98 0
-359 103 355 99 -98 0
-615 103 611 99 -98 0
-1127 103 1123 99 -98 0
-2151 103 2147 99 -98 0
-107 98 0
-123 107 115 99 -98 0
-235 107 227 99 -98 0
-363 107 355 99 -98 0
-619 107 611 99 -98 0
-1131 107 1123 99 -98 0
-2155 107 2147 99 -98 0
-243 115 227 99 -98 0
-371 115 355 99 -98 0
-627 115 611 99 -98 0
-1139 115 1123 99 -98 0
-2163 115 2147 99 -98 0
-227 98 0
-483 227 355 99 -98 0
-739 227 611 99 -98 0
-1251 227 1123 99 -98 0
-2275 227 2147 99 -98 0
-355 98 0
-867 355 611 99 -98 0
-1379 355 1123 99 -98 0
-2403 355 2147 99 -98 0
-1635 611 1123 99 -98 0
-2659 611 2147 99 -98 0
-3171 1123 2147 99 -98 0
-240 112 232 104 -103 0
-368 112 360 104 -103 0
-624 112 616 104 -103 0
-1136 112 1128 104 -103 0
-2160 112 2152 104 -103 0
-248 120 232 104 -103 0
-376 120 360 104 -103 0
-632 120 616 104 -103 0
-1144 120 1128 104 -103 0
-2168 120 2152 104 -103 0
-103 231 0
-232 103 0
-488 232 360 104 -103 0
-744 232 616 104 -103 0
-1255 231 1127 103 -102 0
-1256 232 1128 104 -103 0
-2280 232 2152 104 -103 0
-103 359 0
-360 103 0
-871 359 615 103 -102 0
-872 360 616 104 -103 0
-1384 360 1128 104 -103 0
-2408 360 2152 104 -103 0
-103 615 0
-616 103 0
-1640 616 1128 104 -103 0
-2664 616 2152 104 -103 0
-103 1127 0
-1128 103 0
-3176 1128 2152 104 -103 0
-103 2151 0
-2152 103 0
-240 112 236 108 -107 0
-368 112 364 108 -107 0
-624 112 620 108 -107 0
-1136 112 1132 108 -107 0
-2160 112 2156 108 -107 0
-252 124 236 108 -107 0
-380 124 364 108 -107 0
-636 124 620 108 -107 0
-1148 124 1132 108 -107 0
-2172 124 2156 108 -107 0
-107 235 0
-236 107 0
-491 235 363 107 -106 0
-492 236 364 108 -107 0
-748 236 620 108 -107 0
-1259 235 1131 107 -106 0
-1260 236 1132 108 -107 0
-2284 236 2156 108 -107 0
-107 363 0
-364 107 0
-876 364 620 108 -107 0
-1388 364 1132 108 -107 0
-2411 363 2155 107 -106 0
-2412 364 2156 108 -107 0
-107 619 0
-620 107 0
-1644 620 1132 108 -107 0
-2668 620 2156 108 -107 0
-107 1131 0
-1132 107 0
-3179 1131 2155 107 -106 0
-3180 1132 2156 108 -107 0
-107 2155 0
-2156 107 0
-256 128 240 112 -111 0
-384 128 368 112 -111 0
-640 128 624 112 -111 0
-1152 128 1136 112 -111 0
-2176 128 2160 112 -111 0
-111 239 0
-496 240 368 112 -111 0
-752 240 624 112 -111 0
-1264 240 1136 112 -111 0
-2288 240 2160 112 -111 0
-111 367 0
-880 368 624 112 -111 0
-1392 368 1136 112 -111 0
-2416 368 2160 112 -111 0
-111 623 0
-1648 624 1136 112 -111 0
-2672 624 2160 112 -111 0
-111 1135 0
-3184 1136 2160 112 -111 0
-111 2159 0
-248 120 244 116 -115 0
-376 120 372 116 -115 0
-632 120 628 116 -115 0
-1144 120 1140 116 -115 0
-2168 120 2164 116 -115 0
-252 124 244 116 -115 0
-380 124 372 116 -115 0
-636 124 628 116 -115 0
-1148 124 1140 116 -115 0
-2172 124 2164 116 -115 0
-115 243 0
-244 115 0
-499 243 371 115 -114 0
-500 244 372 116 -115 0
-755 243 627 115 -114 0
-756 244 628 116 -115 0
-1267 243 1139 115 -114 0
-1268 244 1140 116 -115 0
-2291 243 2163 115 -114 0
-2292 244 2164 116 -115 0
-115 371 0
-372 115 0
-884 372 628 116 -115 0
-1396 372 1140 116 -115 0
-2420 372 2164 116 -115 0
-115 627 0
-628 115 0
-1652 628 1140 116 -115 0
-2676 628 2164 116 -115 0
-115 1139 0
-1140 115 0
-3188 1140 2164 116 -115 0
-115 2163 0
-2164 115 0
-256 128 248 120 -119 0
-384 128 376 120 -119 0
-640 128 632 120 -119 0
-1152 128 1144 120 -119 0
-2176 128 2168 120 -119 0
-119 247 0
-504 248 376 120 -119 0
-760 248 632 120 -119 0
-1272 248 1144 120 -119 0
-2296 248 2168 120 -119 0
-119 375 0
-888 376 632 120 -119 0
-1400 376 1144 120 -119 0
-2424 376 2168 120 -119 0
-119 631 0
-1656 632 1144 120 -119 0
-2680 632 2168 120 -119 0
-119 1143 0
-3192 1144 2168 120 -119 0
-119 2167 0
-256 128 252 124 -123 0
-384 128 380 124 -123 0
-640 128 636 124 -123 0
-1152 128 1148 124 -123 0
-2176 128 2172 124 -123 0
-123 251 0
-508 252 380 124 -123 0
-764 252 636 124 -123 0
-1276 252 1148 124 -123 0
-2300 252 2172 124 -123 0
-123 379 0
-892 380 636 124 -123 0
-1404 380 1148 124 -123 0
-2428 380 2172 124 -123 0
-123 635 0
-1660 636 1148 124 -123 0
-2684 636 2172 124 -123 0
-123 1147 0
-3196 1148 2172 124 -123 0
-123 2171 0
-512 256 384 128 -127 0
-768 256 640 128 -127 0
-1280 256 1152 128 -127 0
-2304 256 2176 128 -127 0
-896 384 640 128 -127 0
-1408 384 1152 128 -127 0
-2432 384 2176 128 -127 0
-1664 640 1152 128 -127 0
-2688 640 2176 128 -127 0
-3200 1152 2176 128 -127 0
-450 194 386 130 -129 0
-706 194 642 130 -129 0
-1218 194 1154 130 -129 0
-2242 194 2178 130 -129 0
-898 386 642 130 -129 0
-1410 386 1154 130 -129 0
-2434 386 2178 130 -129 0
-1666 642 1154 130 -129 0
-2690 642 2178 130 -129 0
-3202 1154 2178 130 -129 0
-143 134 0
-159 143 151 135 -134 0
-175 143 167 135 -134 0
-207 143 199 135 -134 0
-399 143 391 135 -134 0
-655 143 647 135 -134 0
-1167 143 1159 135 -134 0
-2191 143 2183 135 -134 0
-151 134 0
-183 151 167 135 -134 0
-215 151 199 135 -134 0
-407 151 391 135 -134 0
-663 151 647 135 -134 0
-1175 151 1159 135 -134 0
-2199 151 2183 135 -134 0
-167 134 0
-231 167 199 135 -134 0
-423 167 391 135 -134 0
-679 167 647 135 -134 0
-1191 167 1159 135 -134 0
-2215 167 2183 135 -134 0
-199 134 0
-455 199 391 135 -134 0
-711 199 647 135 -134 0
-1223 199 1159 135 -134 0
-2247 199 2183 135 -134 0
-903 391 647 135 -134 0
-1415 391 1159 135 -134 0
-2439 391 2183 135 -134 0
-647 134 0
-1671 647 1159 135 -134 0
-2695 647 2183 135 -134 0
-3207 1159 2183 135 -134 0
-159 143 155 139 -138 0
-175 143 171 139 -138 0
-207 143 203 139 -138 0
-399 143 395 139 -138 0
-655 143 651 139 -138 0
-1167 143 1163 139 -138 0
-2191 143 2187 139 -138 0
-155 138 0
-219 155 203 139 -138 0
-411 155 395 139 -138 0
-1179 155 1163 139 -138 0
-2203 155 2187 139 -138 0
-171 138 0
-235 171 203 139 -138 0
-427 171 395 139 -138 0
-683 171 651 139 -138 0
-1195 171 1163 139 -138 0
-2219 171 2187 139 -138 0
-459 203 395 139 -138 0
-715 203 651 139 -138 0
-1227 203 1163 139 -138 0
-2251 203 2187 139 -138 0
-907 395 651 139 -138 0
-1419 395 1163 139 -138 0
-2443 395 2187 139 -138 0
-1675 651 1163 139 -138 0
-2699 651 2187 139 -138 0
-3211 1163 2187 139 -138 0
-224 160 208 144 -143 0
-416 160 400 144 -143 0
-672 160 656 144 -143 0
-1184 160 1168 144 -143 0
-2208 160 2192 144 -143 0
-240 176 208 144 -143 0
-432 176 400 144 -143 0
-688 176 656 144 -143 0
-1200 176 1168 144 -143 0
-2224 176 2192 144 -143 0
-143 207 0
-208 143 0
-464 208 400 144 -143 0
-720 208 656 144 -143 0
-1232 208 1168 144 -143 0
-2255 207 2191 143 -142 0
-2256 208 2192 144 -143 0
-143 399 0
-400 143 0
-911 399 655 143 -142 0
-912 400 656 144 -143 0
-1424 400 1168 144 -143 0
-2447 399 2191 143 -142 0
-2448 400 2192 144 -143 0
-143 655 0
-656 143 0
-1680 656 1168 144 -143 0
-2703 655 2191 143 -142 0
-2704 656 2192 144 -143 0
-143 1167 0
-1168 143 0
-3215 1167 2191 143 -142 0
-3216 1168 2192 144 -143 0
-143 2191 0
-2192 143 0
-151 146 0
-159 151 155 147 -146 0
-183 151 179 147 -146 0
-215 151 211 147 -146 0
-407 151 403 147 -146 0
-663 151 659 147 -146 0
-1175 151 1171 147 -146 0
-2199 151 2195 147 -146 0
-155 146 0
-187 155 179 147 -146 0
-219 155 211 147 -146 0
-411 155 403 147 -146 0
-667 155 659 147 -146 0
-1179 155 1171 147 -146 0
-2203 155 2195 147 -146 0
-179 146 0
-435 179 403 147 -146 0
-691 179 659 147 -146 0
-1203 179 1171 147 -146 0
-2227 179 2195 147 -146 0
-211 146 0
-467 211 403 147 -146 0
-723 211 659 147 -146 0
-1235 211 1171 147 -146 0
-2259 211 2195 147 -146 0
-403 146 0
-915 403 659 147 -146 0
-1427 403 1171 147 -146 0
-2451 403 2195 147 -146 0
-1683 659 1171 147 -146 0
-2707 659 2195 147 -146 0
-1171 146 0
-3219 1171 2195 147 -146 0
-224 160 216 152 -151 0
-416 160 408 152 -151 0
-672 160 664 152 -151 0
-1184 160 1176 152 -151 0
-2208 160 2200 152 -151 0
-248 184 216 152 -151 0
-440 184 408 152 -151 0
-696 184 664 152 -151 0
-1208 184 1176 152 -151 0
-2232 184 2200 152 -151 0
-151 215 0
-216 151 0
-471 215 407 151 -150 0
-472 216 408 152 -151 0
-728 216 664 152 -151 0
-1240 216 1176 152 -151 0
-2263 215 2199 151 -150 0
-2264 216 2200 152 -151 0
-151 407 0
-408 151 0
-919 407 663 151 -150 0
-920 408 664 152 -151 0
-1432 408 1176 152 -151 0
-2456 408 2200 152 -151 0
-151 663 0
-664 151 0
-1688 664 1176 152 -151 0
-2711 663 2199 151 -150 0
-2712 664 2200 152 -151 0
-151 1175 0
-1176 151 0
-3224 1176 2200 152 -151 0
-151 2199 0
-2200 151 0
-224 160 220 156 -155 0
-416 160 412 156 -155 0
-672 160 668 156 -155 0
-1184 160 1180 156 -155 0
-2208 160 2204 156 -155 0
-252 188 220 156 -155 0
-444 188 412 156 -155 0
-700 188 668 156 -155 0
-1212 188 1180 156 -155 0
-2236 188 2204 156 -155 0
-155 219 0
-220 155 0
-476 220 412 156 -155 0
-732 220 668 156 -155 0
-1243 219 1179 155 -154 0
-1244 220 1180 156 -155 0
-2267 219 2203 155 -154 0
-2268 220 2204 156 -155 0
-155 411 0
-412 155 0
-924 412 668 156 -155 0
-1435 411 1179 155 -154 0
-1436 412 1180 156 -155 0
-2459 411 2203 155 -154 0
-2460 412 2204 156 -155 0
-155 667 0
-668 155 0
-1691 667 1179 155 -154 0
-1692 668 1180 156 -155 0
-2715 667 2203 155 -154 0
-2716 668 2204 156 -155 0
-155 1179 0
-1180 155 0
-3227 1179 2203 155 -154 0
-3228 1180 2204 156 -155 0
-155 2203 0
-2204 155 0
-448 192 416 160 -159 0
-704 192 672 160 -159 0
-1216 192 1184 160 -159 0
-2240 192 2208 160 -159 0
-480 224 416 160 -159 0
-736 224 672 160 -159 0
-1248 224 1184 160 -159 0
-2272 224 2208 160 -159 0
-159 415 0
-928 416 672 160 -159 0
-1440 416 1184 160 -159 0
-2464 416 2208 160 -159 0
-159 671 0
-1696 672 1184 160 -159 0
-2720 672 2208 160 -159 0
-159 1183 0
-3232 1184 2208 160 -159 0
-159 2207 0
-167 162 0
-175 167 171 163 -162 0
-183 167 179 163 -162 0
-231 167 227 163 -162 0
-423 167 419 163 -162 0
-679 167 675 163 -162 0
-1191 167 1187 163 -162 0
-2215 167 2211 163 -162 0
-171 162 0
-187 171 179 163 -162 0
-235 171 227 163 -162 0
-427 171 419 163 -162 0
-683 171 675 163 -162 0
-1195 171 1187 163 -162 0
-2219 171 2211 163 -162 0
-243 179 227 163 -162 0
-435 179 419 163 -162 0
-691 179 675 163 -162 0
-1203 179 1187 163 -162 0
-2227 179 2211 163 -162 0
-227 162 0
-483 227 419 163 -162 0
-739 227 675 163 -162 0
-1251 227 1187 163 -162 0
-2275 227 2211 163 -162 0
-931 419 675 163 -162 0
-1443 419 1187 163 -162 0
-2467 419 2211 163 -162 0
-1699 675 1187 163 -162 0
-2723 675 2211 163 -162 0
-3235 1187 2211 163 -162 0
-240 176 232 168 -167 0
-432 176 424 168 -167 0
-688 176 680 168 -167 0
-1200 176 1192 168 -167 0
-2224 176 2216 168 -167 0
-248 184 232 168 -167 0
-440 184 424 168 -167 0
-696 184 680 168 -167 0
-1208 184 1192 168 -167 0
-2232 184 2216 168 -167 0
-167 231 0
-232 167 0
-488 232 424 168 -167 0
-744 232 680 168 -167 0
-1255 231 1191 167 -166 0
-1256 232 1192 168 -167 0
-2279 231 2215 167 -166 0
-2280 232 2216 168 -167 0
-167 423 0
-424 167 0
-936 424 680 168 -167 0
-1448 424 1192 168 -167 0
-2472 424 2216 168 -167 0
-167 679 0
-680 167 0
-1703 679 1191 167 -166 0
-1704 680 1192 168 -167 0
-2728 680 2216 168 -167 0
-167 1191 0
-1192 167 0
-3240 1192 2216 168 -167 0
-167 2215 0
-2216 167 0
-240 176 236 172 -171 0
-432 176 428 172 -171 0
-688 176 684 172 -171 0
-1200 176 1196 172 -171 0
-2224 176 2220 172 -171 0
-252 188 236 172 -171 0
-444 188 428 172 -171 0
-700 188 684 172 -171 0
-1212 188 1196 172 -171 0
-2236 188 2220 172 -171 0
-171 235 0
-236 171 0
-491 235 427 171 -170 0
-492 236 428 172 -171 0
-747 235 683 171 -170 0
-748 236 684 172 -171 0
-1259 235 1195 171 -170 0
-1260 236 1196 172 -171 0
-2283 235 2219 171 -170 0
-2284 236 2220 172 -171 0
-171 427 0
-428 171 0
-940 428 684 172 -171 0
-1452 428 1196 172 -171 0
-2476 428 2220 172 -171 0
-171 683 0
-684 171 0
-1708 684 1196 172 -171 0
-2731 683 2219 171 -170 0
-2732 684 2220 172 -171 0
-171 1195 0
-1196 171 0
-3244 1196 2220 172 -171 0
-171 2219 0
-2220 171 0
-448 192 432 176 -175 0
-704 192 688 176 -175 0
-1216 192 1200 176 -175 0
-2240 192 2224 176 -175 0
-496 240 432 176 -175 0
-752 240 688 176 -175 0
-1264 240 1200 176 -175 0
-2288 240 2224 176 -175 0
-175 431 0
-944 432 688 176 -175 0
-1456 432 1200 176 -175 0
-2480 432 2224 176 -175 0
-175 687 0
-1712 688 1200 176 -175 0
-2736 688 2224 176 -175 0
-175 1199 0
-3248 1200 2224 176 -175 0
-175 2223 0
-248 184 244 180 -179 0
-440 184 436 180 -179 0
-696 184 692 180 -179 0
-1208 184 1204 180 -179 0
-2232 184 2228 180 -179 0
-252 188 244 180 -179 0
-444 188 436 180 -179 0
-700 188 692 180 -179 0
-1212 188 1204 180 -179 0
-2236 188 2228 180 -179 0
-179 243 0
-244 179 0
-499 243 435 179 -178 0
-500 244 436 180 -179 0
-755 243 691 179 -178 0
-756 244 692 180 -179 0
-1267 243 1203 179 -178 0
-1268 244 1204 180 -179 0
-2291 243 2227 179 -178 0
-2292 244 2228 180 -179 0
-179 435 0
-436 179 0
-948 436 692 180 -179 0
-1460 436 1204 180 -179 0
-2484 436 2228 180 -179 0
-179 691 0
-692 179 0
-1716 692 1204 180 -179 0
-2739 691 2227 179 -178 0
-2740 692 2228 180 -179 0
-179 1203 0
-1204 179 0
-3252 1204 2228 180 -179 0
-179 2227 0
-2228 179 0
-448 192 440 184 -183 0
-704 192 696 184 -183 0
-1216 192 1208 184 -183 0
-2240 192 2232 184 -183 0
-504 248 440 184 -183 0
-760 248 696 184 -183 0
-1272 248 1208 184 -183 0
-2296 248 2232 184 -183 0
-183 439 0
-952 440 696 184 -183 0
-1464 440 1208 184 -183 0
-2488 440 2232 184 -183 0
-183 695 0
-1720 696 1208 184 -183 0
-2744 696 2232 184 -183 0
-183 1207 0
-3256 1208 2232 184 -183 0
-183 2231 0
-448 192 444 188 -187 0
-704 192 700 188 -187 0
-1216 192 1212 188 -187 0
-2240 192 2236 188 -187 0
-508 252 444 188 -187 0
-764 252 700 188 -187 0
-1276 252 1212 188 -187 0
-2300 252 2236 188 -187 0
-187 443 0
-956 444 700 188 -187 0
-1468 444 1212 188 -187 0
-2492 444 2236 188 -187 0
-187 699 0
-1724 700 1212 188 -187 0
-2748 700 2236 188 -187 0
-187 1211 0
-3260 1212 2236 188 -187 0
-187 2235 0
-512 256 448 192 -191 0
-768 256 704 192 -191 0
-1280 256 1216 192 -191 0
-2304 256 2240 192 -191 0
-960 448 704 192 -191 0
-1472 448 1216 192 -191 0
-2496 448 2240 192 -191 0
-1728 704 1216 192 -191 0
-2752 704 2240 192 -191 0
-3264 1216 2240 192 -191 0
-199 194 0
-207 199 203 195 -194 0
-215 199 211 195 -194 0
-231 199 227 195 -194 0
-455 199 451 195 -194 0
-711 199 707 195 -194 0
-1223 199 1219 195 -194 0
-2247 199 2243 195 -194 0
-203 194 0
-219 203 211 195 -194 0
-235 203 227 195 -194 0
-459 203 451 195 -194 0
-715 203 707 195 -194 0
-1227 203 1219 195 -194 0
-2251 203 2243 195 -194 0
-211 194 0
-243 211 227 195 -194 0
-467 211 451 195 -194 0
-723 211 707 195 -194 0
-1235 211 1219 195 -194 0
-2259 211 2243 195 -194 0
-227 194 0
-483 227 451 195 -194 0
-739 227 707 195 -194 0
-1251 227 1219 195 -194 0
-2275 227 2243 195 -194 0
-451 194 0
-963 451 707 195 -194 0
-1475 451 1219 195 -194 0
-2499 451 2243 195 -194 0
-707 194 0
-1731 707 1219 195 -194 0
-2755 707 2243 195 -194 0
-1219 194 0
-3267 1219 2243 195 -194 0
-2243 194 0
-199 207 0
-208 199 0
-224 208 216 200 -199 0
-240 208 232 200 -199 0
-463 207 455 199 -198 0
-464 208 456 200 -199 0
-720 208 712 200 -199 0
-1232 208 1224 200 -199 0
-2255 207 2247 199 -198 0
-2256 208 2248 200 -199 0
-199 215 0
-216 199 0
-248 216 232 200 -199 0
-472 216 456 200 -199 0
-728 216 712 200 -199 0
-1240 216 1224 200 -199 0
-2263 215 2247 199 -198 0
-2264 216 2248 200 -199 0
-199 231 0
-232 199 0
-488 232 456 200 -199 0
-744 232 712 200 -199 0
-1255 231 1223 199 -198 0
-1256 232 1224 200 -199 0
-2279 231 2247 199 -198 0
-2280 232 2248 200 -199 0
-199 455 0
-456 199 0
-968 456 712 200 -199 0
-1479 455 1223 199 -198 0
-1480 456 1224 200 -199 0
-2503 455 2247 199 -198 0
-2504 456 2248 200 -199 0
-199 711 0
-712 199 0
-1735 711 1223 199 -198 0
-1736 712 1224 200 -199 0
-2759 711 2247 199 -198 0
-2760 712 2248 200 -199 0
-199 1223 0
-1224 199 0
-3271 1223 2247 199 -198 0
-3272 1224 2248 200 -199 0
-199 2247 0
-2248 199 0
-203 207 0
-208 203 0
-224 208 220 204 -203 0
-240 208 236 204 -203 0
-464 208 460 204 -203 0
-719 207 715 203 -202 0
-720 208 716 204 -203 0
-1231 207 1227 203 -202 0
-1232 208 1228 204 -203 0
-2255 207 2251 203 -202 0
-2256 208 2252 204 -203 0
-203 219 0
-220 203 0
-252 220 236 204 -203 0
-476 220 460 204 -203 0
-732 220 716 204 -203 0
-1243 219 1227 203 -202 0
-1244 220 1228 204 -203 0
-2267 219 2251 203 -202 0
-2268 220 2252 204 -203 0
-203 235 0
-236 203 0
-491 235 459 203 -202 0
-492 236 460 204 -203 0
-748 236 716 204 -203 0
-1260 236 1228 204 -203 0
-2283 235 2251 203 -202 0
-2284 236 2252 204 -203 0
-203 459 0
-460 203 0
-971 459 715 203 -202 0
-972 460 716 204 -203 0
-1483 459 1227 203 -202 0
-1484 460 1228 204 -203 0
-2507 459 2251 203 -202 0
-2508 460 2252 204 -203 0
-203 715 0
-716 203 0
-1739 715 1227 203 -202 0
-1740 716 1228 204 -203 0
-2764 716 2252 204 -203 0
-203 1227 0
-1228 203 0
-3276 1228 2252 204 -203 0
-203 2251 0
-2252 203 0
-224 207 0
-208 224 0
-480 224 464 208 -207 0
-736 224 720 208 -207 0
-1248 224 1232 208 -207 0
-2272 224 2256 208 -207 0
-240 207 0
-208 240 0
-496 240 464 208 -207 0
-752 240 720 208 -207 0
-1264 240 1232 208 -207 0
-2288 240 2256 208 -207 0
-207 463 0
-464 207 0
-208 464 0
-976 464 720 208 -207 0
-1488 464 1232 208 -207 0
-2512 464 2256 208 -207 0
-207 719 0
-720 207 0
-208 720 0
-1744 720 1232 208 -207 0
-2768 720 2256 208 -207 0
-207 1231 0
-1232 207 0
-208 1232 0
-3280 1232 2256 208 -207 0
-207 2255 0
-2256 207 0
-208 2256 0
-211 215 0
-216 211 0
-224 216 220 212 -211 0
-248 216 244 212 -211 0
-471 215 467 211 -210 0
-472 216 468 212 -211 0
-727 215 723 211 -210 0
-728 216 724 212 -211 0
-1239 215 1235 211 -210 0
-1240 216 1236 212 -211 0
-2264 216 2260 212 -211 0
-211 219 0
-220 211 0
-252 220 244 212 -211 0
-475 219 467 211 -210 0
-476 220 468 212 -211 0
-731 219 723 211 -210 0
-732 220 724 212 -211 0
-1243 219 1235 211 -210 0
-1244 220 1236 212 -211 0
-2268 220 2260 212 -211 0
-211 243 0
-244 211 0
-499 243 467 211 -210 0
-500 244 468 212 -211 0
-755 243 723 211 -210 0
-756 244 724 212 -211 0
-1267 243 1235 211 -210 0
-1268 244 1236 212 -211 0
-2291 243 2259 211 -210 0
-2292 244 2260 212 -211 0
-211 467 0
-468 211 0
-979 467 723 211 -210 0
-980 468 724 212 -211 0
-1491 467 1235 211 -210 0
-1492 468 1236 212 -211 0
-2515 467 2259 211 -210 0
-2516 468 2260 212 -211 0
-211 723 0
-724 211 0
-1747 723 1235 211 -210 0
-1748 724 1236 212 -211 0
-2772 724 2260 212 -211 0
-211 1235 0
-1236 211 0
-3284 1236 2260 212 -211 0
-211 2259 0
-2260 211 0
-224 215 0
-216 224 0
-256 224 248 216 -215 0
-480 224 472 216 -215 0
-736 224 728 216 -215 0
-1248 224 1240 216 -215 0
-2272 224 2264 216 -215 0
-248 215 0
-216 248 0
-504 248 472 216 -215 0
-760 248 728 216 -215 0
-1272 248 1240 216 -215 0
-2296 248 2264 216 -215 0
-215 471 0
-472 215 0
-216 472 0
-1496 472 1240 216 -215 0
-2520 472 2264 216 -215 0
-215 727 0
-728 215 0
-216 728 0
-1752 728 1240 216 -215 0
-2776 728 2264 216 -215 0
-215 1239 0
-216 1240 0
-3288 1240 2264 216 -215 0
-215 2263 0
-2264 215 0
-216 2264 0
-224 219 0
-220 224 0
-480 224 476 220 -219 0
-736 224 732 220 -219 0
-1248 224 1244 220 -219 0
-2272 224 2268 220 -219 0
-252 219 0
-220 252 0
-508 252 476 220 -219 0
-764 252 732 220 -219 0
-1276 252 1244 220 -219 0
-2300 252 2268 220 -219 0
-219 475 0
-476 219 0
-220 476 0
-988 476 732 220 -219 0
-1500 476 1244 220 -219 0
-2524 476 2268 220 -219 0
-219 731 0
-732 219 0
-220 732 0
-1756 732 1244 220 -219 0
-2780 732 2268 220 -219 0
-219 1243 0
-1244 219 0
-220 1244 0
-3292 1244 2268 220 -219 0
-219 2267 0
-2268 219 0
-220 2268 0
-224 256 0
-512 256 480 224 -223 0
-768 256 736 224 -223 0
-1280 256 1248 224 -223 0
-2304 256 2272 224 -223 0
-224 480 0
-992 480 736 224 -223 0
-2528 480 2272 224 -223 0
-224 736 0
-1760 736 1248 224 -223 0
-2784 736 2272 224 -223 0
-224 1248 0
-3296 1248 2272 224 -223 0
-224 2272 0
-227 231 0
-232 227 0
-240 232 236 228 -227 0
-248 232 244 228 -227 0
-488 232 484 228 -227 0
-743 231 739 227 -226 0
-744 232 740 228 -227 0
-1256 232 1252 228 -227 0
-2280 232 2276 228 -227 0
-227 235 0
-236 227 0
-252 236 244 228 -227 0
-491 235 483 227 -226 0
-492 236 484 228 -227 0
-747 235 739 227 -226 0
-748 236 740 228 -227 0
-1259 235 1251 227 -226 0
-1260 236 1252 228 -227 0
-2283 235 2275 227 -226 0
-2284 236 2276 228 -227 0
-227 243 0
-244 227 0
-499 243 483 227 -226 0
-500 244 484 228 -227 0
-755 243 739 227 -226 0
-756 244 740 228 -227 0
-1267 243 1251 227 -226 0
-1268 244 1252 228 -227 0
-2291 243 2275 227 -226 0
-2292 244 2276 228 -227 0
-227 483 0
-484 227 0
-995 483 739 227 -226 0
-996 484 740 228 -227 0
-1508 484 1252 228 -227 0
-2531 483 2275 227 -226 0
-2532 484 2276 228 -227 0
-227 739 0
-740 227 0
-1763 739 1251 227 -226 0
-1764 740 1252 228 -227 0
-2787 739 2275 227 -226 0
-2788 740 2276 228 -227 0
-227 1251 0
-1252 227 0
-3299 1251 2275 227 -226 0
-3300 1252 2276 228 -227 0
-227 2275 0
-2276 227 0
-240 231 0
-232 240 0
-496 240 488 232 -231 0
-752 240 744 232 -231 0
-1264 240 1256 232 -231 0
-2288 240 2280 232 -231 0
-232 248 0
-504 248 488 232 -231 0
-760 248 744 232 -231 0
-1272 248 1256 232 -231 0
-2296 248 2280 232 -231 0
-231 487 0
-488 231 0
-232 488 0
-1000 488 744 232 -231 0
-1512 488 1256 232 -231 0
-2536 488 2280 232 -231 0
-231 743 0
-744 231 0
-232 744 0
-2792 744 2280 232 -231 0
-231 1255 0
-1256 231 0
-232 1256 0
-3304 1256 2280 232 -231 0
-231 2279 0
-232 2280 0
-240 235 0
-236 240 0
-256 240 252 236 -235 0
-496 240 492 236 -235 0
-752 240 748 236 -235 0
-1264 240 1260 236 -235 0
-2288 240 2284 236 -235 0
-252 235 0
-236 252 0
-508 252 492 236 -235 0
-764 252 748 236 -235 0
-1276 252 1260 236 -235 0
-2300 252 2284 236 -235 0
-235 491 0
-492 235 0
-236 492 0
-1004 492 748 236 -235 0
-1515 491 1259 235 -234 0
-1516 492 1260 236 -235 0
-2540 492 2284 236 -235 0
-235 747 0
-748 235 0
-236 748 0
-1772 748 1260 236 -235 0
-2796 748 2284 236 -235 0
-235 1259 0
-1260 235 0
-236 1260 0
-3308 1260 2284 236 -235 0
-235 2283 0
-2284 235 0
-236 2284 0
-240 256 0
-512 256 496 240 -239 0
-768 256 752 240 -239 0
-1280 256 1264 240 -239 0
-2304 256 2288 240 -239 0
-240 496 0
-1008 496 752 240 -239 0
-2544 496 2288 240 -239 0
-240 752 0
-1776 752 1264 240 -239 0
-2800 752 2288 240 -239 0
-240 1264 0
-3312 1264 2288 240 -239 0
-240 2288 0
-244 248 0
-256 248 252 244 -243 0
-504 248 500 244 -243 0
-760 248 756 244 -243 0
-1272 248 1268 244 -243 0
-2296 248 2292 244 -243 0
-252 243 0
-244 252 0
-508 252 500 244 -243 0
-764 252 756 244 -243 0
-1276 252 1268 244 -243 0
-2300 252 2292 244 -243 0
-243 499 0
-500 243 0
-244 500 0
-1012 500 756 244 -243 0
-1524 500 1268 244 -243 0
-2548 500 2292 244 -243 0
-243 755 0
-756 243 0
-244 756 0
-243 1267 0
-1268 243 0
-244 1268 0
-3316 1268 2292 244 -243 0
-243 2291 0
-2292 243 0
-244 2292 0
-248 256 0
-512 256 504 248 -247 0
-768 256 760 248 -247 0
-1280 256 1272 248 -247 0
-2304 256 2296 248 -247 0
-248 504 0
-1528 504 1272 248 -247 0
-2552 504 2296 248 -247 0
-248 760 0
-1784 760 1272 248 -247 0
-2808 760 2296 248 -247 0
-248 1272 0
-3320 1272 2296 248 -247 0
-248 2296 0
-252 256 0
-512 256 508 252 -251 0
-768 256 764 252 -251 0
-1280 256 1276 252 -251 0
-2304 256 2300 252 -251 0
-252 508 0
-1532 508 1276 252 -251 0
-2556 508 2300 252 -251 0
-252 764 0
-2812 764 2300 252 -251 0
-252 1276 0
-3324 1276 2300 252 -251 0
-252 2300 0
-256 512 0
-1024 512 768 256 -255 0
-1536 512 1280 256 -255 0
-2560 512 2304 256 -255 0
-1792 768 1280 256 -255 0
-2816 768 2304 256 -255 0
-3328 1280 2304 256 -255 0
-256 2304 0
-354 290 322 258 -257 0
-450 322 386 258 -257 0
-834 322 770 258 -257 0
-1346 322 1282 258 -257 0
-2370 322 2306 258 -257 0
-898 386 770 258 -257 0
-1410 386 1282 258 -257 0
-2434 386 2306 258 -257 0
-1794 770 1282 258 -257 0
-2818 770 2306 258 -257 0
-3330 1282 2306 258 -257 0
-271 262 0
-287 271 279 263 -262 0
-303 271 295 263 -262 0
-399 271 391 263 -262 0
-783 271 775 263 -262 0
-1295 271 1287 263 -262 0
-2319 271 2311 263 -262 0
-279 262 0
-311 279 295 263 -262 0
-343 279 327 263 -262 0
-407 279 391 263 -262 0
-791 279 775 263 -262 0
-1303 279 1287 263 -262 0
-2327 279 2311 263 -262 0
-295 262 0
-359 295 327 263 -262 0
-807 295 775 263 -262 0
-1319 295 1287 263 -262 0
-2343 295 2311 263 -262 0
-455 327 391 263 -262 0
-839 327 775 263 -262 0
-1351 327 1287 263 -262 0
-2375 327 2311 263 -262 0
-903 391 775 263 -262 0
-1415 391 1287 263 -262 0
-2439 391 2311 263 -262 0
-775 262 0
-1799 775 1287 263 -262 0
-2823 775 2311 263 -262 0
-3335 1287 2311 263 -262 0
-303 271 299 267 -266 0
-335 271 331 267 -266 0
-399 271 395 267 -266 0
-783 271 779 267 -266 0
-1295 271 1291 267 -266 0
-2319 271 2315 267 -266 0
-283 266 0
-347 283 331 267 -266 0
-411 283 395 267 -266 0
-795 283 779 267 -266 0
-1307 283 1291 267 -266 0
-2331 283 2315 267 -266 0
-299 266 0
-363 299 331 267 -266 0
-427 299 395 267 -266 0
-811 299 779 267 -266 0
-1323 299 1291 267 -266 0
-2347 299 2315 267 -266 0
-459 331 395 267 -266 0
-843 331 779 267 -266 0
-1355 331 1291 267 -266 0
-2379 331 2315 267 -266 0
-907 395 779 267 -266 0
-1419 395 1291 267 -266 0
-2443 395 2315 267 -266 0
-1803 779 1291 267 -266 0
-2827 779 2315 267 -266 0
-3339 1291 2315 267 -266 0
-352 288 336 272 -271 0
-416 288 400 272 -271 0
-800 288 784 272 -271 0
-1312 288 1296 272 -271 0
-2336 288 2320 272 -271 0
-368 304 336 272 -271 0
-432 304 400 272 -271 0
-816 304 784 272 -271 0
-1328 304 1296 272 -271 0
-2352 304 2320 272 -271 0
-271 335 0
-336 271 0
-463 335 399 271 -270 0
-464 336 400 272 -271 0
-848 336 784 272 -271 0
-1359 335 1295 271 -270 0
-1360 336 1296 272 -271 0
-2384 336 2320 272 -271 0
-271 399 0
-400 271 0
-911 399 783 271 -270 0
-912 400 784 272 -271 0
-1423 399 1295 271 -270 0
-1424 400 1296 272 -271 0
-2447 399 2319 271 -270 0
-2448 400 2320 272 -271 0
-271 783 0
-784 271 0
-1807 783 1295 271 -270 0
-1808 784 1296 272 -271 0
-2831 783 2319 271 -270 0
-2832 784 2320 272 -271 0
-271 1295 0
-1296 271 0
-3343 1295 2319 271 -270 0
-3344 1296 2320 272 -271 0
-271 2319 0
-2320 271 0
-279 274 0
-287 279 283 275 -274 0
-311 279 307 275 -274 0
-407 279 403 275 -274 0
-791 279 787 275 -274 0
-1303 279 1299 275 -274 0
-2327 279 2323 275 -274 0
-283 274 0
-411 283 403 275 -274 0
-795 283 787 275 -274 0
-1307 283 1299 275 -274 0
-2331 283 2323 275 -274 0
-307 274 0
-371 307 339 275 -274 0
-819 307 787 275 -274 0
-1331 307 1299 275 -274 0
-339 274 0
-467 339 403 275 -274 0
-851 339 787 275 -274 0
-1363 339 1299 275 -274 0
-2387 339 2323 275 -274 0
-915 403 787 275 -274 0
-1427 403 1299 275 -274 0
-2451 403 2323 275 -274 0
-787 274 0
-1811 787 1299 275 -274 0
-2835 787 2323 275 -274 0
-1299 274 0
-3347 1299 2323 275 -274 0
-352 288 344 280 -279 0
-416 288 408 280 -279 0
-800 288 792 280 -279 0
-1312 288 1304 280 -279 0
-2336 288 2328 280 -279 0
-376 312 344 280 -279 0
-440 312 408 280 -279 0
-824 312 792 280 -279 0
-1336 312 1304 280 -279 0
-2360 312 2328 280 -279 0
-279 343 0
-344 279 0
-472 344 408 280 -279 0
-855 343 791 279 -278 0
-856 344 792 280 -279 0
-1367 343 1303 279 -278 0
-1368 344 1304 280 -279 0
-2392 344 2328 280 -279 0
-279 407 0
-408 279 0
-919 407 791 279 -278 0
-920 408 792 280 -279 0
-1431 407 1303 279 -278 0
-1432 408 1304 280 -279 0
-2456 408 2328 280 -279 0
-279 791 0
-792 279 0
-1815 791 1303 279 -278 0
-1816 792 1304 280 -279 0
-2839 791 2327 279 -278 0
-2840 792 2328 280 -279 0
-279 1303 0
-1304 279 0
-3351 1303 2327 279 -278 0
-3352 1304 2328 280 -279 0
-279 2327 0
-2328 279 0
-416 288 412 284 -283 0
-800 288 796 284 -283 0
-1312 288 1308 284 -283 0
-2336 288 2332 284 -283 0
-380 316 348 284 -283 0
-444 316 412 284 -283 0
-828 316 796 284 -283 0
-1340 316 1308 284 -283 0
-2364 316 2332 284 -283 0
-283 347 0
-348 283 0
-476 348 412 284 -283 0
-859 347 795 283 -282 0
-860 348 796 284 -283 0
-1371 347 1307 283 -282 0
-1372 348 1308 284 -283 0
-2396 348 2332 284 -283 0
-283 411 0
-412 283 0
-923 411 795 283 -282 0
-924 412 796 284 -283 0
-1435 411 1307 283 -282 0
-1436 412 1308 284 -283 0
-2459 411 2331 283 -282 0
-2460 412 2332 284 -283 0
-283 795 0
-796 283 0
-1820 796 1308 284 -283 0
-2843 795 2331 283 -282 0
-2844 796 2332 284 -283 0
-283 1307 0
-1308 283 0
-3355 1307 2331 283 -282 0
-3356 1308 2332 284 -283 0
-283 2331 0
-2332 283 0
-384 320 352 288 -287 0
-448 320 416 288 -287 0
-832 320 800 288 -287 0
-1344 320 1312 288 -287 0
-2368 320 2336 288 -287 0
-480 352 416 288 -287 0
-864 352 800 288 -287 0
-1376 352 1312 288 -287 0
-2400 352 2336 288 -287 0
-928 416 800 288 -287 0
-1440 416 1312 288 -287 0
-2464 416 2336 288 -287 0
-287 799 0
-1824 800 1312 288 -287 0
-2848 800 2336 288 -287 0
-287 1311 0
-3360 1312 2336 288 -287 0
-287 2335 0
-295 290 0
-303 295 299 291 -290 0
-311 295 307 291 -290 0
-359 295 355 291 -290 0
-807 295 803 291 -290 0
-1319 295 1315 291 -290 0
-2343 295 2339 291 -290 0
-299 290 0
-315 299 307 291 -290 0
-363 299 355 291 -290 0
-427 299 419 291 -290 0
-811 299 803 291 -290 0
-1323 299 1315 291 -290 0
-2347 299 2339 291 -290 0
-307 290 0
-819 307 803 291 -290 0
-2355 307 2339 291 -290 0
-355 290 0
-483 355 419 291 -290 0
-867 355 803 291 -290 0
-1379 355 1315 291 -290 0
-2403 355 2339 291 -290 0
-931 419 803 291 -290 0
-1443 419 1315 291 -290 0
-2467 419 2339 291 -290 0
-803 290 0
-1827 803 1315 291 -290 0
-2851 803 2339 291 -290 0
-3363 1315 2339 291 -290 0
-368 304 360 296 -295 0
-432 304 424 296 -295 0
-816 304 808 296 -295 0
-1328 304 1320 296 -295 0
-2352 304 2344 296 -295 0
-376 312 360 296 -295 0
-440 312 424 296 -295 0
-824 312 808 296 -295 0
-1336 312 1320 296 -295 0
-2360 312 2344 296 -295 0
-295 359 0
-360 295 0
-488 360 424 296 -295 0
-871 359 807 295 -294 0
-872 360 808 296 -295 0
-1383 359 1319 295 -294 0
-1384 360 1320 296 -295 0
-2407 359 2343 295 -294 0
-2408 360 2344 296 -295 0
-295 423 0
-424 295 0
-935 423 807 295 -294 0
-936 424 808 296 -295 0
-1447 423 1319 295 -294 0
-1448 424 1320 296 -295 0
-2472 424 2344 296 -295 0
-295 807 0
-808 295 0
-1831 807 1319 295 -294 0
-1832 808 1320 296 -295 0
-2856 808 2344 296 -295 0
-295 1319 0
-1320 295 0
-3367 1319 2343 295 -294 0
-3368 1320 2344 296 -295 0
-295 2343 0
-2344 295 0
-368 304 364 300 -299 0
-432 304 428 300 -299 0
-816 304 812 300 -299 0
-1328 304 1324 300 -299 0
-2352 304 2348 300 -299 0
-380 316 364 300 -299 0
-444 316 428 300 -299 0
-828 316 812 300 -299 0
-1340 316 1324 300 -299 0
-2364 316 2348 300 -299 0
-299 363 0
-364 299 0
-491 363 427 299 -298 0
-492 364 428 300 -299 0
-875 363 811 299 -298 0
-876 364 812 300 -299 0
-1387 363 1323 299 -298 0
-1388 364 1324 300 -299 0
-2411 363 2347 299 -298 0
-2412 364 2348 300 -299 0
-299 427 0
-428 299 0
-940 428 812 300 -299 0
-1451 427 1323 299 -298 0
-1452 428 1324 300 -299 0
-2476 428 2348 300 -299 0
-299 811 0
-812 299 0
-1836 812 1324 300 -299 0
-2860 812 2348 300 -299 0
-299 1323 0
-1324 299 0
-3371 1323 2347 299 -298 0
-3372 1324 2348 300 -299 0
-299 2347 0
-2348 299 0
-832 320 816 304 -303 0
-1344 320 1328 304 -303 0
-2368 320 2352 304 -303 0
-496 368 432 304 -303 0
-880 368 816 304 -303 0
-1392 368 1328 304 -303 0
-2416 368 2352 304 -303 0
-944 432 816 304 -303 0
-1456 432 1328 304 -303 0
-2480 432 2352 304 -303 0
-303 815 0
-1840 816 1328 304 -303 0
-2864 816 2352 304 -303 0
-303 1327 0
-3376 1328 2352 304 -303 0
-303 2351 0
-376 312 372 308 -307 0
-440 312 436 308 -307 0
-824 312 820 308 -307 0
-1336 312 1332 308 -307 0
-2360 312 2356 308 -307 0
-380 316 372 308 -307 0
-444 316 436 308 -307 0
-828 316 820 308 -307 0
-1340 316 1332 308 -307 0
-2364 316 2356 308 -307 0
-307 371 0
-372 307 0
-500 372 436 308 -307 0
-883 371 819 307 -306 0
-884 372 820 308 -307 0
-1396 372 1332 308 -307 0
-2420 372 2356 308 -307 0
-307 435 0
-436 307 0
-948 436 820 308 -307 0
-1460 436 1332 308 -307 0
-2484 436 2356 308 -307 0
-307 819 0
-820 307 0
-1844 820 1332 308 -307 0
-2868 820 2356 308 -307 0
-307 1331 0
-1332 307 0
-3380 1332 2356 308 -307 0
-307 2355 0
-2356 307 0
-832 320 824 312 -311 0
-1344 320 1336 312 -311 0
-2368 320 2360 312 -311 0
-504 376 440 312 -311 0
-888 376 824 312 -311 0
-1400 376 1336 312 -311 0
-2424 376 2360 312 -311 0
-952 440 824 312 -311 0
-1464 440 1336 312 -311 0
-2488 440 2360 312 -311 0
-311 823 0
-1848 824 1336 312 -311 0
-2872 824 2360 312 -311 0
-311 1335 0
-3384 1336 2360 312 -311 0
-311 2359 0
-384 320 380 316 -315 0
-832 320 828 316 -315 0
-1344 320 1340 316 -315 0
-2368 320 2364 316 -315 0
-508 380 444 316 -315 0
-892 380 828 316 -315 0
-1404 380 1340 316 -315 0
-2428 380 2364 316 -315 0
-956 444 828 316 -315 0
-1468 444 1340 316 -315 0
-2492 444 2364 316 -315 0
-315 827 0
-1852 828 1340 316 -315 0
-2876 828 2364 316 -315 0
-315 1339 0
-3388 1340 2364 316 -315 0
-315 2363 0
-512 384 448 320 -319 0
-896 384 832 320 -319 0
-1408 384 1344 320 -319 0
-2432 384 2368 320 -319 0
-960 448 832 320 -319 0
-1472 448 1344 320 -319 0
-2496 448 2368 320 -319 0
-1856 832 1344 320 -319 0
-2880 832 2368 320 -319 0
-3392 1344 2368 320 -319 0
-327 322 0
-335 327 331 323 -322 0
-343 327 339 323 -322 0
-359 327 355 323 -322 0
-455 327 451 323 -322 0
-839 327 835 323 -322 0
-1351 327 1347 323 -322 0
-2375 327 2371 323 -322 0
-331 322 0
-347 331 339 323 -322 0
-363 331 355 323 -322 0
-459 331 451 323 -322 0
-843 331 835 323 -322 0
-1355 331 1347 323 -322 0
-2379 331 2371 323 -322 0
-339 322 0
-371 339 355 323 -322 0
-467 339 451 323 -322 0
-851 339 835 323 -322 0
-1363 339 1347 323 -322 0
-2387 339 2371 323 -322 0
-355 322 0
-483 355 451 323 -322 0
-867 355 835 323 -322 0
-1379 355 1347 323 -322 0
-2403 355 2371 323 -322 0
-451 322 0
-963 451 835 323 -322 0
-1475 451 1347 323 -322 0
-2499 451 2371 323 -322 0
-835 322 0
-1859 835 1347 323 -322 0
-2883 835 2371 323 -322 0
-1347 322 0
-3395 1347 2371 323 -322 0
-2371 322 0
-327 335 0
-336 327 0
-352 336 344 328 -327 0
-368 336 360 328 -327 0
-464 336 456 328 -327 0
-847 335 839 327 -326 0
-848 336 840 328 -327 0
-1360 336 1352 328 -327 0
-2384 336 2376 328 -327 0
-327 343 0
-344 327 0
-376 344 360 328 -327 0
-471 343 455 327 -326 0
-472 344 456 328 -327 0
-856 344 840 328 -327 0
-1368 344 1352 328 -327 0
-2392 344 2376 328 -327 0
-327 359 0
-360 327 0
-488 360 456 328 -327 0
-871 359 839 327 -326 0
-872 360 840 328 -327 0
-1384 360 1352 328 -327 0
-2408 360 2376 328 -327 0
-327 455 0
-456 327 0
-968 456 840 328 -327 0
-1479 455 1351 327 -326 0
-1480 456 1352 328 -327 0
-2504 456 2376 328 -327 0
-327 839 0
-840 327 0
-1864 840 1352 328 -327 0
-2888 840 2376 328 -327 0
-327 1351 0
-1352 327 0
-3400 1352 2376 328 -327 0
-327 2375 0
-2376 327 0
-331 335 0
-336 331 0
-352 336 348 332 -331 0
-368 336 364 332 -331 0
-464 336 460 332 -331 0
-848 336 844 332 -331 0
-1360 336 1356 332 -331 0
-2384 336 2380 332 -331 0
-331 347 0
-348 331 0
-380 348 364 332 -331 0
-476 348 460 332 -331 0
-860 348 844 332 -331 0
-1372 348 1356 332 -331 0
-2396 348 2380 332 -331 0
-331 363 0
-364 331 0
-491 363 459 331 -330 0
-492 364 460 332 -331 0
-876 364 844 332 -331 0
-1388 364 1356 332 -331 0
-2411 363 2379 331 -330 0
-2412 364 2380 332 -331 0
-331 459 0
-460 331 0
-971 459 843 331 -330 0
-972 460 844 332 -331 0
-1483 459 1355 331 -330 0
-1484 460 1356 332 -331 0
-2507 459 2379 331 -330 0
-2508 460 2380 332 -331 0
-331 843 0
-844 331 0
-1868 844 1356 332 -331 0
-2892 844 2380 332 -331 0
-331 1355 0
-1356 331 0
-3403 1355 2379 331 -330 0
-3404 1356 2380 332 -331 0
-331 2379 0
-2380 331 0
-352 335 0
-336 352 0
-384 352 368 336 -335 0
-480 352 464 336 -335 0
-864 352 848 336 -335 0
-2400 352 2384 336 -335 0
-368 335 0
-336 368 0
-496 368 464 336 -335 0
-880 368 848 336 -335 0
-1392 368 1360 336 -335 0
-2416 368 2384 336 -335 0
-335 463 0
-464 335 0
-336 464 0
-976 464 848 336 -335 0
-1488 464 1360 336 -335 0
-2512 464 2384 336 -335 0
-335 847 0
-336 848 0
-1872 848 1360 336 -335 0
-2896 848 2384 336 -335 0
-335 1359 0
-1360 335 0
-336 1360 0
-3408 1360 2384 336 -335 0
-335 2383 0
-2384 335 0
-336 2384 0
-339 343 0
-344 339 0
-352 344 348 340 -339 0
-376 344 372 340 -339 0
-472 344 468 340 -339 0
-856 344 852 340 -339 0
-1368 344 1364 340 -339 0
-2392 344 2388 340 -339 0
-339 347 0
-348 339 0
-380 348 372 340 -339 0
-475 347 467 339 -338 0
-476 348 468 340 -339 0
-860 348 852 340 -339 0
-1371 347 1363 339 -338 0
-1372 348 1364 340 -339 0
-2395 347 2387 339 -338 0
-2396 348 2388 340 -339 0
-339 371 0
-372 339 0
-500 372 468 340 -339 0
-884 372 852 340 -339 0
-1396 372 1364 340 -339 0
-2420 372 2388 340 -339 0
-339 467 0
-468 339 0
-979 467 851 339 -338 0
-980 468 852 340 -339 0
-1491 467 1363 339 -338 0
-1492 468 1364 340 -339 0
-2515 467 2387 339 -338 0
-2516 468 2388 340 -339 0
-339 851 0
-852 339 0
-1875 851 1363 339 -338 0
-1876 852 1364 340 -339 0
-2899 851 2387 339 -338 0
-2900 852 2388 340 -339 0
-339 1363 0
-1364 339 0
-3411 1363 2387 339 -338 0
-3412 1364 2388 340 -339 0
-339 2387 0
-2388 339 0
-352 343 0
-344 352 0
-480 352 472 344 -343 0
-864 352 856 344 -343 0
-1376 352 1368 344 -343 0
-2400 352 2392 344 -343 0
-376 343 0
-344 376 0
-504 376 472 344 -343 0
-888 376 856 344 -343 0
-1400 376 1368 344 -343 0
-2424 376 2392 344 -343 0
-343 471 0
-344 472 0
-984 472 856 344 -343 0
-1496 472 1368 344 -343 0
-2520 472 2392 344 -343 0
-343 855 0
-856 343 0
-344 856 0
-1880 856 1368 344 -343 0
-2904 856 2392 344 -343 0
-343 1367 0
-1368 343 0
-344 1368 0
-3416 1368 2392 344 -343 0
-343 2391 0
-2392 343 0
-344 2392 0
-352 347 0
-348 352 0
-480 352 476 348 -347 0
-864 352 860 348 -347 0
-1376 352 1372 348 -347 0
-2400 352 2396 348 -347 0
-380 347 0
-348 380 0
-508 380 476 348 -347 0
-892 380 860 348 -347 0
-1404 380 1372 348 -347 0
-2428 380 2396 348 -347 0
-347 475 0
-476 347 0
-348 476 0
-988 476 860 348 -347 0
-1500 476 1372 348 -347 0
-2523 475 2395 347 -346 0
-347 859 0
-860 347 0
-348 860 0
-1884 860 1372 348 -347 0
-347 1371 0
-1372 347 0
-348 1372 0
-3419 1371 2395 347 -346 0
-3420 1372 2396 348 -347 0
-347 2395 0
-2396 347 0
-348 2396 0
-352 384 0
-512 384 480 352 -351 0
-1408 384 1376 352 -351 0
-2432 384 2400 352 -351 0
-352 480 0
-1504 480 1376 352 -351 0
-352 864 0
-1888 864 1376 352 -351 0
-2912 864 2400 352 -351 0
-352 1376 0
-3424 1376 2400 352 -351 0
-352 2400 0
-355 359 0
-360 355 0
-368 360 364 356 -355 0
-375 359 371 355 -354 0
-376 360 372 356 -355 0
-488 360 484 356 -355 0
-872 360 868 356 -355 0
-1383 359 1379 355 -354 0
-1384 360 1380 356 -355 0
-2408 360 2404 356 -355 0
-355 363 0
-364 355 0
-380 364 372 356 -355 0
-492 364 484 356 -355 0
-876 364 868 356 -355 0
-1387 363 1379 355 -354 0
-1388 364 1380 356 -355 0
-2411 363 2403 355 -354 0
-2412 364 2404 356 -355 0
-355 371 0
-372 355 0
-500 372 484 356 -355 0
-884 372 868 356 -355 0
-1395 371 1379 355 -354 0
-1396 372 1380 356 -355 0
-2419 371 2403 355 -354 0
-2420 372 2404 356 -355 0
-355 483 0
-484 355 0
-996 484 868 356 -355 0
-1508 484 1380 356 -355 0
-2532 484 2404 356 -355 0
-355 867 0
-868 355 0
-1891 867 1379 355 -354 0
-1892 868 1380 356 -355 0
-2916 868 2404 356 -355 0
-355 1379 0
-1380 355 0
-3428 1380 2404 356 -355 0
-355 2403 0
-2404 355 0
-368 359 0
-360 368 0
-496 368 488 360 -359 0
-880 368 872 360 -359 0
-1392 368 1384 360 -359 0
-2416 368 2408 360 -359 0
-376 359 0
-360 376 0
-504 376 488 360 -359 0
-888 376 872 360 -359 0
-1400 376 1384 360 -359 0
-2424 376 2408 360 -359 0
-359 487 0
-488 359 0
-360 488 0
-1000 488 872 360 -359 0
-1512 488 1384 360 -359 0
-2536 488 2408 360 -359 0
-359 871 0
-872 359 0
-360 872 0
-1896 872 1384 360 -359 0
-2920 872 2408 360 -359 0
-359 1383 0
-1384 359 0
-360 1384 0
-3432 1384 2408 360 -359 0
-359 2407 0
-2408 359 0
-360 2408 0
-368 363 0
-364 368 0
-496 368 492 364 -363 0
-880 368 876 364 -363 0
-1392 368 1388 364 -363 0
-2416 368 2412 364 -363 0
-380 363 0
-364 380 0
-508 380 492 364 -363 0
-892 380 876 364 -363 0
-1404 380 1388 364 -363 0
-2428 380 2412 364 -363 0
-363 491 0
-492 363 0
-364 492 0
-1004 492 876 364 -363 0
-1516 492 1388 364 -363 0
-2539 491 2411 363 -362 0
-2540 492 2412 364 -363 0
-876 363 0
-364 876 0
-1900 876 1388 364 -363 0
-2924 876 2412 364 -363 0
-363 1387 0
-1388 363 0
-364 1388 0
-3436 1388 2412 364 -363 0
-363 2411 0
-364 2412 0
-368 384 0
-512 384 496 368 -367 0
-896 384 880 368 -367 0
-1408 384 1392 368 -367 0
-2432 384 2416 368 -367 0
-368 496 0
-1520 496 1392 368 -367 0
-2544 496 2416 368 -367 0
-368 880 0
-1904 880 1392 368 -367 0
-2928 880 2416 368 -367 0
-368 1392 0
-3440 1392 2416 368 -367 0
-368 2416 0
-376 371 0
-372 376 0
-504 376 500 372 -371 0
-888 376 884 372 -371 0
-1400 376 1396 372 -371 0
-2424 376 2420 372 -371 0
-380 371 0
-372 380 0
-1404 380 1396 372 -371 0
-2428 380 2420 372 -371 0
-371 499 0
-372 500 0
-1012 500 884 372 -371 0
-1524 500 1396 372 -371 0
-2548 500 2420 372 -371 0
-371 883 0
-372 884 0
-2932 884 2420 372 -371 0
-371 1395 0
-1396 371 0
-372 1396 0
-3444 1396 2420 372 -371 0
-371 2419 0
-372 2420 0
-376 384 0
-512 384 504 376 -375 0
-896 384 888 376 -375 0
-1408 384 1400 376 -375 0
-2432 384 2424 376 -375 0
-376 504 0
-1528 504 1400 376 -375 0
-2552 504 2424 376 -375 0
-376 888 0
-2936 888 2424 376 -375 0
-376 1400 0
-3448 1400 2424 376 -375 0
-376 2424 0
-380 384 0
-512 384 508 380 -379 0
-896 384 892 380 -379 0
-1408 384 1404 380 -379 0
-2432 384 2428 380 -379 0
-380 508 0
-1020 508 892 380 -379 0
-1532 508 1404 380 -379 0
-380 892 0
-380 1404 0
-3452 1404 2428 380 -379 0
-380 2428 0
-384 512 0
-1024 512 896 384 -383 0
-1536 512 1408 384 -383 0
-2560 512 2432 384 -383 0
-384 896 0
-1920 896 1408 384 -383 0
-2944 896 2432 384 -383 0
-384 1408 0
-3456 1408 2432 384 -383 0
-384 2432 0
-391 386 0
-399 391 395 387 -386 0
-407 391 403 387 -386 0
-423 391 419 387 -386 0
-455 391 451 387 -386 0
-903 391 899 387 -386 0
-1415 391 1411 387 -386 0
-2439 391 2435 387 -386 0
-395 386 0
-411 395 403 387 -386 0
-427 395 419 387 -386 0
-459 395 451 387 -386 0
-907 395 899 387 -386 0
-1419 395 1411 387 -386 0
-2443 395 2435 387 -386 0
-403 386 0
-435 403 419 387 -386 0
-467 403 451 387 -386 0
-915 403 899 387 -386 0
-1427 403 1411 387 -386 0
-419 386 0
-483 419 451 387 -386 0
-931 419 899 387 -386 0
-1443 419 1411 387 -386 0
-2467 419 2435 387 -386 0
-451 386 0
-963 451 899 387 -386 0
-1475 451 1411 387 -386 0
-2499 451 2435 387 -386 0
-899 386 0
-1923 899 1411 387 -386 0
-2947 899 2435 387 -386 0
-1411 386 0
-3459 1411 2435 387 -386 0
-2435 386 0
-391 399 0
-400 391 0
-416 400 408 392 -391 0
-432 400 424 392 -391 0
-463 399 455 391 -390 0
-464 400 456 392 -391 0
-912 400 904 392 -391 0
-1423 399 1415 391 -390 0
-1424 400 1416 392 -391 0
-2447 399 2439 391 -390 0
-2448 400 2440 392 -391 0
-391 407 0
-408 391 0
-440 408 424 392 -391 0
-472 408 456 392 -391 0
-920 408 904 392 -391 0
-1432 408 1416 392 -391 0
-2456 408 2440 392 -391 0
-391 423 0
-424 391 0
-488 424 456 392 -391 0
-936 424 904 392 -391 0
-1448 424 1416 392 -391 0
-2472 424 2440 392 -391 0
-391 455 0
-456 391 0
-967 455 903 391 -390 0
-968 456 904 392 -391 0
-1479 455 1415 391 -390 0
-1480 456 1416 392 -391 0
-2503 455 2439 391 -390 0
-2504 456 2440 392 -391 0
-391 903 0
-904 391 0
-1927 903 1415 391 -390 0
-1928 904 1416 392 -391 0
-2951 903 2439 391 -390 0
-2952 904 2440 392 -391 0
-391 1415 0
-1416 391 0
-3463 1415 2439 391 -390 0
-3464 1416 2440 392 -391 0
-391 2439 0
-2440 391 0
-395 399 0
-400 395 0
-416 400 412 396 -395 0
-432 400 428 396 -395 0
-464 400 460 396 -395 0
-911 399 907 395 -394 0
-912 400 908 396 -395 0
-1424 400 1420 396 -395 0
-2447 399 2443 395 -394 0
-2448 400 2444 396 -395 0
-395 411 0
-412 395 0
-444 412 428 396 -395 0
-476 412 460 396 -395 0
-924 412 908 396 -395 0
-1436 412 1420 396 -395 0
-2459 411 2443 395 -394 0
-2460 412 2444 396 -395 0
-395 427 0
-428 395 0
-492 428 460 396 -395 0
-939 427 907 395 -394 0
-940 428 908 396 -395 0
-1452 428 1420 396 -395 0
-2476 428 2444 396 -395 0
-395 459 0
-460 395 0
-971 459 907 395 -394 0
-972 460 908 396 -395 0
-1483 459 1419 395 -394 0
-1484 460 1420 396 -395 0
-2507 459 2443 395 -394 0
-2508 460 2444 396 -395 0
-395 907 0
-908 395 0
-1931 907 1419 395 -394 0
-1932 908 1420 396 -395 0
-2955 907 2443 395 -394 0
-2956 908 2444 396 -395 0
-395 1419 0
-1420 395 0
-3467 1419 2443 395 -394 0
-3468 1420 2444 396 -395 0
-395 2443 0
-2444 395 0
-416 399 0
-400 416 0
-448 416 432 400 -399 0
-480 416 464 400 -399 0
-928 416 912 400 -399 0
-2464 416 2448 400 -399 0
-432 399 0
-400 432 0
-496 432 464 400 -399 0
-944 432 912 400 -399 0
-1456 432 1424 400 -399 0
-2480 432 2448 400 -399 0
-399 463 0
-464 399 0
-400 464 0
-976 464 912 400 -399 0
-1488 464 1424 400 -399 0
-2512 464 2448 400 -399 0
-399 911 0
-912 399 0
-400 912 0
-1936 912 1424 400 -399 0
-2959 911 2447 399 -398 0
-2960 912 2448 400 -399 0
-399 1423 0
-1424 399 0
-400 1424 0
-3472 1424 2448 400 -399 0
-399 2447 0
-2448 399 0
-400 2448 0
-403 407 0
-408 403 0
-416 408 412 404 -403 0
-440 408 436 404 -403 0
-472 408 468 404 -403 0
-920 408 916 404 -403 0
-1432 408 1428 404 -403 0
-2456 408 2452 404 -403 0
-403 411 0
-412 403 0
-444 412 436 404 -403 0
-475 411 467 403 -402 0
-476 412 468 404 -403 0
-923 411 915 403 -402 0
-924 412 916 404 -403 0
-1435 411 1427 403 -402 0
-1436 412 1428 404 -403 0
-2459 411 2451 403 -402 0
-2460 412 2452 404 -403 0
-403 435 0
-436 403 0
-500 436 468 404 -403 0
-948 436 916 404 -403 0
-1460 436 1428 404 -403 0
-2484 436 2452 404 -403 0
-403 467 0
-468 403 0
-980 468 916 404 -403 0
-1491 467 1427 403 -402 0
-1492 468 1428 404 -403 0
-2516 468 2452 404 -403 0
-403 915 0
-916 403 0
-1940 916 1428 404 -403 0
-2964 916 2452 404 -403 0
-403 1427 0
-1428 403 0
-3476 1428 2452 404 -403 0
-403 2451 0
-2452 403 0
-416 407 0
-408 416 0
-448 416 440 408 -407 0
-480 416 472 408 -407 0
-1440 416 1432 408 -407 0
-2464 416 2456 408 -407 0
-440 407 0
-408 440 0
-504 440 472 408 -407 0
-952 440 920 408 -407 0
-1464 440 1432 408 -407 0
-2488 440 2456 408 -407 0
-407 471 0
-472 407 0
-408 472 0
-984 472 920 408 -407 0
-1496 472 1432 408 -407 0
-2520 472 2456 408 -407 0
-407 919 0
-408 920 0
-1944 920 1432 408 -407 0
-2968 920 2456 408 -407 0
-407 1431 0
-408 1432 0
-3480 1432 2456 408 -407 0
-407 2455 0
-408 2456 0
-416 411 0
-412 416 0
-480 416 476 412 -411 0
-928 416 924 412 -411 0
-1440 416 1436 412 -411 0
-2464 416 2460 412 -411 0
-444 411 0
-412 444 0
-508 444 476 412 -411 0
-956 444 924 412 -411 0
-1468 444 1436 412 -411 0
-2492 444 2460 412 -411 0
-411 475 0
-476 411 0
-412 476 0
-988 476 924 412 -411 0
-1500 476 1436 412 -411 0
-2524 476 2460 412 -411 0
-411 923 0
-412 924 0
-1948 924 1436 412 -411 0
-2972 924 2460 412 -411 0
-411 1435 0
-1436 411 0
-412 1436 0
-3484 1436 2460 412 -411 0
-411 2459 0
-412 2460 0
-416 448 0
-512 448 480 416 -415 0
-960 448 928 416 -415 0
-2496 448 2464 416 -415 0
-416 480 0
-1504 480 1440 416 -415 0
-2528 480 2464 416 -415 0
-416 928 0
-2976 928 2464 416 -415 0
-416 1440 0
-3488 1440 2464 416 -415 0
-416 2464 0
-419 423 0
-424 419 0
-432 424 428 420 -419 0
-440 424 436 420 -419 0
-488 424 484 420 -419 0
-936 424 932 420 -419 0
-1447 423 1443 419 -418 0
-1448 424 1444 420 -419 0
-2472 424 2468 420 -419 0
-419 427 0
-428 419 0
-444 428 436 420 -419 0
-492 428 484 420 -419 0
-940 428 932 420 -419 0
-1452 428 1444 420 -419 0
-2476 428 2468 420 -419 0
-419 435 0
-436 419 0
-500 436 484 420 -419 0
-948 436 932 420 -419 0
-1460 436 1444 420 -419 0
-2484 436 2468 420 -419 0
-419 483 0
-484 419 0
-996 484 932 420 -419 0
-1507 483 1443 419 -418 0
-1508 484 1444 420 -419 0
-2532 484 2468 420 -419 0
-419 931 0
-932 419 0
-1955 931 1443 419 -418 0
-1956 932 1444 420 -419 0
-2980 932 2468 420 -419 0
-419 1443 0
-1444 419 0
-3492 1444 2468 420 -419 0
-419 2467 0
-2468 419 0
-432 423 0
-424 432 0
-496 432 488 424 -423 0
-2480 432 2472 424 -423 0
-424 440 0
-952 440 936 424 -423 0
-1464 440 1448 424 -423 0
-2488 440 2472 424 -423 0
-424 488 0
-1512 488 1448 424 -423 0
-2536 488 2472 424 -423 0
-423 935 0
-936 423 0
-424 936 0
-1960 936 1448 424 -423 0
-2984 936 2472 424 -423 0
-423 1447 0
-424 1448 0
-3496 1448 2472 424 -423 0
-423 2471 0
-424 2472 0
-432 427 0
-428 432 0
-496 432 492 428 -427 0
-944 432 940 428 -427 0
-2480 432 2476 428 -427 0
-444 427 0
-428 444 0
-508 444 492 428 -427 0
-1468 444 1452 428 -427 0
-427 491 0
-492 427 0
-428 492 0
-1004 492 940 428 -427 0
-1516 492 1452 428 -427 0
-2540 492 2476 428 -427 0
-427 939 0
-940 427 0
-428 940 0
-1964 940 1452 428 -427 0
-2988 940 2476 428 -427 0
-427 1451 0
-1452 427 0
-428 1452 0
-3500 1452 2476 428 -427 0
-427 2475 0
-428 2476 0
-432 448 0
-512 448 496 432 -431 0
-960 448 944 432 -431 0
-1472 448 1456 432 -431 0
-2496 448 2480 432 -431 0
-432 496 0
-1520 496 1456 432 -431 0
-2544 496 2480 432 -431 0
-432 944 0
-432 1456 0
-3504 1456 2480 432 -431 0
-432 2480 0
-440 435 0
-436 440 0
-1464 440 1460 436 -435 0
-2488 440 2484 436 -435 0
-444 435 0
-436 444 0
-1468 444 1460 436 -435 0
-435 499 0
-436 500 0
-1012 500 948 436 -435 0
-1524 500 1460 436 -435 0
-2548 500 2484 436 -435 0
-435 947 0
-948 435 0
-436 948 0
-1972 948 1460 436 -435 0
-2996 948 2484 436 -435 0
-436 1460 0
-3508 1460 2484 436 -435 0
-435 2483 0
-436 2484 0
-440 448 0
-512 448 504 440 -439 0
-960 448 952 440 -439 0
-1472 448 1464 440 -439 0
-2496 448 2488 440 -439 0
-440 504 0
-1528 504 1464 440 -439 0
-2552 504 2488 440 -439 0
-440 952 0
-3000 952 2488 440 -439 0
-440 1464 0
-3512 1464 2488 440 -439 0
-440 2488 0
-444 448 0
-512 448 508 444 -443 0
-960 448 956 444 -443 0
-2496 448 2492 444 -443 0
-444 508 0
-1020 508 956 444 -443 0
-1532 508 1468 444 -443 0
-2556 508 2492 444 -443 0
-444 956 0
-444 1468 0
-444 2492 0
-448 512 0
-1024 512 960 448 -447 0
-1536 512 1472 448 -447 0
-2560 512 2496 448 -447 0
-448 960 0
-1984 960 1472 448 -447 0
-3008 960 2496 448 -447 0
-448 1472 0
-3520 1472 2496 448 -447 0
-448 2496 0
-451 455 0
-456 451 0
-463 455 459 451 -450 0
-464 456 460 452 -451 0
-471 455 467 451 -450 0
-472 456 468 452 -451 0
-487 455 483 451 -450 0
-488 456 484 452 -451 0
-967 455 963 451 -450 0
-968 456 964 452 -451 0
-1479 455 1475 451 -450 0
-1480 456 1476 452 -451 0
-2503 455 2499 451 -450 0
-2504 456 2500 452 -451 0
-451 459 0
-460 451 0
-475 459 467 451 -450 0
-476 460 468 452 -451 0
-491 459 483 451 -450 0
-492 460 484 452 -451 0
-971 459 963 451 -450 0
-972 460 964 452 -451 0
-1483 459 1475 451 -450 0
-1484 460 1476 452 -451 0
-2507 459 2499 451 -450 0
-2508 460 2500 452 -451 0
-451 467 0
-468 451 0
-499 467 483 451 -450 0
-500 468 484 452 -451 0
-979 467 963 451 -450 0
-980 468 964 452 -451 0
-1491 467 1475 451 -450 0
-1492 468 1476 452 -451 0
-2516 468 2500 452 -451 0
-451 483 0
-484 451 0
-995 483 963 451 -450 0
-996 484 964 452 -451 0
-1507 483 1475 451 -450 0
-1508 484 1476 452 -451 0
-2531 483 2499 451 -450 0
-2532 484 2500 452 -451 0
-451 963 0
-964 451 0
-1988 964 1476 452 -451 0
-3011 963 2499 451 -450 0
-3012 964 2500 452 -451 0
-451 1475 0
-1476 451 0
-3523 1475 2499 451 -450 0
-3524 1476 2500 452 -451 0
-451 2499 0
-2500 451 0
-455 463 0
-464 455 0
-456 464 0
-480 464 472 456 -455 0
-496 464 488 456 -455 0
-975 463 967 455 -454 0
-976 464 968 456 -455 0
-1488 464 1480 456 -455 0
-2512 464 2504 456 -455 0
-455 471 0
-472 455 0
-456 472 0
-984 472 968 456 -455 0
-1496 472 1480 456 -455 0
-2520 472 2504 456 -455 0
-455 487 0
-488 455 0
-456 488 0
-1000 488 968 456 -455 0
-1512 488 1480 456 -455 0
-2536 488 2504 456 -455 0
-455 967 0
-968 455 0
-456 968 0
-1992 968 1480 456 -455 0
-3016 968 2504 456 -455 0
-455 1479 0
-1480 455 0
-456 1480 0
-3528 1480 2504 456 -455 0
-455 2503 0
-2504 455 0
-456 2504 0
-459 463 0
-464 459 0
-460 464 0
-496 464 492 460 -459 0
-976 464 972 460 -459 0
-1488 464 1484 460 -459 0
-2512 464 2508 460 -459 0
-459 475 0
-476 459 0
-460 476 0
-508 476 492 460 -459 0
-988 476 972 460 -459 0
-1500 476 1484 460 -459 0
-2524 476 2508 460 -459 0
-459 491 0
-492 459 0
-460 492 0
-1004 492 972 460 -459 0
-1516 492 1484 460 -459 0
-2540 492 2508 460 -459 0
-459 971 0
-972 459 0
-460 972 0
-1996 972 1484 460 -459 0
-3020 972 2508 460 -459 0
-459 1483 0
-1484 459 0
-460 1484 0
-3532 1484 2508 460 -459 0
-459 2507 0
-2508 459 0
-460 2508 0
-480 463 0
-464 480 0
-992 480 976 464 -463 0
-1504 480 1488 464 -463 0
-2528 480 2512 464 -463 0
-496 463 0
-464 496 0
-1008 496 976 464 -463 0
-1520 496 1488 464 -463 0
-464 976 0
-2000 976 1488 464 -463 0
-3024 976 2512 464 -463 0
-1488 463 0
-464 1488 0
-2512 463 0
-464 2512 0
-467 471 0
-472 467 0
-468 472 0
-480 472 476 468 -467 0
-984 472 980 468 -467 0
-1496 472 1492 468 -467 0
-2520 472 2516 468 -467 0
-467 475 0
-476 467 0
-468 476 0
-988 476 980 468 -467 0
-1500 476 1492 468 -467 0
-2523 475 2515 467 -466 0
-2524 476 2516 468 -467 0
-467 499 0
-468 500 0
-1012 500 980 468 -467 0
-1524 500 1492 468 -467 0
-2548 500 2516 468 -467 0
-467 979 0
-980 467 0
-468 980 0
-2004 980 1492 468 -467 0
-3028 980 2516 468 -467 0
-467 1491 0
-1492 467 0
-468 1492 0
-3540 1492 2516 468 -467 0
-467 2515 0
-2516 467 0
-468 2516 0
-472 480 0
-992 480 984 472 -471 0
-1504 480 1496 472 -471 0
-2528 480 2520 472 -471 0
-504 471 0
-472 504 0
-1016 504 984 472 -471 0
-1528 504 1496 472 -471 0
-984 471 0
-472 984 0
-2008 984 1496 472 -471 0
-3032 984 2520 472 -471 0
-472 1496 0
-2520 471 0
-472 2520 0
-480 475 0
-476 480 0
-992 480 988 476 -475 0
-2528 480 2524 476 -475 0
-508 475 0
-476 508 0
-1020 508 988 476 -475 0
-1532 508 1500 476 -475 0
-2556 508 2524 476 -475 0
-476 988 0
-2012 988 1500 476 -475 0
-476 1500 0
-3548 1500 2524 476 -475 0
-2524 475 0
-476 2524 0
-1536 512 1504 480 -479 0
-2560 512 2528 480 -479 0
-480 992 0
-480 2528 0
-488 483 0
-484 488 0
-496 488 492 484 -483 0
-1000 488 996 484 -483 0
-1512 488 1508 484 -483 0
-2536 488 2532 484 -483 0
-483 491 0
-492 483 0
-484 492 0
-508 492 500 484 -483 0
-1004 492 996 484 -483 0
-1516 492 1508 484 -483 0
-2540 492 2532 484 -483 0
-500 483 0
-484 500 0
-1012 500 996 484 -483 0
-1524 500 1508 484 -483 0
-2548 500 2532 484 -483 0
-483 995 0
-996 483 0
-484 996 0
-2020 996 1508 484 -483 0
-3044 996 2532 484 -483 0
-483 1507 0
-1508 483 0
-484 1508 0
-3556 1508 2532 484 -483 0
-483 2531 0
-2532 483 0
-484 2532 0
-488 496 0
-1008 496 1000 488 -487 0
-1520 496 1512 488 -487 0
-2544 496 2536 488 -487 0
-504 487 0
-488 504 0
-1016 504 1000 488 -487 0
-1528 504 1512 488 -487 0
-2552 504 2536 488 -487 0
-488 1000 0
-2024 1000 1512 488 -487 0
-3048 1000 2536 488 -487 0
-1512 487 0
-488 1512 0
-3560 1512 2536 488 -487 0
-488 2536 0
-496 491 0
-492 496 0
-2544 496 2540 492 -491 0
-508 491 0
-492 508 0
-1532 508 1516 492 -491 0
-1004 491 0
-492 1004 0
-2028 1004 1516 492 -491 0
-3052 1004 2540 492 -491 0
-1516 491 0
-492 1516 0
-3564 1516 2540 492 -491 0
-2540 491 0
-492 2540 0
-496 512 0
-1536 512 1520 496 -495 0
-2560 512 2544 496 -495 0
-496 1008 0
-496 1520 0
-496 2544 0
-504 499 0
-500 504 0
-1016 504 1012 500 -499 0
-2552 504 2548 500 -499 0
-500 508 0
-2556 508 2548 500 -499 0
-500 1012 0
-2036 1012 1524 500 -499 0
-3060 1012 2548 500 -499 0
-1524 499 0
-500 1524 0
-3572 1524 2548 500 -499 0
-500 2548 0
-504 512 0
-1024 512 1016 504 -503 0
-1536 512 1528 504 -503 0
-2560 512 2552 504 -503 0
-504 1016 0
-504 2552 0
-508 512 0
-1024 512 1020 508 -507 0
-1536 512 1532 508 -507 0
-2560 512 2556 508 -507 0
-508 1020 0
-508 1532 0
-508 2556 0
-706 578 642 514 -513 0
-834 578 770 514 -513 0
-1602 578 1538 514 -513 0
-2626 578 2562 514 -513 0
-898 642 770 514 -513 0
-1666 642 1538 514 -513 0
-2690 642 2562 514 -513 0
-1794 770 1538 514 -513 0
-2818 770 2562 514 -513 0
-3586 1538 2562 514 -513 0
-527 518 0
-543 527 535 519 -518 0
-559 527 551 519 -518 0
-591 527 583 519 -518 0
-655 527 647 519 -518 0
-783 527 775 519 -518 0
-1551 527 1543 519 -518 0
-2575 527 2567 519 -518 0
-535 518 0
-567 535 551 519 -518 0
-663 535 647 519 -518 0
-791 535 775 519 -518 0
-1559 535 1543 519 -518 0
-2583 535 2567 519 -518 0
-551 518 0
-679 551 647 519 -518 0
-807 551 775 519 -518 0
-1575 551 1543 519 -518 0
-2599 551 2567 519 -518 0
-711 583 647 519 -518 0
-839 583 775 519 -518 0
-1607 583 1543 519 -518 0
-2631 583 2567 519 -518 0
-903 647 775 519 -518 0
-1671 647 1543 519 -518 0
-2695 647 2567 519 -518 0
-775 518 0
-1799 775 1543 519 -518 0
-2823 775 2567 519 -518 0
-3591 1543 2567 519 -518 0
-543 527 539 523 -522 0
-559 527 555 523 -522 0
-591 527 587 523 -522 0
-655 527 651 523 -522 0
-783 527 779 523 -522 0
-1551 527 1547 523 -522 0
-2575 527 2571 523 -522 0
-539 522 0
-667 539 651 523 -522 0
-795 539 779 523 -522 0
-1563 539 1547 523 -522 0
-555 522 0
-811 555 779 523 -522 0
-1579 555 1547 523 -522 0
-2603 555 2571 523 -522 0
-715 587 651 523 -522 0
-843 587 779 523 -522 0
-1611 587 1547 523 -522 0
-2635 587 2571 523 -522 0
-907 651 779 523 -522 0
-1675 651 1547 523 -522 0
-2699 651 2571 523 -522 0
-1803 779 1547 523 -522 0
-2827 779 2571 523 -522 0
-3595 1547 2571 523 -522 0
-608 544 592 528 -527 0
-672 544 656 528 -527 0
-800 544 784 528 -527 0
-1568 544 1552 528 -527 0
-2592 544 2576 528 -527 0
-624 560 592 528 -527 0
-688 560 656 528 -527 0
-816 560 784 528 -527 0
-1584 560 1552 528 -527 0
-2608 560 2576 528 -527 0
-527 591 0
-592 527 0
-720 592 656 528 -527 0
-847 591 783 527 -526 0
-848 592 784 528 -527 0
-1616 592 1552 528 -527 0
-2640 592 2576 528 -527 0
-527 655 0
-656 527 0
-911 655 783 527 -526 0
-912 656 784 528 -527 0
-1679 655 1551 527 -526 0
-1680 656 1552 528 -527 0
-2704 656 2576 528 -527 0
-527 783 0
-784 527 0
-1807 783 1551 527 -526 0
-1808 784 1552 528 -527 0
-2832 784 2576 528 -527 0
-527 1551 0
-1552 527 0
-3600 1552 2576 528 -527 0
-527 2575 0
-2576 527 0
-535 530 0
-543 535 539 531 -530 0
-567 535 563 531 -530 0
-599 535 595 531 -530 0
-791 535 787 531 -530 0
-1559 535 1555 531 -530 0
-2583 535 2579 531 -530 0
-539 530 0
-571 539 563 531 -530 0
-603 539 595 531 -530 0
-795 539 787 531 -530 0
-1563 539 1555 531 -530 0
-2587 539 2579 531 -530 0
-563 530 0
-819 563 787 531 -530 0
-595 530 0
-723 595 659 531 -530 0
-851 595 787 531 -530 0
-1619 595 1555 531 -530 0
-2643 595 2579 531 -530 0
-915 659 787 531 -530 0
-1683 659 1555 531 -530 0
-2707 659 2579 531 -530 0
-787 530 0
-1811 787 1555 531 -530 0
-2835 787 2579 531 -530 0
-1555 530 0
-3603 1555 2579 531 -530 0
-608 544 600 536 -535 0
-672 544 664 536 -535 0
-800 544 792 536 -535 0
-1568 544 1560 536 -535 0
-2592 544 2584 536 -535 0
-632 568 600 536 -535 0
-696 568 664 536 -535 0
-824 568 792 536 -535 0
-1592 568 1560 536 -535 0
-2616 568 2584 536 -535 0
-535 599 0
-600 535 0
-728 600 664 536 -535 0
-856 600 792 536 -535 0
-1624 600 1560 536 -535 0
-2648 600 2584 536 -535 0
-535 663 0
-664 535 0
-919 663 791 535 -534 0
-920 664 792 536 -535 0
-1687 663 1559 535 -534 0
-1688 664 1560 536 -535 0
-2712 664 2584 536 -535 0
-535 791 0
-792 535 0
-1816 792 1560 536 -535 0
-2839 791 2583 535 -534 0
-2840 792 2584 536 -535 0
-535 1559 0
-1560 535 0
-3608 1560 2584 536 -535 0
-535 2583 0
-2584 535 0
-608 544 604 540 -539 0
-672 544 668 540 -539 0
-800 544 796 540 -539 0
-1568 544 1564 540 -539 0
-2592 544 2588 540 -539 0
-636 572 604 540 -539 0
-700 572 668 540 -539 0
-828 572 796 540 -539 0
-1596 572 1564 540 -539 0
-2620 572 2588 540 -539 0
-539 603 0
-604 539 0
-731 603 667 539 -538 0
-732 604 668 540 -539 0
-859 603 795 539 -538 0
-860 604 796 540 -539 0
-1628 604 1564 540 -539 0
-2651 603 2587 539 -538 0
-2652 604 2588 540 -539 0
-539 667 0
-668 539 0
-923 667 795 539 -538 0
-924 668 796 540 -539 0
-1691 667 1563 539 -538 0
-1692 668 1564 540 -539 0
-2715 667 2587 539 -538 0
-2716 668 2588 540 -539 0
-539 795 0
-796 539 0
-1819 795 1563 539 -538 0
-1820 796 1564 540 -539 0
-2843 795 2587 539 -538 0
-2844 796 2588 540 -539 0
-539 1563 0
-1564 539 0
-3611 1563 2587 539 -538 0
-3612 1564 2588 540 -539 0
-539 2587 0
-2588 539 0
-1600 576 1568 544 -543 0
-2624 576 2592 544 -543 0
-736 608 672 544 -543 0
-864 608 800 544 -543 0
-1632 608 1568 544 -543 0
-2656 608 2592 544 -543 0
-928 672 800 544 -543 0
-1696 672 1568 544 -543 0
-2720 672 2592 544 -543 0
-1824 800 1568 544 -543 0
-2848 800 2592 544 -543 0
-543 1567 0
-3616 1568 2592 544 -543 0
-543 2591 0
-551 546 0
-559 551 555 547 -546 0
-567 551 563 547 -546 0
-615 551 611 547 -546 0
-679 551 675 547 -546 0
-807 551 803 547 -546 0
-1575 551 1571 547 -546 0
-2599 551 2595 547 -546 0
-555 546 0
-571 555 563 547 -546 0
-619 555 611 547 -546 0
-683 555 675 547 -546 0
-811 555 803 547 -546 0
-1579 555 1571 547 -546 0
-2603 555 2595 547 -546 0
-563 546 0
-627 563 611 547 -546 0
-819 563 803 547 -546 0
-2611 563 2595 547 -546 0
-739 611 675 547 -546 0
-867 611 803 547 -546 0
-1635 611 1571 547 -546 0
-2659 611 2595 547 -546 0
-675 546 0
-931 675 803 547 -546 0
-1699 675 1571 547 -546 0
-2723 675 2595 547 -546 0
-803 546 0
-1827 803 1571 547 -546 0
-2851 803 2595 547 -546 0
-3619 1571 2595 547 -546 0
-624 560 616 552 -551 0
-688 560 680 552 -551 0
-816 560 808 552 -551 0
-1584 560 1576 552 -551 0
-2608 560 2600 552 -551 0
-632 568 616 552 -551 0
-696 568 680 552 -551 0
-824 568 808 552 -551 0
-1592 568 1576 552 -551 0
-2616 568 2600 552 -551 0
-551 615 0
-616 551 0
-743 615 679 551 -550 0
-744 616 680 552 -551 0
-871 615 807 551 -550 0
-872 616 808 552 -551 0
-1640 616 1576 552 -551 0
-2663 615 2599 551 -550 0
-2664 616 2600 552 -551 0
-551 679 0
-680 551 0
-936 680 808 552 -551 0
-1704 680 1576 552 -551 0
-2728 680 2600 552 -551 0
-551 807 0
-808 551 0
-1831 807 1575 551 -550 0
-1832 808 1576 552 -551 0
-2855 807 2599 551 -550 0
-2856 808 2600 552 -551 0
-551 1575 0
-1576 551 0
-3624 1576 2600 552 -551 0
-551 2599 0
-2600 551 0
-624 560 620 556 -555 0
-688 560 684 556 -555 0
-816 560 812 556 -555 0
-1584 560 1580 556 -555 0
-2608 560 2604 556 -555 0
-636 572 620 556 -555 0
-700 572 684 556 -555 0
-828 572 812 556 -555 0
-1596 572 1580 556 -555 0
-2620 572 2604 556 -555 0
-555 619 0
-620 555 0
-748 620 684 556 -555 0
-876 620 812 556 -555 0
-1644 620 1580 556 -555 0
-2667 619 2603 555 -554 0
-2668 620 2604 556 -555 0
-555 683 0
-684 555 0
-940 684 812 556 -555 0
-1708 684 1580 556 -555 0
-2732 684 2604 556 -555 0
-555 811 0
-812 555 0
-1836 812 1580 556 -555 0
-2859 811 2603 555 -554 0
-2860 812 2604 556 -555 0
-555 1579 0
-1580 555 0
-3627 1579 2603 555 -554 0
-3628 1580 2604 556 -555 0
-555 2603 0
-2604 555 0
-704 576 688 560 -559 0
-1600 576 1584 560 -559 0
-2624 576 2608 560 -559 0
-752 624 688 560 -559 0
-880 624 816 560 -559 0
-1648 624 1584 560 -559 0
-2672 624 2608 560 -559 0
-944 688 816 560 -559 0
-1712 688 1584 560 -559 0
-2736 688 2608 560 -559 0
-1840 816 1584 560 -559 0
-2864 816 2608 560 -559 0
-559 1583 0
-3632 1584 2608 560 -559 0
-559 2607 0
-632 568 628 564 -563 0
-696 568 692 564 -563 0
-824 568 820 564 -563 0
-1592 568 1588 564 -563 0
-2616 568 2612 564 -563 0
-636 572 628 564 -563 0
-700 572 692 564 -563 0
-828 572 820 564 -563 0
-1596 572 1588 564 -563 0
-2620 572 2612 564 -563 0
-563 627 0
-628 563 0
-755 627 691 563 -562 0
-756 628 692 564 -563 0
-884 628 820 564 -563 0
-1652 628 1588 564 -563 0
-2676 628 2612 564 -563 0
-563 691 0
-692 563 0
-948 692 820 564 -563 0
-1715 691 1587 563 -562 0
-1716 692 1588 564 -563 0
-2740 692 2612 564 -563 0
-563 819 0
-820 563 0
-1844 820 1588 564 -563 0
-2868 820 2612 564 -563 0
-563 1587 0
-1588 563 0
-3636 1588 2612 564 -563 0
-563 2611 0
-2612 563 0
-1600 576 1592 568 -567 0
-2624 576 2616 568 -567 0
-760 632 696 568 -567 0
-888 632 824 568 -567 0
-1656 632 1592 568 -567 0
-2680 632 2616 568 -567 0
-952 696 824 568 -567 0
-2744 696 2616 568 -567 0
-1848 824 1592 568 -567 0
-2872 824 2616 568 -567 0
-567 1591 0
-3640 1592 2616 568 -567 0
-567 2615 0
-1600 576 1596 572 -571 0
-2624 576 2620 572 -571 0
-764 636 700 572 -571 0
-892 636 828 572 -571 0
-1660 636 1596 572 -571 0
-2684 636 2620 572 -571 0
-956 700 828 572 -571 0
-1724 700 1596 572 -571 0
-2748 700 2620 572 -571 0
-1852 828 1596 572 -571 0
-2876 828 2620 572 -571 0
-571 1595 0
-3644 1596 2620 572 -571 0
-571 2619 0
-768 640 704 576 -575 0
-896 640 832 576 -575 0
-1664 640 1600 576 -575 0
-2688 640 2624 576 -575 0
-960 704 832 576 -575 0
-1728 704 1600 576 -575 0
-2752 704 2624 576 -575 0
-1856 832 1600 576 -575 0
-2880 832 2624 576 -575 0
-3648 1600 2624 576 -575 0
-583 578 0
-591 583 587 579 -578 0
-599 583 595 579 -578 0
-615 583 611 579 -578 0
-711 583 707 579 -578 0
-839 583 835 579 -578 0
-1607 583 1603 579 -578 0
-2631 583 2627 579 -578 0
-587 578 0
-603 587 595 579 -578 0
-619 587 611 579 -578 0
-715 587 707 579 -578 0
-843 587 835 579 -578 0
-1611 587 1603 579 -578 0
-2635 587 2627 579 -578 0
-595 578 0
-627 595 611 579 -578 0
-723 595 707 579 -578 0
-851 595 835 579 -578 0
-1619 595 1603 579 -578 0
-611 578 0
-739 611 707 579 -578 0
-867 611 835 579 -578 0
-1635 611 1603 579 -578 0
-2659 611 2627 579 -578 0
-707 578 0
-963 707 835 579 -578 0
-1731 707 1603 579 -578 0
-2755 707 2627 579 -578 0
-835 578 0
-1859 835 1603 579 -578 0
-1603 578 0
-3651 1603 2627 579 -578 0
-2627 578 0
-583 591 0
-592 583 0
-608 592 600 584 -583 0
-624 592 616 584 -583 0
-720 592 712 584 -583 0
-848 592 840 584 -583 0
-1616 592 1608 584 -583 0
-2640 592 2632 584 -583 0
-583 599 0
-600 583 0
-632 600 616 584 -583 0
-728 600 712 584 -583 0
-856 600 840 584 -583 0
-1624 600 1608 584 -583 0
-2648 600 2632 584 -583 0
-583 615 0
-616 583 0
-744 616 712 584 -583 0
-872 616 840 584 -583 0
-1640 616 1608 584 -583 0
-2664 616 2632 584 -583 0
-583 711 0
-712 583 0
-968 712 840 584 -583 0
-1735 711 1607 583 -582 0
-1736 712 1608 584 -583 0
-2760 712 2632 584 -583 0
-583 839 0
-840 583 0
-1863 839 1607 583 -582 0
-1864 840 1608 584 -583 0
-2888 840 2632 584 -583 0
-583 1607 0
-1608 583 0
-3655 1607 2631 583 -582 0
-3656 1608 2632 584 -583 0
-583 2631 0
-2632 583 0
-587 591 0
-592 587 0
-608 592 604 588 -587 0
-624 592 620 588 -587 0
-720 592 716 588 -587 0
-848 592 844 588 -587 0
-1615 591 1611 587 -586 0
-1616 592 1612 588 -587 0
-2640 592 2636 588 -587 0
-587 603 0
-604 587 0
-636 604 620 588 -587 0
-731 603 715 587 -586 0
-732 604 716 588 -587 0
-859 603 843 587 -586 0
-860 604 844 588 -587 0
-1628 604 1612 588 -587 0
-2652 604 2636 588 -587 0
-587 619 0
-620 587 0
-747 619 715 587 -586 0
-748 620 716 588 -587 0
-876 620 844 588 -587 0
-1643 619 1611 587 -586 0
-1644 620 1612 588 -587 0
-2668 620 2636 588 -587 0
-587 715 0
-716 587 0
-972 716 844 588 -587 0
-1739 715 1611 587 -586 0
-1740 716 1612 588 -587 0
-2764 716 2636 588 -587 0
-587 843 0
-844 587 0
-1867 843 1611 587 -586 0
-1868 844 1612 588 -587 0
-2892 844 2636 588 -587 0
-587 1611 0
-1612 587 0
-3659 1611 2635 587 -586 0
-3660 1612 2636 588 -587 0
-587 2635 0
-2636 587 0
-608 591 0
-592 608 0
-640 608 624 592 -591 0
-736 608 720 592 -591 0
-864 608 848 592 -591 0
-1632 608 1616 592 -591 0
-2656 608 2640 592 -591 0
-624 591 0
-592 624 0
-752 624 720 592 -591 0
-880 624 848 592 -591 0
-1648 624 1616 592 -591 0
-2672 624 2640 592 -591 0
-592 720 0
-976 720 848 592 -591 0
-1744 720 1616 592 -591 0
-2768 720 2640 592 -591 0
-591 847 0
-848 591 0
-592 848 0
-591 1615 0
-592 1616 0
-591 2639 0
-592 2640 0
-595 599 0
-600 595 0
-608 600 604 596 -595 0
-632 600 628 596 -595 0
-728 600 724 596 -595 0
-855 599 851 595 -594 0
-856 600 852 596 -595 0
-1624 600 1620 596 -595 0
-2648 600 2644 596 -595 0
-595 603 0
-604 595 0
-636 604 628 596 -595 0
-731 603 723 595 -594 0
-732 604 724 596 -595 0
-859 603 851 595 -594 0
-860 604 852 596 -595 0
-1628 604 1620 596 -595 0
-2651 603 2643 595 -594 0
-2652 604 2644 596 -595 0
-595 627 0
-628 595 0
-755 627 723 595 -594 0
-756 628 724 596 -595 0
-883 627 851 595 -594 0
-884 628 852 596 -595 0
-1651 627 1619 595 -594 0
-1652 628 1620 596 -595 0
-2675 627 2643 595 -594 0
-2676 628 2644 596 -595 0
-595 723 0
-724 595 0
-980 724 852 596 -595 0
-1748 724 1620 596 -595 0
-2772 724 2644 596 -595 0
-595 851 0
-852 595 0
-1876 852 1620 596 -595 0
-2900 852 2644 596 -595 0
-595 1619 0
-1620 595 0
-3668 1620 2644 596 -595 0
-595 2643 0
-2644 595 0
-600 608 0
-736 608 728 600 -599 0
-864 608 856 600 -599 0
-1632 608 1624 600 -599 0
-2656 608 2648 600 -599 0
-632 599 0
-600 632 0
-760 632 728 600 -599 0
-888 632 856 600 -599 0
-1656 632 1624 600 -599 0
-2680 632 2648 600 -599 0
-600 728 0
-984 728 856 600 -599 0
-1752 728 1624 600 -599 0
-599 855 0
-856 599 0
-600 856 0
-1880 856 1624 600 -599 0
-2904 856 2648 600 -599 0
-599 1623 0
-600 1624 0
-3672 1624 2648 600 -599 0
-599 2647 0
-600 2648 0
-608 603 0
-604 608 0
-736 608 732 604 -603 0
-864 608 860 604 -603 0
-2656 608 2652 604 -603 0
-636 603 0
-604 636 0
-764 636 732 604 -603 0
-892 636 860 604 -603 0
-1660 636 1628 604 -603 0
-2684 636 2652 604 -603 0
-732 603 0
-604 732 0
-988 732 860 604 -603 0
-1756 732 1628 604 -603 0
-2780 732 2652 604 -603 0
-603 859 0
-860 603 0
-604 860 0
-1884 860 1628 604 -603 0
-2908 860 2652 604 -603 0
-603 1627 0
-1628 603 0
-604 1628 0
-603 2651 0
-2652 603 0
-604 2652 0
-608 640 0
-768 640 736 608 -607 0
-896 640 864 608 -607 0
-1664 640 1632 608 -607 0
-2688 640 2656 608 -607 0
-608 736 0
-992 736 864 608 -607 0
-1760 736 1632 608 -607 0
-608 864 0
-2912 864 2656 608 -607 0
-608 1632 0
-3680 1632 2656 608 -607 0
-608 2656 0
-611 615 0
-616 611 0
-624 616 620 612 -611 0
-632 616 628 612 -611 0
-744 616 740 612 -611 0
-872 616 868 612 -611 0
-1639 615 1635 611 -610 0
-1640 616 1636 612 -611 0
-2664 616 2660 612 -611 0
-611 619 0
-620 611 0
-636 620 628 612 -611 0
-747 619 739 611 -610 0
-748 620 740 612 -611 0
-876 620 868 612 -611 0
-1644 620 1636 612 -611 0
-2668 620 2660 612 -611 0
-611 627 0
-628 611 0
-756 628 740 612 -611 0
-884 628 868 612 -611 0
-1652 628 1636 612 -611 0
-2675 627 2659 611 -610 0
-2676 628 2660 612 -611 0
-611 739 0
-740 611 0
-996 740 868 612 -611 0
-1764 740 1636 612 -611 0
-2788 740 2660 612 -611 0
-611 867 0
-868 611 0
-1892 868 1636 612 -611 0
-2916 868 2660 612 -611 0
-611 1635 0
-1636 611 0
-3684 1636 2660 612 -611 0
-611 2659 0
-2660 611 0
-616 624 0
-752 624 744 616 -615 0
-880 624 872 616 -615 0
-2672 624 2664 616 -615 0
-632 615 0
-616 632 0
-760 632 744 616 -615 0
-888 632 872 616 -615 0
-1656 632 1640 616 -615 0
-2680 632 2664 616 -615 0
-744 615 0
-616 744 0
-1000 744 872 616 -615 0
-1768 744 1640 616 -615 0
-2792 744 2664 616 -615 0
-615 871 0
-872 615 0
-616 872 0
-1895 871 1639 615 -614 0
-1896 872 1640 616 -615 0
-2920 872 2664 616 -615 0
-615 1639 0
-1640 615 0
-616 1640 0
-3688 1640 2664 616 -615 0
-615 2663 0
-616 2664 0
-624 619 0
-620 624 0
-752 624 748 620 -619 0
-880 624 876 620 -619 0
-1648 624 1644 620 -619 0
-2672 624 2668 620 -619 0
-636 619 0
-620 636 0
-764 636 748 620 -619 0
-892 636 876 620 -619 0
-1660 636 1644 620 -619 0
-2684 636 2668 620 -619 0
-619 747 0
-748 619 0
-620 748 0
-1004 748 876 620 -619 0
-1772 748 1644 620 -619 0
-2796 748 2668 620 -619 0
-619 875 0
-876 619 0
-620 876 0
-1900 876 1644 620 -619 0
-2924 876 2668 620 -619 0
-619 1643 0
-620 1644 0
-3692 1644 2668 620 -619 0
-619 2667 0
-2668 619 0
-620 2668 0
-624 640 0
-768 640 752 624 -623 0
-896 640 880 624 -623 0
-1664 640 1648 624 -623 0
-2688 640 2672 624 -623 0
-624 752 0
-1008 752 880 624 -623 0
-2800 752 2672 624 -623 0
-624 880 0
-1904 880 1648 624 -623 0
-2928 880 2672 624 -623 0
-624 1648 0
-3696 1648 2672 624 -623 0
-624 2672 0
-632 627 0
-628 632 0
-760 632 756 628 -627 0
-888 632 884 628 -627 0
-1656 632 1652 628 -627 0
-2680 632 2676 628 -627 0
-636 627 0
-628 636 0
-764 636 756 628 -627 0
-892 636 884 628 -627 0
-1660 636 1652 628 -627 0
-2684 636 2676 628 -627 0
-627 755 0
-628 756 0
-1011 755 883 627 -626 0
-1012 756 884 628 -627 0
-1780 756 1652 628 -627 0
-2804 756 2676 628 -627 0
-627 883 0
-884 627 0
-628 884 0
-1907 883 1651 627 -626 0
-1908 884 1652 628 -627 0
-2932 884 2676 628 -627 0
-627 1651 0
-628 1652 0
-627 2675 0
-2676 627 0
-628 2676 0
-632 640 0
-768 640 760 632 -631 0
-1664 640 1656 632 -631 0
-2688 640 2680 632 -631 0
-632 760 0
-1784 760 1656 632 -631 0
-632 888 0
-1912 888 1656 632 -631 0
-2936 888 2680 632 -631 0
-632 1656 0
-3704 1656 2680 632 -631 0
-632 2680 0
-636 640 0
-896 640 892 636 -635 0
-1664 640 1660 636 -635 0
-636 764 0
-1020 764 892 636 -635 0
-636 892 0
-2940 892 2684 636 -635 0
-636 1660 0
-636 2684 0
-640 768 0
-1024 768 896 640 -639 0
-1792 768 1664 640 -639 0
-2816 768 2688 640 -639 0
-640 896 0
-1920 896 1664 640 -639 0
-2944 896 2688 640 -639 0
-640 1664 0
-3712 1664 2688 640 -639 0
-640 2688 0
-647 642 0
-655 647 651 643 -642 0
-663 647 659 643 -642 0
-679 647 675 643 -642 0
-711 647 707 643 -642 0
-903 647 899 643 -642 0
-1671 647 1667 643 -642 0
-2695 647 2691 643 -642 0
-651 642 0
-667 651 659 643 -642 0
-683 651 675 643 -642 0
-715 651 707 643 -642 0
-907 651 899 643 -642 0
-1675 651 1667 643 -642 0
-2699 651 2691 643 -642 0
-659 642 0
-691 659 675 643 -642 0
-723 659 707 643 -642 0
-915 659 899 643 -642 0
-1683 659 1667 643 -642 0
-675 642 0
-739 675 707 643 -642 0
-931 675 899 643 -642 0
-1699 675 1667 643 -642 0
-2723 675 2691 643 -642 0
-707 642 0
-963 707 899 643 -642 0
-1731 707 1667 643 -642 0
-2755 707 2691 643 -642 0
-899 642 0
-1923 899 1667 643 -642 0
-2947 899 2691 643 -642 0
-1667 642 0
-3715 1667 2691 643 -642 0
-2691 642 0
-647 655 0
-656 647 0
-672 656 664 648 -647 0
-687 655 679 647 -646 0
-688 656 680 648 -647 0
-719 655 711 647 -646 0
-720 656 712 648 -647 0
-911 655 903 647 -646 0
-912 656 904 648 -647 0
-1680 656 1672 648 -647 0
-2704 656 2696 648 -647 0
-647 663 0
-664 647 0
-696 664 680 648 -647 0
-728 664 712 648 -647 0
-920 664 904 648 -647 0
-1687 663 1671 647 -646 0
-1688 664 1672 648 -647 0
-2711 663 2695 647 -646 0
-2712 664 2696 648 -647 0
-647 679 0
-680 647 0
-744 680 712 648 -647 0
-936 680 904 648 -647 0
-1703 679 1671 647 -646 0
-1704 680 1672 648 -647 0
-2728 680 2696 648 -647 0
-647 711 0
-712 647 0
-968 712 904 648 -647 0
-1735 711 1671 647 -646 0
-1736 712 1672 648 -647 0
-2760 712 2696 648 -647 0
-647 903 0
-904 647 0
-1927 903 1671 647 -646 0
-1928 904 1672 648 -647 0
-2952 904 2696 648 -647 0
-647 1671 0
-1672 647 0
-3720 1672 2696 648 -647 0
-647 2695 0
-2696 647 0
-651 655 0
-656 651 0
-672 656 668 652 -651 0
-688 656 684 652 -651 0
-719 655 715 651 -650 0
-720 656 716 652 -651 0
-911 655 907 651 -650 0
-912 656 908 652 -651 0
-1680 656 1676 652 -651 0
-2703 655 2699 651 -650 0
-2704 656 2700 652 -651 0
-651 667 0
-668 651 0
-700 668 684 652 -651 0
-732 668 716 652 -651 0
-923 667 907 651 -650 0
-924 668 908 652 -651 0
-1691 667 1675 651 -650 0
-1692 668 1676 652 -651 0
-2715 667 2699 651 -650 0
-2716 668 2700 652 -651 0
-651 683 0
-684 651 0
-748 684 716 652 -651 0
-940 684 908 652 -651 0
-1708 684 1676 652 -651 0
-2731 683 2699 651 -650 0
-2732 684 2700 652 -651 0
-651 715 0
-716 651 0
-972 716 908 652 -651 0
-1740 716 1676 652 -651 0
-2764 716 2700 652 -651 0
-651 907 0
-908 651 0
-1932 908 1676 652 -651 0
-2955 907 2699 651 -650 0
-2956 908 2700 652 -651 0
-651 1675 0
-1676 651 0
-3723 1675 2699 651 -650 0
-3724 1676 2700 652 -651 0
-651 2699 0
-2700 651 0
-672 655 0
-656 672 0
-704 672 688 656 -655 0
-736 672 720 656 -655 0
-928 672 912 656 -655 0
-1696 672 1680 656 -655 0
-2720 672 2704 656 -655 0
-688 655 0
-656 688 0
-752 688 720 656 -655 0
-944 688 912 656 -655 0
-1712 688 1680 656 -655 0
-2736 688 2704 656 -655 0
-655 719 0
-720 655 0
-656 720 0
-976 720 912 656 -655 0
-1744 720 1680 656 -655 0
-2768 720 2704 656 -655 0
-655 911 0
-912 655 0
-656 912 0
-1936 912 1680 656 -655 0
-2960 912 2704 656 -655 0
-655 1679 0
-1680 655 0
-656 1680 0
-655 2703 0
-2704 655 0
-656 2704 0
-659 663 0
-664 659 0
-672 664 668 660 -659 0
-696 664 692 660 -659 0
-728 664 724 660 -659 0
-919 663 915 659 -658 0
-920 664 916 660 -659 0
-1687 663 1683 659 -658 0
-1688 664 1684 660 -659 0
-2711 663 2707 659 -658 0
-2712 664 2708 660 -659 0
-659 667 0
-668 659 0
-700 668 692 660 -659 0
-731 667 723 659 -658 0
-732 668 724 660 -659 0
-923 667 915 659 -658 0
-924 668 916 660 -659 0
-1691 667 1683 659 -658 0
-1692 668 1684 660 -659 0
-2715 667 2707 659 -658 0
-2716 668 2708 660 -659 0
-659 691 0
-692 659 0
-755 691 723 659 -658 0
-756 692 724 660 -659 0
-948 692 916 660 -659 0
-1716 692 1684 660 -659 0
-2739 691 2707 659 -658 0
-2740 692 2708 660 -659 0
-659 723 0
-724 659 0
-980 724 916 660 -659 0
-1747 723 1683 659 -658 0
-1748 724 1684 660 -659 0
-2771 723 2707 659 -658 0
-2772 724 2708 660 -659 0
-659 915 0
-916 659 0
-1940 916 1684 660 -659 0
-2964 916 2708 660 -659 0
-659 1683 0
-1684 659 0
-3732 1684 2708 660 -659 0
-659 2707 0
-2708 659 0
-664 672 0
-736 672 728 664 -663 0
-928 672 920 664 -663 0
-1696 672 1688 664 -663 0
-2720 672 2712 664 -663 0
-696 663 0
-664 696 0
-760 696 728 664 -663 0
-952 696 920 664 -663 0
-1720 696 1688 664 -663 0
-2744 696 2712 664 -663 0
-663 727 0
-728 663 0
-664 728 0
-984 728 920 664 -663 0
-1752 728 1688 664 -663 0
-663 919 0
-920 663 0
-664 920 0
-1944 920 1688 664 -663 0
-2968 920 2712 664 -663 0
-663 1687 0
-1688 663 0
-664 1688 0
-3736 1688 2712 664 -663 0
-663 2711 0
-2712 663 0
-664 2712 0
-672 667 0
-668 672 0
-736 672 732 668 -667 0
-928 672 924 668 -667 0
-1696 672 1692 668 -667 0
-2720 672 2716 668 -667 0
-700 667 0
-668 700 0
-764 700 732 668 -667 0
-956 700 924 668 -667 0
-1724 700 1692 668 -667 0
-2748 700 2716 668 -667 0
-667 731 0
-668 732 0
-988 732 924 668 -667 0
-1756 732 1692 668 -667 0
-2780 732 2716 668 -667 0
-667 923 0
-924 667 0
-668 924 0
-1948 924 1692 668 -667 0
-2972 924 2716 668 -667 0
-667 1691 0
-1692 667 0
-668 1692 0
-3740 1692 2716 668 -667 0
-667 2715 0
-2716 667 0
-668 2716 0
-672 704 0
-768 704 736 672 -671 0
-960 704 928 672 -671 0
-1728 704 1696 672 -671 0
-672 736 0
-992 736 928 672 -671 0
-672 928 0
-1952 928 1696 672 -671 0
-2976 928 2720 672 -671 0
-672 1696 0
-3744 1696 2720 672 -671 0
-672 2720 0
-675 679 0
-680 675 0
-688 680 684 676 -675 0
-695 679 691 675 -674 0
-696 680 692 676 -675 0
-743 679 739 675 -674 0
-744 680 740 676 -675 0
-935 679 931 675 -674 0
-936 680 932 676 -675 0
-1703 679 1699 675 -674 0
-1704 680 1700 676 -675 0
-2728 680 2724 676 -675 0
-675 683 0
-684 675 0
-700 684 692 676 -675 0
-747 683 739 675 -674 0
-748 684 740 676 -675 0
-940 684 932 676 -675 0
-1708 684 1700 676 -675 0
-2731 683 2723 675 -674 0
-2732 684 2724 676 -675 0
-675 691 0
-692 675 0
-756 692 740 676 -675 0
-948 692 932 676 -675 0
-1715 691 1699 675 -674 0
-1716 692 1700 676 -675 0
-2739 691 2723 675 -674 0
-2740 692 2724 676 -675 0
-675 739 0
-740 675 0
-996 740 932 676 -675 0
-1763 739 1699 675 -674 0
-1764 740 1700 676 -675 0
-2787 739 2723 675 -674 0
-2788 740 2724 676 -675 0
-675 931 0
-932 675 0
-1956 932 1700 676 -675 0
-2980 932 2724 676 -675 0
-675 1699 0
-1700 675 0
-3748 1700 2724 676 -675 0
-675 2723 0
-2724 675 0
-688 679 0
-680 688 0
-752 688 744 680 -679 0
-944 688 936 680 -679 0
-1712 688 1704 680 -679 0
-2736 688 2728 680 -679 0
-696 679 0
-680 696 0
-760 696 744 680 -679 0
-952 696 936 680 -679 0
-1720 696 1704 680 -679 0
-2744 696 2728 680 -679 0
-679 743 0
-744 679 0
-680 744 0
-1000 744 936 680 -679 0
-1768 744 1704 680 -679 0
-2792 744 2728 680 -679 0
-679 935 0
-936 679 0
-680 936 0
-1960 936 1704 680 -679 0
-2984 936 2728 680 -679 0
-679 1703 0
-1704 679 0
-680 1704 0
-3752 1704 2728 680 -679 0
-679 2727 0
-2728 679 0
-680 2728 0
-688 683 0
-684 688 0
-752 688 748 684 -683 0
-944 688 940 684 -683 0
-1712 688 1708 684 -683 0
-2736 688 2732 684 -683 0
-700 683 0
-684 700 0
-764 700 748 684 -683 0
-956 700 940 684 -683 0
-1724 700 1708 684 -683 0
-2748 700 2732 684 -683 0
-683 747 0
-684 748 0
-1004 748 940 684 -683 0
-1771 747 1707 683 -682 0
-1772 748 1708 684 -683 0
-2796 748 2732 684 -683 0
-683 939 0
-684 940 0
-1964 940 1708 684 -683 0
-2988 940 2732 684 -683 0
-683 1707 0
-1708 683 0
-684 1708 0
-3756 1708 2732 684 -683 0
-683 2731 0
-2732 683 0
-684 2732 0
-688 704 0
-768 704 752 688 -687 0
-960 704 944 688 -687 0
-1728 704 1712 688 -687 0
-688 752 0
-2800 752 2736 688 -687 0
-688 944 0
-1968 944 1712 688 -687 0
-688 1712 0
-3760 1712 2736 688 -687 0
-688 2736 0
-696 691 0
-692 696 0
-952 696 948 692 -691 0
-1720 696 1716 692 -691 0
-2744 696 2740 692 -691 0
-700 691 0
-692 700 0
-764 700 756 692 -691 0
-956 700 948 692 -691 0
-1724 700 1716 692 -691 0
-2748 700 2740 692 -691 0
-691 755 0
-692 756 0
-1011 755 947 691 -690 0
-1012 756 948 692 -691 0
-2803 755 2739 691 -690 0
-691 947 0
-948 691 0
-692 948 0
-1971 947 1715 691 -690 0
-2996 948 2740 692 -691 0
-691 1715 0
-1716 691 0
-692 1716 0
-691 2739 0
-2740 691 0
-692 2740 0
-696 704 0
-1728 704 1720 696 -695 0
-2752 704 2744 696 -695 0
-696 760 0
-1016 760 952 696 -695 0
-1784 760 1720 696 -695 0
-2808 760 2744 696 -695 0
-696 952 0
-1976 952 1720 696 -695 0
-696 1720 0
-3768 1720 2744 696 -695 0
-696 2744 0
-700 704 0
-960 704 956 700 -699 0
-1728 704 1724 700 -699 0
-2752 704 2748 700 -699 0
-700 764 0
-1788 764 1724 700 -699 0
-700 956 0
-1980 956 1724 700 -699 0
-700 1724 0
-3772 1724 2748 700 -699 0
-700 2748 0
-704 768 0
-1024 768 960 704 -703 0
-2816 768 2752 704 -703 0
-704 960 0
-1984 960 1728 704 -703 0
-3008 960 2752 704 -703 0
-3776 1728 2752 704 -703 0
-707 711 0
-712 707 0
-719 711 715 707 -706 0
-720 712 716 708 -707 0
-727 711 723 707 -706 0
-728 712 724 708 -707 0
-744 712 740 708 -707 0
-967 711 963 707 -706 0
-968 712 964 708 -707 0
-1736 712 1732 708 -707 0
-2760 712 2756 708 -707 0
-707 715 0
-716 707 0
-731 715 723 707 -706 0
-732 716 724 708 -707 0
-747 715 739 707 -706 0
-748 716 740 708 -707 0
-971 715 963 707 -706 0
-972 716 964 708 -707 0
-1739 715 1731 707 -706 0
-1740 716 1732 708 -707 0
-2763 715 2755 707 -706 0
-2764 716 2756 708 -707 0
-707 723 0
-724 707 0
-755 723 739 707 -706 0
-756 724 740 708 -707 0
-979 723 963 707 -706 0
-980 724 964 708 -707 0
-1747 723 1731 707 -706 0
-1748 724 1732 708 -707 0
-2771 723 2755 707 -706 0
-2772 724 2756 708 -707 0
-707 739 0
-740 707 0
-995 739 963 707 -706 0
-996 740 964 708 -707 0
-1763 739 1731 707 -706 0
-1764 740 1732 708 -707 0
-2787 739 2755 707 -706 0
-2788 740 2756 708 -707 0
-707 963 0
-964 707 0
-1987 963 1731 707 -706 0
-1988 964 1732 708 -707 0
-3011 963 2755 707 -706 0
-3012 964 2756 708 -707 0
-707 1731 0
-1732 707 0
-3779 1731 2755 707 -706 0
-3780 1732 2756 708 -707 0
-707 2755 0
-2756 707 0
-711 719 0
-720 711 0
-712 720 0
-736 720 728 712 -711 0
-752 720 744 712 -711 0
-976 720 968 712 -711 0
-1744 720 1736 712 -711 0
-2768 720 2760 712 -711 0
-711 727 0
-728 711 0
-712 728 0
-760 728 744 712 -711 0
-984 728 968 712 -711 0
-1752 728 1736 712 -711 0
-2776 728 2760 712 -711 0
-712 744 0
-1000 744 968 712 -711 0
-1768 744 1736 712 -711 0
-2792 744 2760 712 -711 0
-711 967 0
-968 711 0
-712 968 0
-1992 968 1736 712 -711 0
-3016 968 2760 712 -711 0
-711 1735 0
-712 1736 0
-3784 1736 2760 712 -711 0
-711 2759 0
-712 2760 0
-720 715 0
-716 720 0
-976 720 972 716 -715 0
-1744 720 1740 716 -715 0
-715 731 0
-716 732 0
-988 732 972 716 -715 0
-1756 732 1740 716 -715 0
-2780 732 2764 716 -715 0
-715 747 0
-748 715 0
-716 748 0
-1004 748 972 716 -715 0
-1772 748 1740 716 -715 0
-2796 748 2764 716 -715 0
-715 971 0
-716 972 0
-1996 972 1740 716 -715 0
-3020 972 2764 716 -715 0
-715 1739 0
-716 1740 0
-3788 1740 2764 716 -715 0
-715 2763 0
-716 2764 0
-736 719 0
-720 736 0
-992 736 976 720 -719 0
-1760 736 1744 720 -719 0
-2784 736 2768 720 -719 0
-752 719 0
-720 752 0
-1008 752 976 720 -719 0
-976 719 0
-720 976 0
-2000 976 1744 720 -719 0
-3024 976 2768 720 -719 0
-720 1744 0
-3792 1744 2768 720 -719 0
-720 2768 0
-723 727 0
-728 723 0
-724 728 0
-983 727 979 723 -722 0
-984 728 980 724 -723 0
-1752 728 1748 724 -723 0
-2776 728 2772 724 -723 0
-732 723 0
-724 732 0
-764 732 756 724 -723 0
-987 731 979 723 -722 0
-1755 731 1747 723 -722 0
-2780 732 2772 724 -723 0
-723 755 0
-756 723 0
-724 756 0
-1012 756 980 724 -723 0
-1779 755 1747 723 -722 0
-1780 756 1748 724 -723 0
-2804 756 2772 724 -723 0
-723 979 0
-980 723 0
-724 980 0
-2004 980 1748 724 -723 0
-3028 980 2772 724 -723 0
-723 1747 0
-1748 723 0
-724 1748 0
-3796 1748 2772 724 -723 0
-723 2771 0
-2772 723 0
-724 2772 0
-728 736 0
-992 736 984 728 -727 0
-1760 736 1752 728 -727 0
-760 727 0
-984 727 0
-728 984 0
-2008 984 1752 728 -727 0
-3032 984 2776 728 -727 0
-728 1752 0
-728 2776 0
-736 731 0
-732 736 0
-992 736 988 732 -731 0
-1760 736 1756 732 -731 0
-2784 736 2780 732 -731 0
-764 731 0
-1020 764 988 732 -731 0
-2812 764 2780 732 -731 0
-732 988 0
-3036 988 2780 732 -731 0
-732 1756 0
-3804 1756 2780 732 -731 0
-732 2780 0
-736 768 0
-1024 768 992 736 -735 0
-736 992 0
-736 1760 0
-736 2784 0
-739 743 0
-744 739 0
-740 744 0
-1000 744 996 740 -739 0
-1767 743 1763 739 -738 0
-1768 744 1764 740 -739 0
-2792 744 2788 740 -739 0
-739 747 0
-748 739 0
-740 748 0
-1003 747 995 739 -738 0
-1004 748 996 740 -739 0
-1771 747 1763 739 -738 0
-1772 748 1764 740 -739 0
-2796 748 2788 740 -739 0
-739 755 0
-756 739 0
-740 756 0
-1011 755 995 739 -738 0
-1012 756 996 740 -739 0
-1780 756 1764 740 -739 0
-739 995 0
-996 739 0
-740 996 0
-2020 996 1764 740 -739 0
-3044 996 2788 740 -739 0
-739 1763 0
-1764 739 0
-740 1764 0
-3812 1764 2788 740 -739 0
-739 2787 0
-2788 739 0
-740 2788 0
-744 752 0
-1008 752 1000 744 -743 0
-1776 752 1768 744 -743 0
-760 743 0
-744 760 0
-1016 760 1000 744 -743 0
-1784 760 1768 744 -743 0
-2808 760 2792 744 -743 0
-744 1000 0
-2024 1000 1768 744 -743 0
-3048 1000 2792 744 -743 0
-1768 743 0
-744 1768 0
-3816 1768 2792 744 -743 0
-744 2792 0
-752 747 0
-748 752 0
-1008 752 1004 748 -747 0
-764 747 0
-748 764 0
-1020 764 1004 748 -747 0
-2812 764 2796 748 -747 0
-1004 747 0
-748 1004 0
-2028 1004 1772 748 -747 0
-3052 1004 2796 748 -747 0
-1772 747 0
-748 1772 0
-748 2796 0
-1024 768 1008 752 -751 0
-2816 768 2800 752 -751 0
-752 1008 0
-760 755 0
-756 760 0
-2808 760 2804 756 -755 0
-764 755 0
-1020 764 1012 756 -755 0
-1788 764 1780 756 -755 0
-2812 764 2804 756 -755 0
-1012 755 0
-756 1012 0
-2036 1012 1780 756 -755 0
-756 1780 0
-2804 755 0
-756 2804 0
-760 768 0
-1024 768 1016 760 -759 0
-2816 768 2808 760 -759 0
-760 1016 0
-760 2808 0
-764 768 0
-1024 768 1020 764 -763 0
-2816 768 2812 764 -763 0
-764 1020 0
-764 1788 0
-764 2812 0
-775 770 0
-783 775 779 771 -770 0
-791 775 787 771 -770 0
-807 775 803 771 -770 0
-839 775 835 771 -770 0
-903 775 899 771 -770 0
-1799 775 1795 771 -770 0
-2823 775 2819 771 -770 0
-779 770 0
-795 779 787 771 -770 0
-811 779 803 771 -770 0
-843 779 835 771 -770 0
-907 779 899 771 -770 0
-1803 779 1795 771 -770 0
-2827 779 2819 771 -770 0
-787 770 0
-819 787 803 771 -770 0
-851 787 835 771 -770 0
-915 787 899 771 -770 0
-1811 787 1795 771 -770 0
-803 770 0
-867 803 835 771 -770 0
-931 803 899 771 -770 0
-1827 803 1795 771 -770 0
-2851 803 2819 771 -770 0
-835 770 0
-963 835 899 771 -770 0
-1859 835 1795 771 -770 0
-2883 835 2819 771 -770 0
-899 770 0
-1923 899 1795 771 -770 0
-2947 899 2819 771 -770 0
-1795 770 0
-3843 1795 2819 771 -770 0
-2819 770 0
-775 783 0
-784 775 0
-800 784 792 776 -775 0
-815 783 807 775 -774 0
-816 784 808 776 -775 0
-847 783 839 775 -774 0
-848 784 840 776 -775 0
-911 783 903 775 -774 0
-912 784 904 776 -775 0
-1807 783 1799 775 -774 0
-1808 784 1800 776 -775 0
-2832 784 2824 776 -775 0
-775 791 0
-792 775 0
-824 792 808 776 -775 0
-856 792 840 776 -775 0
-920 792 904 776 -775 0
-1816 792 1800 776 -775 0
-2839 791 2823 775 -774 0
-2840 792 2824 776 -775 0
-775 807 0
-808 775 0
-871 807 839 775 -774 0
-872 808 840 776 -775 0
-936 808 904 776 -775 0
-1831 807 1799 775 -774 0
-1832 808 1800 776 -775 0
-2855 807 2823 775 -774 0
-2856 808 2824 776 -775 0
-775 839 0
-840 775 0
-967 839 903 775 -774 0
-968 840 904 776 -775 0
-1864 840 1800 776 -775 0
-2888 840 2824 776 -775 0
-775 903 0
-904 775 0
-1927 903 1799 775 -774 0
-1928 904 1800 776 -775 0
-2951 903 2823 775 -774 0
-2952 904 2824 776 -775 0
-775 1799 0
-1800 775 0
-3848 1800 2824 776 -775 0
-775 2823 0
-2824 775 0
-779 783 0
-784 779 0
-800 784 796 780 -779 0
-815 783 811 779 -778 0
-816 784 812 780 -779 0
-848 784 844 780 -779 0
-911 783 907 779 -778 0
-912 784 908 780 -779 0
-1808 784 1804 780 -779 0
-2832 784 2828 780 -779 0
-779 795 0
-796 779 0
-828 796 812 780 -779 0
-860 796 844 780 -779 0
-923 795 907 779 -778 0
-924 796 908 780 -779 0
-1819 795 1803 779 -778 0
-1820 796 1804 780 -779 0
-2843 795 2827 779 -778 0
-2844 796 2828 780 -779 0
-779 811 0
-812 779 0
-876 812 844 780 -779 0
-939 811 907 779 -778 0
-940 812 908 780 -779 0
-1835 811 1803 779 -778 0
-1836 812 1804 780 -779 0
-2860 812 2828 780 -779 0
-779 843 0
-844 779 0
-972 844 908 780 -779 0
-1867 843 1803 779 -778 0
-1868 844 1804 780 -779 0
-2892 844 2828 780 -779 0
-779 907 0
-908 779 0
-1931 907 1803 779 -778 0
-1932 908 1804 780 -779 0
-2955 907 2827 779 -778 0
-2956 908 2828 780 -779 0
-779 1803 0
-1804 779 0
-3851 1803 2827 779 -778 0
-3852 1804 2828 780 -779 0
-779 2827 0
-2828 779 0
-800 783 0
-784 800 0
-864 800 848 784 -783 0
-928 800 912 784 -783 0
-1824 800 1808 784 -783 0
-2848 800 2832 784 -783 0
-816 783 0
-784 816 0
-880 816 848 784 -783 0
-944 816 912 784 -783 0
-1840 816 1808 784 -783 0
-2864 816 2832 784 -783 0
-783 847 0
-848 783 0
-784 848 0
-976 848 912 784 -783 0
-1872 848 1808 784 -783 0
-2896 848 2832 784 -783 0
-783 911 0
-912 783 0
-784 912 0
-1936 912 1808 784 -783 0
-2960 912 2832 784 -783 0
-783 1807 0
-1808 783 0
-784 1808 0
-3856 1808 2832 784 -783 0
-783 2831 0
-2832 783 0
-784 2832 0
-787 791 0
-792 787 0
-800 792 796 788 -787 0
-824 792 820 788 -787 0
-855 791 851 787 -786 0
-856 792 852 788 -787 0
-920 792 916 788 -787 0
-1816 792 1812 788 -787 0
-2839 791 2835 787 -786 0
-2840 792 2836 788 -787 0
-787 795 0
-796 787 0
-828 796 820 788 -787 0
-859 795 851 787 -786 0
-860 796 852 788 -787 0
-923 795 915 787 -786 0
-924 796 916 788 -787 0
-1819 795 1811 787 -786 0
-1820 796 1812 788 -787 0
-2844 796 2836 788 -787 0
-787 819 0
-820 787 0
-884 820 852 788 -787 0
-947 819 915 787 -786 0
-948 820 916 788 -787 0
-1844 820 1812 788 -787 0
-2868 820 2836 788 -787 0
-787 851 0
-852 787 0
-980 852 916 788 -787 0
-1876 852 1812 788 -787 0
-2900 852 2836 788 -787 0
-787 915 0
-916 787 0
-1940 916 1812 788 -787 0
-2963 915 2835 787 -786 0
-2964 916 2836 788 -787 0
-787 1811 0
-1812 787 0
-3859 1811 2835 787 -786 0
-3860 1812 2836 788 -787 0
-787 2835 0
-2836 787 0
-800 791 0
-792 800 0
-864 800 856 792 -791 0
-928 800 920 792 -791 0
-1824 800 1816 792 -791 0
-2848 800 2840 792 -791 0
-824 791 0
-792 824 0
-888 824 856 792 -791 0
-952 824 920 792 -791 0
-1848 824 1816 792 -791 0
-2872 824 2840 792 -791 0
-791 855 0
-856 791 0
-792 856 0
-1880 856 1816 792 -791 0
-2904 856 2840 792 -791 0
-791 919 0
-920 791 0
-792 920 0
-1944 920 1816 792 -791 0
-2968 920 2840 792 -791 0
-791 1815 0
-1816 791 0
-792 1816 0
-3864 1816 2840 792 -791 0
-791 2839 0
-2840 791 0
-792 2840 0
-800 795 0
-796 800 0
-864 800 860 796 -795 0
-928 800 924 796 -795 0
-1824 800 1820 796 -795 0
-2848 800 2844 796 -795 0
-828 795 0
-796 828 0
-892 828 860 796 -795 0
-956 828 924 796 -795 0
-1852 828 1820 796 -795 0
-2876 828 2844 796 -795 0
-860 795 0
-796 860 0
-988 860 924 796 -795 0
-1884 860 1820 796 -795 0
-2908 860 2844 796 -795 0
-795 923 0
-924 795 0
-796 924 0
-1948 924 1820 796 -795 0
-2972 924 2844 796 -795 0
-795 1819 0
-1820 795 0
-796 1820 0
-3868 1820 2844 796 -795 0
-795 2843 0
-2844 795 0
-796 2844 0
-800 832 0
-896 832 864 800 -799 0
-960 832 928 800 -799 0
-1856 832 1824 800 -799 0
-2880 832 2848 800 -799 0
-800 864 0
-992 864 928 800 -799 0
-800 928 0
-800 1824 0
-800 2848 0
-803 807 0
-808 803 0
-816 808 812 804 -803 0
-824 808 820 804 -803 0
-872 808 868 804 -803 0
-936 808 932 804 -803 0
-1832 808 1828 804 -803 0
-2855 807 2851 803 -802 0
-2856 808 2852 804 -803 0
-803 811 0
-812 803 0
-828 812 820 804 -803 0
-876 812 868 804 -803 0
-940 812 932 804 -803 0
-1836 812 1828 804 -803 0
-2860 812 2852 804 -803 0
-803 819 0
-820 803 0
-884 820 868 804 -803 0
-947 819 931 803 -802 0
-948 820 932 804 -803 0
-1844 820 1828 804 -803 0
-2868 820 2852 804 -803 0
-803 867 0
-868 803 0
-996 868 932 804 -803 0
-1892 868 1828 804 -803 0
-2916 868 2852 804 -803 0
-803 931 0
-932 803 0
-1955 931 1827 803 -802 0
-1956 932 1828 804 -803 0
-2980 932 2852 804 -803 0
-803 1827 0
-1828 803 0
-3875 1827 2851 803 -802 0
-3876 1828 2852 804 -803 0
-803 2851 0
-2852 803 0
-816 807 0
-808 816 0
-880 816 872 808 -807 0
-944 816 936 808 -807 0
-1840 816 1832 808 -807 0
-2864 816 2856 808 -807 0
-824 807 0
-808 824 0
-888 824 872 808 -807 0
-952 824 936 808 -807 0
-1848 824 1832 808 -807 0
-2872 824 2856 808 -807 0
-807 871 0
-872 807 0
-808 872 0
-1000 872 936 808 -807 0
-1896 872 1832 808 -807 0
-2920 872 2856 808 -807 0
-936 807 0
-808 936 0
-1960 936 1832 808 -807 0
-2984 936 2856 808 -807 0
-807 1831 0
-1832 807 0
-808 1832 0
-3880 1832 2856 808 -807 0
-807 2855 0
-2856 807 0
-808 2856 0
-816 811 0
-812 816 0
-832 816 828 812 -811 0
-880 816 876 812 -811 0
-944 816 940 812 -811 0
-1840 816 1836 812 -811 0
-2864 816 2860 812 -811 0
-828 811 0
-812 828 0
-892 828 876 812 -811 0
-956 828 940 812 -811 0
-1852 828 1836 812 -811 0
-2876 828 2860 812 -811 0
-811 875 0
-876 811 0
-812 876 0
-1004 876 940 812 -811 0
-1900 876 1836 812 -811 0
-2924 876 2860 812 -811 0
-811 939 0
-940 811 0
-812 940 0
-1964 940 1836 812 -811 0
-811 1835 0
-1836 811 0
-812 1836 0
-3884 1836 2860 812 -811 0
-811 2859 0
-2860 811 0
-812 2860 0
-816 832 0
-896 832 880 816 -815 0
-960 832 944 816 -815 0
-1856 832 1840 816 -815 0
-2880 832 2864 816 -815 0
-816 880 0
-2928 880 2864 816 -815 0
-816 944 0
-1968 944 1840 816 -815 0
-2992 944 2864 816 -815 0
-816 1840 0
-3888 1840 2864 816 -815 0
-816 2864 0
-824 819 0
-820 824 0
-888 824 884 820 -819 0
-952 824 948 820 -819 0
-1848 824 1844 820 -819 0
-2872 824 2868 820 -819 0
-828 819 0
-820 828 0
-892 828 884 820 -819 0
-956 828 948 820 -819 0
-1852 828 1844 820 -819 0
-2876 828 2868 820 -819 0
-819 883 0
-884 819 0
-820 884 0
-1012 884 948 820 -819 0
-1908 884 1844 820 -819 0
-2932 884 2868 820 -819 0
-819 947 0
-948 819 0
-820 948 0
-1972 948 1844 820 -819 0
-819 1843 0
-1844 819 0
-820 1844 0
-3892 1844 2868 820 -819 0
-819 2867 0
-820 2868 0
-824 832 0
-896 832 888 824 -823 0
-960 832 952 824 -823 0
-1856 832 1848 824 -823 0
-824 888 0
-1912 888 1848 824 -823 0
-2936 888 2872 824 -823 0
-824 952 0
-1976 952 1848 824 -823 0
-3000 952 2872 824 -823 0
-824 1848 0
-3896 1848 2872 824 -823 0
-824 2872 0
-828 832 0
-896 832 892 828 -827 0
-960 832 956 828 -827 0
-1856 832 1852 828 -827 0
-2880 832 2876 828 -827 0
-828 892 0
-1916 892 1852 828 -827 0
-2940 892 2876 828 -827 0
-828 956 0
-1980 956 1852 828 -827 0
-828 1852 0
-828 2876 0
-832 896 0
-1024 896 960 832 -831 0
-1920 896 1856 832 -831 0
-2944 896 2880 832 -831 0
-1984 960 1856 832 -831 0
-3008 960 2880 832 -831 0
-832 1856 0
-3904 1856 2880 832 -831 0
-832 2880 0
-835 839 0
-840 835 0
-847 839 843 835 -834 0
-848 840 844 836 -835 0
-855 839 851 835 -834 0
-856 840 852 836 -835 0
-871 839 867 835 -834 0
-872 840 868 836 -835 0
-967 839 963 835 -834 0
-968 840 964 836 -835 0
-1863 839 1859 835 -834 0
-1864 840 1860 836 -835 0
-2887 839 2883 835 -834 0
-2888 840 2884 836 -835 0
-835 843 0
-844 835 0
-860 844 852 836 -835 0
-875 843 867 835 -834 0
-876 844 868 836 -835 0
-971 843 963 835 -834 0
-972 844 964 836 -835 0
-1868 844 1860 836 -835 0
-2892 844 2884 836 -835 0
-835 851 0
-852 835 0
-883 851 867 835 -834 0
-884 852 868 836 -835 0
-979 851 963 835 -834 0
-980 852 964 836 -835 0
-1875 851 1859 835 -834 0
-1876 852 1860 836 -835 0
-2900 852 2884 836 -835 0
-835 867 0
-868 835 0
-995 867 963 835 -834 0
-996 868 964 836 -835 0
-1891 867 1859 835 -834 0
-1892 868 1860 836 -835 0
-2916 868 2884 836 -835 0
-835 963 0
-964 835 0
-1988 964 1860 836 -835 0
-3011 963 2883 835 -834 0
-3012 964 2884 836 -835 0
-835 1859 0
-1860 835 0
-3907 1859 2883 835 -834 0
-3908 1860 2884 836 -835 0
-835 2883 0
-2884 835 0
-839 847 0
-848 839 0
-840 848 0
-864 848 856 840 -839 0
-880 848 872 840 -839 0
-975 847 967 839 -838 0
-976 848 968 840 -839 0
-1872 848 1864 840 -839 0
-2896 848 2888 840 -839 0
-839 855 0
-856 839 0
-840 856 0
-888 856 872 840 -839 0
-984 856 968 840 -839 0
-1880 856 1864 840 -839 0
-2904 856 2888 840 -839 0
-839 871 0
-872 839 0
-840 872 0
-1000 872 968 840 -839 0
-1896 872 1864 840 -839 0
-2920 872 2888 840 -839 0
-839 967 0
-840 968 0
-1992 968 1864 840 -839 0
-3016 968 2888 840 -839 0
-839 1863 0
-840 1864 0
-3912 1864 2888 840 -839 0
-839 2887 0
-2888 839 0
-840 2888 0
-848 843 0
-844 848 0
-864 848 860 844 -843 0
-976 848 972 844 -843 0
-1872 848 1868 844 -843 0
-2896 848 2892 844 -843 0
-843 859 0
-860 843 0
-844 860 0
-892 860 876 844 -843 0
-988 860 972 844 -843 0
-1884 860 1868 844 -843 0
-876 843 0
-844 876 0
-1004 876 972 844 -843 0
-1899 875 1867 843 -842 0
-1900 876 1868 844 -843 0
-2924 876 2892 844 -843 0
-844 972 0
-1996 972 1868 844 -843 0
-3020 972 2892 844 -843 0
-843 1867 0
-1868 843 0
-844 1868 0
-3916 1868 2892 844 -843 0
-843 2891 0
-844 2892 0
-864 847 0
-1888 864 1872 848 -847 0
-880 847 0
-848 880 0
-1008 880 976 848 -847 0
-848 976 0
-2000 976 1872 848 -847 0
-3024 976 2896 848 -847 0
-848 1872 0
-3920 1872 2896 848 -847 0
-848 2896 0
-856 851 0
-852 856 0
-864 856 860 852 -851 0
-888 856 884 852 -851 0
-984 856 980 852 -851 0
-1880 856 1876 852 -851 0
-2904 856 2900 852 -851 0
-851 859 0
-860 851 0
-852 860 0
-987 859 979 851 -850 0
-988 860 980 852 -851 0
-1884 860 1876 852 -851 0
-2908 860 2900 852 -851 0
-851 883 0
-884 851 0
-852 884 0
-1012 884 980 852 -851 0
-1908 884 1876 852 -851 0
-2932 884 2900 852 -851 0
-851 979 0
-980 851 0
-852 980 0
-2004 980 1876 852 -851 0
-3028 980 2900 852 -851 0
-851 1875 0
-852 1876 0
-3924 1876 2900 852 -851 0
-851 2899 0
-852 2900 0
-856 864 0
-992 864 984 856 -855 0
-1888 864 1880 856 -855 0
-888 855 0
-856 888 0
-1016 888 984 856 -855 0
-2936 888 2904 856 -855 0
-984 855 0
-856 984 0
-2008 984 1880 856 -855 0
-3032 984 2904 856 -855 0
-856 1880 0
-3928 1880 2904 856 -855 0
-856 2904 0
-864 859 0
-892 859 0
-860 892 0
-1916 892 1884 860 -859 0
-2012 988 1884 860 -859 0
-3036 988 2908 860 -859 0
-1884 859 0
-860 1884 0
-860 2908 0
-864 896 0
-1920 896 1888 864 -863 0
-864 1888 0
-867 871 0
-872 867 0
-868 872 0
-1000 872 996 868 -867 0
-1896 872 1892 868 -867 0
-2920 872 2916 868 -867 0
-876 867 0
-868 876 0
-1004 876 996 868 -867 0
-1900 876 1892 868 -867 0
-2924 876 2916 868 -867 0
-884 867 0
-868 884 0
-1012 884 996 868 -867 0
-1908 884 1892 868 -867 0
-2932 884 2916 868 -867 0
-867 995 0
-996 867 0
-868 996 0
-2020 996 1892 868 -867 0
-3044 996 2916 868 -867 0
-867 1891 0
-1892 867 0
-868 1892 0
-3940 1892 2916 868 -867 0
-867 2915 0
-868 2916 0
-880 871 0
-872 880 0
-1904 880 1896 872 -871 0
-2928 880 2920 872 -871 0
-888 871 0
-872 888 0
-2936 888 2920 872 -871 0
-872 1000 0
-3048 1000 2920 872 -871 0
-872 1896 0
-3944 1896 2920 872 -871 0
-872 2920 0
-1904 880 1900 876 -875 0
-892 875 0
-876 892 0
-1020 892 1004 876 -875 0
-1916 892 1900 876 -875 0
-2940 892 2924 876 -875 0
-876 1004 0
-876 1900 0
-3948 1900 2924 876 -875 0
-876 2924 0
-880 896 0
-1920 896 1904 880 -879 0
-2944 896 2928 880 -879 0
-880 1904 0
-888 883 0
-884 888 0
-1912 888 1908 884 -883 0
-892 883 0
-884 892 0
-1020 892 1012 884 -883 0
-1916 892 1908 884 -883 0
-2940 892 2932 884 -883 0
-884 1012 0
-2036 1012 1908 884 -883 0
-1908 883 0
-884 1908 0
-3956 1908 2932 884 -883 0
-884 2932 0
-888 896 0
-2944 896 2936 888 -887 0
-888 2936 0
-892 896 0
-1920 896 1916 892 -891 0
-2944 896 2940 892 -891 0
-892 1020 0
-892 1916 0
-892 2940 0
-899 903 0
-904 899 0
-911 903 907 899 -898 0
-912 904 908 900 -899 0
-919 903 915 899 -898 0
-920 904 916 900 -899 0
-935 903 931 899 -898 0
-936 904 932 900 -899 0
-967 903 963 899 -898 0
-968 904 964 900 -899 0
-1927 903 1923 899 -898 0
-1928 904 1924 900 -899 0
-2951 903 2947 899 -898 0
-2952 904 2948 900 -899 0
-899 907 0
-908 899 0
-923 907 915 899 -898 0
-924 908 916 900 -899 0
-939 907 931 899 -898 0
-940 908 932 900 -899 0
-971 907 963 899 -898 0
-972 908 964 900 -899 0
-1931 907 1923 899 -898 0
-1932 908 1924 900 -899 0
-2955 907 2947 899 -898 0
-2956 908 2948 900 -899 0
-899 915 0
-916 899 0
-947 915 931 899 -898 0
-948 916 932 900 -899 0
-979 915 963 899 -898 0
-980 916 964 900 -899 0
-1940 916 1924 900 -899 0
-2963 915 2947 899 -898 0
-2964 916 2948 900 -899 0
-899 931 0
-932 899 0
-995 931 963 899 -898 0
-996 932 964 900 -899 0
-1956 932 1924 900 -899 0
-2980 932 2948 900 -899 0
-899 963 0
-964 899 0
-1987 963 1923 899 -898 0
-1988 964 1924 900 -899 0
-3011 963 2947 899 -898 0
-3012 964 2948 900 -899 0
-899 1923 0
-1924 899 0
-3972 1924 2948 900 -899 0
-899 2947 0
-2948 899 0
-903 911 0
-904 912 0
-928 912 920 904 -903 0
-944 912 936 904 -903 0
-975 911 967 903 -902 0
-976 912 968 904 -903 0
-1936 912 1928 904 -903 0
-2959 911 2951 903 -902 0
-2960 912 2952 904 -903 0
-920 903 0
-904 920 0
-952 920 936 904 -903 0
-984 920 968 904 -903 0
-1944 920 1928 904 -903 0
-2968 920 2952 904 -903 0
-903 935 0
-936 903 0
-904 936 0
-1000 936 968 904 -903 0
-1960 936 1928 904 -903 0
-903 967 0
-968 903 0
-904 968 0
-1992 968 1928 904 -903 0
-3016 968 2952 904 -903 0
-903 1927 0
-1928 903 0
-904 1928 0
-3976 1928 2952 904 -903 0
-903 2951 0
-2952 903 0
-904 2952 0
-907 911 0
-912 907 0
-908 912 0
-928 912 924 908 -907 0
-944 912 940 908 -907 0
-975 911 971 907 -906 0
-976 912 972 908 -907 0
-1935 911 1931 907 -906 0
-1936 912 1932 908 -907 0
-2960 912 2956 908 -907 0
-907 923 0
-924 907 0
-908 924 0
-988 924 972 908 -907 0
-1948 924 1932 908 -907 0
-2972 924 2956 908 -907 0
-907 939 0
-940 907 0
-908 940 0
-1964 940 1932 908 -907 0
-2988 940 2956 908 -907 0
-907 971 0
-972 907 0
-908 972 0
-1996 972 1932 908 -907 0
-3020 972 2956 908 -907 0
-907 1931 0
-908 1932 0
-3980 1932 2956 908 -907 0
-907 2955 0
-2956 907 0
-908 2956 0
-928 911 0
-912 928 0
-1952 928 1936 912 -911 0
-2976 928 2960 912 -911 0
-944 911 0
-912 944 0
-1968 944 1936 912 -911 0
-2992 944 2960 912 -911 0
-976 911 0
-912 976 0
-2000 976 1936 912 -911 0
-3024 976 2960 912 -911 0
-1936 911 0
-912 1936 0
-3984 1936 2960 912 -911 0
-2960 911 0
-912 2960 0
-915 919 0
-920 915 0
-916 920 0
-984 920 980 916 -915 0
-1944 920 1940 916 -915 0
-2968 920 2964 916 -915 0
-924 915 0
-916 924 0
-988 924 980 916 -915 0
-1947 923 1939 915 -914 0
-1948 924 1940 916 -915 0
-2972 924 2964 916 -915 0
-915 947 0
-948 915 0
-916 948 0
-1972 948 1940 916 -915 0
-2996 948 2964 916 -915 0
-980 915 0
-916 980 0
-2004 980 1940 916 -915 0
-3028 980 2964 916 -915 0
-915 1939 0
-916 1940 0
-3988 1940 2964 916 -915 0
-915 2963 0
-2964 915 0
-916 2964 0
-928 919 0
-920 928 0
-992 928 984 920 -919 0
-2976 928 2968 920 -919 0
-952 919 0
-920 952 0
-920 984 0
-2008 984 1944 920 -919 0
-3032 984 2968 920 -919 0
-920 1944 0
-3992 1944 2968 920 -919 0
-2968 919 0
-920 2968 0
-928 923 0
-924 928 0
-956 923 0
-924 988 0
-2012 988 1948 924 -923 0
-3036 988 2972 924 -923 0
-924 1948 0
-3996 1948 2972 924 -923 0
-924 2972 0
-928 960 0
-1024 960 992 928 -927 0
-3008 960 2976 928 -927 0
-928 2976 0
-931 935 0
-936 931 0
-932 936 0
-944 936 940 932 -931 0
-952 936 948 932 -931 0
-1000 936 996 932 -931 0
-1960 936 1956 932 -931 0
-2984 936 2980 932 -931 0
-931 939 0
-940 931 0
-932 940 0
-1004 940 996 932 -931 0
-1964 940 1956 932 -931 0
-2988 940 2980 932 -931 0
-931 947 0
-948 931 0
-932 948 0
-1011 947 995 931 -930 0
-1012 948 996 932 -931 0
-1972 948 1956 932 -931 0
-2996 948 2980 932 -931 0
-931 995 0
-996 931 0
-932 996 0
-2020 996 1956 932 -931 0
-3044 996 2980 932 -931 0
-931 1955 0
-1956 931 0
-932 1956 0
-4004 1956 2980 932 -931 0
-931 2979 0
-932 2980 0
-936 944 0
-952 935 0
-936 952 0
-1016 952 1000 936 -935 0
-936 1000 0
-936 1960 0
-4008 1960 2984 936 -935 0
-936 2984 0
-944 939 0
-1008 944 1004 940 -939 0
-1968 944 1964 940 -939 0
-2992 944 2988 940 -939 0
-956 939 0
-940 956 0
-1020 956 1004 940 -939 0
-940 1004 0
-2028 1004 1964 940 -939 0
-3052 1004 2988 940 -939 0
-1964 939 0
-940 1964 0
-4012 1964 2988 940 -939 0
-940 2988 0
-944 960 0
-1024 960 1008 944 -943 0
-3008 960 2992 944 -943 0
-944 1008 0
-944 1968 0
-944 2992 0
-952 947 0
-948 952 0
-1016 952 1012 948 -947 0
-1976 952 1972 948 -947 0
-956 947 0
-948 956 0
-1020 956 1012 948 -947 0
-1012 947 0
-948 1012 0
-2036 1012 1972 948 -947 0
-3060 1012 2996 948 -947 0
-948 1972 0
-4020 1972 2996 948 -947 0
-2996 947 0
-948 2996 0
-952 960 0
-1024 960 1016 952 -951 0
-3008 960 3000 952 -951 0
-952 1016 0
-952 3000 0
-956 960 0
-1024 960 1020 956 -955 0
-968 963 0
-964 968 0
-976 968 972 964 -963 0
-984 968 980 964 -963 0
-1000 968 996 964 -963 0
-1992 968 1988 964 -963 0
-3016 968 3012 964 -963 0
-963 971 0
-972 963 0
-964 972 0
-988 972 980 964 -963 0
-1004 972 996 964 -963 0
-1996 972 1988 964 -963 0
-3020 972 3012 964 -963 0
-980 963 0
-964 980 0
-1012 980 996 964 -963 0
-2004 980 1988 964 -963 0
-3028 980 3012 964 -963 0
-996 963 0
-964 996 0
-2020 996 1988 964 -963 0
-3044 996 3012 964 -963 0
-963 1987 0
-1988 963 0
-964 1988 0
-4035 1987 3011 963 -962 0
-4036 1988 3012 964 -963 0
-963 3011 0
-3012 963 0
-964 3012 0
-968 976 0
-1008 976 1000 968 -967 0
-2000 976 1992 968 -967 0
-3024 976 3016 968 -967 0
-984 967 0
-968 984 0
-2008 984 1992 968 -967 0
-3032 984 3016 968 -967 0
-1000 967 0
-968 1000 0
-2024 1000 1992 968 -967 0
-3048 1000 3016 968 -967 0
-968 1992 0
-4040 1992 3016 968 -967 0
-968 3016 0
-972 976 0
-3036 988 3020 972 -971 0
-972 1004 0
-2028 1004 1996 972 -971 0
-3052 1004 3020 972 -971 0
-972 1996 0
-4044 1996 3020 972 -971 0
-972 3020 0
-976 2000 0
-4048 2000 3024 976 -975 0
-976 3024 0
-984 979 0
-980 984 0
-1016 984 1012 980 -979 0
-2008 984 2004 980 -979 0
-3032 984 3028 980 -979 0
-988 979 0
-3036 988 3028 980 -979 0
-980 1012 0
-3060 1012 3028 980 -979 0
-980 2004 0
-4052 2004 3028 980 -979 0
-980 3028 0
-984 2008 0
-4056 2008 3032 984 -983 0
-984 3032 0
-988 2012 0
-4060 2012 3036 988 -987 0
-996 1000 0
-2024 1000 2020 996 -995 0
-3048 1000 3044 996 -995 0
-996 1004 0
-2028 1004 2020 996 -995 0
-3052 1004 3044 996 -995 0
-1012 995 0
-996 1012 0
-2036 1012 2020 996 -995 0
-3060 1012 3044 996 -995 0
-996 2020 0
-4068 2020 3044 996 -995 0
-996 3044 0
-4072 2024 3048 1000 -999 0
-1000 3048 0
-1004 2028 0
-4076 2028 3052 1004 -1003 0
-1004 3052 0
-1012 1020 0
-4084 2036 3060 1012 -1011 0
-1218 1090 1154 1026 -1025 0
-1346 1090 1282 1026 -1025 0
-1602 1090 1538 1026 -1025 0
-3138 1090 3074 1026 -1025 0
-1410 1154 1282 1026 -1025 0
-1666 1154 1538 1026 -1025 0
-3202 1154 3074 1026 -1025 0
-1794 1282 1538 1026 -1025 0
-3330 1282 3074 1026 -1025 0
-3586 1538 3074 1026 -1025 0
-1039 1030 0
-1055 1039 1047 1031 -1030 0
-1071 1039 1063 1031 -1030 0
-1103 1039 1095 1031 -1030 0
-1167 1039 1159 1031 -1030 0
-1295 1039 1287 1031 -1030 0
-1551 1039 1543 1031 -1030 0
-3087 1039 3079 1031 -1030 0
-1047 1030 0
-1079 1047 1063 1031 -1030 0
-1111 1047 1095 1031 -1030 0
-1303 1047 1287 1031 -1030 0
-1559 1047 1543 1031 -1030 0
-3095 1047 3079 1031 -1030 0
-1063 1030 0
-1127 1063 1095 1031 -1030 0
-1191 1063 1159 1031 -1030 0
-3111 1063 3079 1031 -1030 0
-1223 1095 1159 1031 -1030 0
-1351 1095 1287 1031 -1030 0
-3143 1095 3079 1031 -1030 0
-1159 1030 0
-1415 1159 1287 1031 -1030 0
-1671 1159 1543 1031 -1030 0
-3207 1159 3079 1031 -1030 0
-1287 1030 0
-1799 1287 1543 1031 -1030 0
-3335 1287 3079 1031 -1030 0
-3591 1543 3079 1031 -1030 0
-3079 1030 0
-1039 1034 0
-1055 1039 1051 1035 -1034 0
-1071 1039 1067 1035 -1034 0
-1167 1039 1163 1035 -1034 0
-1295 1039 1291 1035 -1034 0
-1551 1039 1547 1035 -1034 0
-3087 1039 3083 1035 -1034 0
-1051 1034 0
-1115 1051 1099 1035 -1034 0
-1179 1051 1163 1035 -1034 0
-1563 1051 1547 1035 -1034 0
-3099 1051 3083 1035 -1034 0
-1067 1034 0
-1195 1067 1163 1035 -1034 0
-1323 1067 1291 1035 -1034 0
-1579 1067 1547 1035 -1034 0
-3115 1067 3083 1035 -1034 0
-1227 1099 1163 1035 -1034 0
-1355 1099 1291 1035 -1034 0
-1611 1099 1547 1035 -1034 0
-3147 1099 3083 1035 -1034 0
-1419 1163 1291 1035 -1034 0
-1675 1163 1547 1035 -1034 0
-3211 1163 3083 1035 -1034 0
-1803 1291 1547 1035 -1034 0
-3339 1291 3083 1035 -1034 0
-3595 1547 3083 1035 -1034 0
-1120 1056 1104 1040 -1039 0
-1184 1056 1168 1040 -1039 0
-1312 1056 1296 1040 -1039 0
-1568 1056 1552 1040 -1039 0
-3104 1056 3088 1040 -1039 0
-1136 1072 1104 1040 -1039 0
-1200 1072 1168 1040 -1039 0
-1328 1072 1296 1040 -1039 0
-1584 1072 1552 1040 -1039 0
-3120 1072 3088 1040 -1039 0
-1039 1103 0
-1104 1039 0
-1232 1104 1168 1040 -1039 0
-1359 1103 1295 1039 -1038 0
-1360 1104 1296 1040 -1039 0
-1616 1104 1552 1040 -1039 0
-3152 1104 3088 1040 -1039 0
-1039 1167 0
-1168 1039 0
-1424 1168 1296 1040 -1039 0
-1679 1167 1551 1039 -1038 0
-1680 1168 1552 1040 -1039 0
-3216 1168 3088 1040 -1039 0
-1039 1295 0
-1296 1039 0
-1808 1296 1552 1040 -1039 0
-3344 1296 3088 1040 -1039 0
-1039 1551 0
-1552 1039 0
-3600 1552 3088 1040 -1039 0
-1039 3087 0
-3088 1039 0
-1047 1042 0
-1055 1047 1051 1043 -1042 0
-1079 1047 1075 1043 -1042 0
-1175 1047 1171 1043 -1042 0
-1303 1047 1299 1043 -1042 0
-3095 1047 3091 1043 -1042 0
-1051 1042 0
-1083 1051 1075 1043 -1042 0
-1307 1051 1299 1043 -1042 0
-1563 1051 1555 1043 -1042 0
-1139 1075 1107 1043 -1042 0
-1203 1075 1171 1043 -1042 0
-1331 1075 1299 1043 -1042 0
-3123 1075 3091 1043 -1042 0
-1107 1042 0
-1235 1107 1171 1043 -1042 0
-1363 1107 1299 1043 -1042 0
-1619 1107 1555 1043 -1042 0
-3155 1107 3091 1043 -1042 0
-1427 1171 1299 1043 -1042 0
-1683 1171 1555 1043 -1042 0
-3219 1171 3091 1043 -1042 0
-1299 1042 0
-1811 1299 1555 1043 -1042 0
-3347 1299 3091 1043 -1042 0
-3603 1555 3091 1043 -1042 0
-1120 1056 1112 1048 -1047 0
-1184 1056 1176 1048 -1047 0
-1312 1056 1304 1048 -1047 0
-1568 1056 1560 1048 -1047 0
-3104 1056 3096 1048 -1047 0
-1144 1080 1112 1048 -1047 0
-1208 1080 1176 1048 -1047 0
-1336 1080 1304 1048 -1047 0
-1592 1080 1560 1048 -1047 0
-3128 1080 3096 1048 -1047 0
-1047 1111 0
-1112 1047 0
-1240 1112 1176 1048 -1047 0
-1368 1112 1304 1048 -1047 0
-1624 1112 1560 1048 -1047 0
-3159 1111 3095 1047 -1046 0
-3160 1112 3096 1048 -1047 0
-1047 1175 0
-1176 1047 0
-1431 1175 1303 1047 -1046 0
-1432 1176 1304 1048 -1047 0
-1688 1176 1560 1048 -1047 0
-3223 1175 3095 1047 -1046 0
-3224 1176 3096 1048 -1047 0
-1047 1303 0
-1304 1047 0
-1815 1303 1559 1047 -1046 0
-1816 1304 1560 1048 -1047 0
-3351 1303 3095 1047 -1046 0
-3352 1304 3096 1048 -1047 0
-1047 1559 0
-1560 1047 0
-3607 1559 3095 1047 -1046 0
-3608 1560 3096 1048 -1047 0
-1047 3095 0
-3096 1047 0
-1120 1056 1116 1052 -1051 0
-1184 1056 1180 1052 -1051 0
-1312 1056 1308 1052 -1051 0
-1568 1056 1564 1052 -1051 0
-3104 1056 3100 1052 -1051 0
-1148 1084 1116 1052 -1051 0
-1212 1084 1180 1052 -1051 0
-1340 1084 1308 1052 -1051 0
-1596 1084 1564 1052 -1051 0
-3132 1084 3100 1052 -1051 0
-1051 1115 0
-1116 1051 0
-1244 1116 1180 1052 -1051 0
-1372 1116 1308 1052 -1051 0
-1627 1115 1563 1051 -1050 0
-1628 1116 1564 1052 -1051 0
-3163 1115 3099 1051 -1050 0
-3164 1116 3100 1052 -1051 0
-1051 1179 0
-1180 1051 0
-1435 1179 1307 1051 -1050 0
-1436 1180 1308 1052 -1051 0
-1691 1179 1563 1051 -1050 0
-1692 1180 1564 1052 -1051 0
-3227 1179 3099 1051 -1050 0
-3228 1180 3100 1052 -1051 0
-1051 1307 0
-1308 1051 0
-1819 1307 1563 1051 -1050 0
-1820 1308 1564 1052 -1051 0
-3355 1307 3099 1051 -1050 0
-3356 1308 3100 1052 -1051 0
-1051 1563 0
-1564 1051 0
-3611 1563 3099 1051 -1050 0
-3612 1564 3100 1052 -1051 0
-1051 3099 0
-3100 1051 0
-1600 1088 1568 1056 -1055 0
-3136 1088 3104 1056 -1055 0
-1248 1120 1184 1056 -1055 0
-1376 1120 1312 1056 -1055 0
-1632 1120 1568 1056 -1055 0
-3168 1120 3104 1056 -1055 0
-1440 1184 1312 1056 -1055 0
-1696 1184 1568 1056 -1055 0
-3232 1184 3104 1056 -1055 0
-1824 1312 1568 1056 -1055 0
-3360 1312 3104 1056 -1055 0
-3616 1568 3104 1056 -1055 0
-1055 3103 0
-1063 1058 0
-1071 1063 1067 1059 -1058 0
-1079 1063 1075 1059 -1058 0
-1127 1063 1123 1059 -1058 0
-1191 1063 1187 1059 -1058 0
-1319 1063 1315 1059 -1058 0
-1575 1063 1571 1059 -1058 0
-3111 1063 3107 1059 -1058 0
-1067 1058 0
-1083 1067 1075 1059 -1058 0
-1131 1067 1123 1059 -1058 0
-1195 1067 1187 1059 -1058 0
-1323 1067 1315 1059 -1058 0
-3115 1067 3107 1059 -1058 0
-1075 1058 0
-1139 1075 1123 1059 -1058 0
-1331 1075 1315 1059 -1058 0
-1587 1075 1571 1059 -1058 0
-3123 1075 3107 1059 -1058 0
-1123 1058 0
-1251 1123 1187 1059 -1058 0
-1379 1123 1315 1059 -1058 0
-1635 1123 1571 1059 -1058 0
-3171 1123 3107 1059 -1058 0
-1187 1058 0
-1443 1187 1315 1059 -1058 0
-1699 1187 1571 1059 -1058 0
-3235 1187 3107 1059 -1058 0
-1315 1058 0
-1827 1315 1571 1059 -1058 0
-3363 1315 3107 1059 -1058 0
-3619 1571 3107 1059 -1058 0
-1136 1072 1128 1064 -1063 0
-1200 1072 1192 1064 -1063 0
-1328 1072 1320 1064 -1063 0
-1584 1072 1576 1064 -1063 0
-3120 1072 3112 1064 -1063 0
-1144 1080 1128 1064 -1063 0
-1208 1080 1192 1064 -1063 0
-1336 1080 1320 1064 -1063 0
-1592 1080 1576 1064 -1063 0
-3128 1080 3112 1064 -1063 0
-1063 1127 0
-1128 1063 0
-1256 1128 1192 1064 -1063 0
-1383 1127 1319 1063 -1062 0
-1384 1128 1320 1064 -1063 0
-1640 1128 1576 1064 -1063 0
-3176 1128 3112 1064 -1063 0
-1063 1191 0
-1192 1063 0
-1447 1191 1319 1063 -1062 0
-1448 1192 1320 1064 -1063 0
-1704 1192 1576 1064 -1063 0
-3240 1192 3112 1064 -1063 0
-1063 1319 0
-1320 1063 0
-1831 1319 1575 1063 -1062 0
-1832 1320 1576 1064 -1063 0
-3368 1320 3112 1064 -1063 0
-1063 1575 0
-1576 1063 0
-3624 1576 3112 1064 -1063 0
-1063 3111 0
-3112 1063 0
-1136 1072 1132 1068 -1067 0
-1200 1072 1196 1068 -1067 0
-1328 1072 1324 1068 -1067 0
-1584 1072 1580 1068 -1067 0
-3120 1072 3116 1068 -1067 0
-1148 1084 1132 1068 -1067 0
-1212 1084 1196 1068 -1067 0
-1340 1084 1324 1068 -1067 0
-1596 1084 1580 1068 -1067 0
-3132 1084 3116 1068 -1067 0
-1067 1131 0
-1132 1067 0
-1260 1132 1196 1068 -1067 0
-1387 1131 1323 1067 -1066 0
-1388 1132 1324 1068 -1067 0
-1643 1131 1579 1067 -1066 0
-1644 1132 1580 1068 -1067 0
-3180 1132 3116 1068 -1067 0
-1067 1195 0
-1196 1067 0
-1452 1196 1324 1068 -1067 0
-1707 1195 1579 1067 -1066 0
-1708 1196 1580 1068 -1067 0
-3244 1196 3116 1068 -1067 0
-1067 1323 0
-1324 1067 0
-1836 1324 1580 1068 -1067 0
-3372 1324 3116 1068 -1067 0
-1067 1579 0
-1580 1067 0
-3628 1580 3116 1068 -1067 0
-1067 3115 0
-3116 1067 0
-3136 1088 3120 1072 -1071 0
-1264 1136 1200 1072 -1071 0
-1392 1136 1328 1072 -1071 0
-1648 1136 1584 1072 -1071 0
-3184 1136 3120 1072 -1071 0
-1456 1200 1328 1072 -1071 0
-1712 1200 1584 1072 -1071 0
-3248 1200 3120 1072 -1071 0
-1840 1328 1584 1072 -1071 0
-3376 1328 3120 1072 -1071 0
-3632 1584 3120 1072 -1071 0
-1071 3119 0
-1144 1080 1140 1076 -1075 0
-1208 1080 1204 1076 -1075 0
-1336 1080 1332 1076 -1075 0
-1592 1080 1588 1076 -1075 0
-3128 1080 3124 1076 -1075 0
-1148 1084 1140 1076 -1075 0
-1212 1084 1204 1076 -1075 0
-1340 1084 1332 1076 -1075 0
-1596 1084 1588 1076 -1075 0
-3132 1084 3124 1076 -1075 0
-1075 1139 0
-1140 1075 0
-1267 1139 1203 1075 -1074 0
-1268 1140 1204 1076 -1075 0
-1396 1140 1332 1076 -1075 0
-1652 1140 1588 1076 -1075 0
-3188 1140 3124 1076 -1075 0
-1075 1203 0
-1204 1075 0
-1460 1204 1332 1076 -1075 0
-1716 1204 1588 1076 -1075 0
-3252 1204 3124 1076 -1075 0
-1075 1331 0
-1332 1075 0
-1844 1332 1588 1076 -1075 0
-3380 1332 3124 1076 -1075 0
-1075 1587 0
-1588 1075 0
-3635 1587 3123 1075 -1074 0
-3636 1588 3124 1076 -1075 0
-1075 3123 0
-3124 1075 0
-3136 1088 3128 1080 -1079 0
-1272 1144 1208 1080 -1079 0
-1400 1144 1336 1080 -1079 0
-1656 1144 1592 1080 -1079 0
-3192 1144 3128 1080 -1079 0
-1464 1208 1336 1080 -1079 0
-1720 1208 1592 1080 -1079 0
-3256 1208 3128 1080 -1079 0
-1848 1336 1592 1080 -1079 0
-3384 1336 3128 1080 -1079 0
-3640 1592 3128 1080 -1079 0
-1079 3127 0
-3136 1088 3132 1084 -1083 0
-1276 1148 1212 1084 -1083 0
-1404 1148 1340 1084 -1083 0
-1660 1148 1596 1084 -1083 0
-3196 1148 3132 1084 -1083 0
-1468 1212 1340 1084 -1083 0
-1724 1212 1596 1084 -1083 0
-3260 1212 3132 1084 -1083 0
-1852 1340 1596 1084 -1083 0
-3388 1340 3132 1084 -1083 0
-3644 1596 3132 1084 -1083 0
-1083 3131 0
-1280 1152 1216 1088 -1087 0
-1408 1152 1344 1088 -1087 0
-1664 1152 1600 1088 -1087 0
-3200 1152 3136 1088 -1087 0
-1472 1216 1344 1088 -1087 0
-1728 1216 1600 1088 -1087 0
-3264 1216 3136 1088 -1087 0
-1856 1344 1600 1088 -1087 0
-3392 1344 3136 1088 -1087 0
-3648 1600 3136 1088 -1087 0
-1095 1090 0
-1103 1095 1099 1091 -1090 0
-1111 1095 1107 1091 -1090 0
-1127 1095 1123 1091 -1090 0
-1223 1095 1219 1091 -1090 0
-1351 1095 1347 1091 -1090 0
-1607 1095 1603 1091 -1090 0
-3143 1095 3139 1091 -1090 0
-1099 1090 0
-1115 1099 1107 1091 -1090 0
-1131 1099 1123 1091 -1090 0
-1227 1099 1219 1091 -1090 0
-1355 1099 1347 1091 -1090 0
-1611 1099 1603 1091 -1090 0
-1107 1090 0
-1139 1107 1123 1091 -1090 0
-1235 1107 1219 1091 -1090 0
-1363 1107 1347 1091 -1090 0
-1619 1107 1603 1091 -1090 0
-3155 1107 3139 1091 -1090 0
-1123 1090 0
-1251 1123 1219 1091 -1090 0
-1379 1123 1347 1091 -1090 0
-1635 1123 1603 1091 -1090 0
-3171 1123 3139 1091 -1090 0
-1219 1090 0
-1475 1219 1347 1091 -1090 0
-1731 1219 1603 1091 -1090 0
-3267 1219 3139 1091 -1090 0
-1347 1090 0
-1859 1347 1603 1091 -1090 0
-3395 1347 3139 1091 -1090 0
-1603 1090 0
-3651 1603 3139 1091 -1090 0
-3139 1090 0
-1095 1103 0
-1104 1095 0
-1120 1104 1112 1096 -1095 0
-1136 1104 1128 1096 -1095 0
-1232 1104 1224 1096 -1095 0
-1360 1104 1352 1096 -1095 0
-1616 1104 1608 1096 -1095 0
-3152 1104 3144 1096 -1095 0
-1095 1111 0
-1112 1095 0
-1144 1112 1128 1096 -1095 0
-1240 1112 1224 1096 -1095 0
-1368 1112 1352 1096 -1095 0
-1624 1112 1608 1096 -1095 0
-3159 1111 3143 1095 -1094 0
-3160 1112 3144 1096 -1095 0
-1128 1095 0
-1256 1128 1224 1096 -1095 0
-1384 1128 1352 1096 -1095 0
-1640 1128 1608 1096 -1095 0
-3176 1128 3144 1096 -1095 0
-1095 1223 0
-1224 1095 0
-1479 1223 1351 1095 -1094 0
-1480 1224 1352 1096 -1095 0
-1736 1224 1608 1096 -1095 0
-3272 1224 3144 1096 -1095 0
-1095 1351 0
-1352 1095 0
-1864 1352 1608 1096 -1095 0
-3400 1352 3144 1096 -1095 0
-1095 1607 0
-1608 1095 0
-3655 1607 3143 1095 -1094 0
-3656 1608 3144 1096 -1095 0
-1095 3143 0
-3144 1095 0
-1099 1103 0
-1104 1099 0
-1120 1104 1116 1100 -1099 0
-1136 1104 1132 1100 -1099 0
-1232 1104 1228 1100 -1099 0
-1360 1104 1356 1100 -1099 0
-1616 1104 1612 1100 -1099 0
-3152 1104 3148 1100 -1099 0
-1099 1115 0
-1116 1099 0
-1148 1116 1132 1100 -1099 0
-1244 1116 1228 1100 -1099 0
-1372 1116 1356 1100 -1099 0
-1628 1116 1612 1100 -1099 0
-3164 1116 3148 1100 -1099 0
-1099 1131 0
-1132 1099 0
-1259 1131 1227 1099 -1098 0
-1260 1132 1228 1100 -1099 0
-1388 1132 1356 1100 -1099 0
-1644 1132 1612 1100 -1099 0
-3180 1132 3148 1100 -1099 0
-1099 1227 0
-1228 1099 0
-1484 1228 1356 1100 -1099 0
-1740 1228 1612 1100 -1099 0
-3275 1227 3147 1099 -1098 0
-3276 1228 3148 1100 -1099 0
-1099 1355 0
-1356 1099 0
-1868 1356 1612 1100 -1099 0
-3404 1356 3148 1100 -1099 0
-1099 1611 0
-1612 1099 0
-3660 1612 3148 1100 -1099 0
-1099 3147 0
-3148 1099 0
-1120 1103 0
-1104 1120 0
-1248 1120 1232 1104 -1103 0
-1376 1120 1360 1104 -1103 0
-1632 1120 1616 1104 -1103 0
-3168 1120 3152 1104 -1103 0
-1136 1103 0
-1104 1136 0
-1264 1136 1232 1104 -1103 0
-1392 1136 1360 1104 -1103 0
-1648 1136 1616 1104 -1103 0
-1103 1231 0
-1104 1232 0
-1488 1232 1360 1104 -1103 0
-3280 1232 3152 1104 -1103 0
-1103 1359 0
-1360 1103 0
-1104 1360 0
-1872 1360 1616 1104 -1103 0
-3408 1360 3152 1104 -1103 0
-1103 1615 0
-1104 1616 0
-3664 1616 3152 1104 -1103 0
-1103 3151 0
-1104 3152 0
-1107 1111 0
-1112 1107 0
-1120 1112 1116 1108 -1107 0
-1144 1112 1140 1108 -1107 0
-1240 1112 1236 1108 -1107 0
-1368 1112 1364 1108 -1107 0
-1624 1112 1620 1108 -1107 0
-3159 1111 3155 1107 -1106 0
-3160 1112 3156 1108 -1107 0
-1107 1115 0
-1116 1107 0
-1148 1116 1140 1108 -1107 0
-1244 1116 1236 1108 -1107 0
-1372 1116 1364 1108 -1107 0
-1628 1116 1620 1108 -1107 0
-3164 1116 3156 1108 -1107 0
-1107 1139 0
-1140 1107 0
-1267 1139 1235 1107 -1106 0
-1268 1140 1236 1108 -1107 0
-1396 1140 1364 1108 -1107 0
-1652 1140 1620 1108 -1107 0
-3188 1140 3156 1108 -1107 0
-1107 1235 0
-1236 1107 0
-1491 1235 1363 1107 -1106 0
-1492 1236 1364 1108 -1107 0
-1748 1236 1620 1108 -1107 0
-3284 1236 3156 1108 -1107 0
-1107 1363 0
-1364 1107 0
-1876 1364 1620 1108 -1107 0
-3412 1364 3156 1108 -1107 0
-1107 1619 0
-1620 1107 0
-3668 1620 3156 1108 -1107 0
-1107 3155 0
-3156 1107 0
-1120 1111 0
-1112 1120 0
-1248 1120 1240 1112 -1111 0
-1376 1120 1368 1112 -1111 0
-1632 1120 1624 1112 -1111 0
-3168 1120 3160 1112 -1111 0
-1144 1111 0
-1112 1144 0
-1400 1144 1368 1112 -1111 0
-1656 1144 1624 1112 -1111 0
-3192 1144 3160 1112 -1111 0
-1111 1239 0
-1112 1240 0
-1496 1240 1368 1112 -1111 0
-1752 1240 1624 1112 -1111 0
-3288 1240 3160 1112 -1111 0
-1111 1367 0
-1368 1111 0
-1112 1368 0
-1880 1368 1624 1112 -1111 0
-3416 1368 3160 1112 -1111 0
-1111 1623 0
-1624 1111 0
-1112 1624 0
-3672 1624 3160 1112 -1111 0
-1111 3159 0
-3160 1111 0
-1112 3160 0
-1120 1115 0
-1116 1120 0
-1248 1120 1244 1116 -1115 0
-1376 1120 1372 1116 -1115 0
-1632 1120 1628 1116 -1115 0
-3168 1120 3164 1116 -1115 0
-1148 1115 0
-1116 1148 0
-1276 1148 1244 1116 -1115 0
-1404 1148 1372 1116 -1115 0
-1660 1148 1628 1116 -1115 0
-3196 1148 3164 1116 -1115 0
-1244 1115 0
-1116 1244 0
-1500 1244 1372 1116 -1115 0
-3292 1244 3164 1116 -1115 0
-1115 1371 0
-1372 1115 0
-1116 1372 0
-1884 1372 1628 1116 -1115 0
-3420 1372 3164 1116 -1115 0
-1628 1115 0
-1116 1628 0
-3676 1628 3164 1116 -1115 0
-1115 3163 0
-3164 1115 0
-1116 3164 0
-1120 1152 0
-1280 1152 1248 1120 -1119 0
-1408 1152 1376 1120 -1119 0
-3200 1152 3168 1120 -1119 0
-1120 1248 0
-1504 1248 1376 1120 -1119 0
-1760 1248 1632 1120 -1119 0
-3296 1248 3168 1120 -1119 0
-1120 1376 0
-1888 1376 1632 1120 -1119 0
-3424 1376 3168 1120 -1119 0
-1120 1632 0
-3680 1632 3168 1120 -1119 0
-1120 3168 0
-1123 1127 0
-1128 1123 0
-1136 1128 1132 1124 -1123 0
-1144 1128 1140 1124 -1123 0
-1256 1128 1252 1124 -1123 0
-1384 1128 1380 1124 -1123 0
-1640 1128 1636 1124 -1123 0
-3176 1128 3172 1124 -1123 0
-1123 1131 0
-1132 1123 0
-1148 1132 1140 1124 -1123 0
-1260 1132 1252 1124 -1123 0
-1387 1131 1379 1123 -1122 0
-1388 1132 1380 1124 -1123 0
-1644 1132 1636 1124 -1123 0
-3179 1131 3171 1123 -1122 0
-3180 1132 3172 1124 -1123 0
-1123 1139 0
-1140 1123 0
-1267 1139 1251 1123 -1122 0
-1268 1140 1252 1124 -1123 0
-1396 1140 1380 1124 -1123 0
-1652 1140 1636 1124 -1123 0
-3188 1140 3172 1124 -1123 0
-1123 1251 0
-1252 1123 0
-1508 1252 1380 1124 -1123 0
-1764 1252 1636 1124 -1123 0
-3300 1252 3172 1124 -1123 0
-1123 1379 0
-1380 1123 0
-1891 1379 1635 1123 -1122 0
-1892 1380 1636 1124 -1123 0
-3428 1380 3172 1124 -1123 0
-1123 1635 0
-1636 1123 0
-3684 1636 3172 1124 -1123 0
-1123 3171 0
-3172 1123 0
-1136 1127 0
-1128 1136 0
-1264 1136 1256 1128 -1127 0
-1392 1136 1384 1128 -1127 0
-1144 1127 0
-1128 1144 0
-1272 1144 1256 1128 -1127 0
-1400 1144 1384 1128 -1127 0
-1656 1144 1640 1128 -1127 0
-3192 1144 3176 1128 -1127 0
-1127 1255 0
-1128 1256 0
-1512 1256 1384 1128 -1127 0
-1768 1256 1640 1128 -1127 0
-3304 1256 3176 1128 -1127 0
-1127 1383 0
-1128 1384 0
-1896 1384 1640 1128 -1127 0
-3432 1384 3176 1128 -1127 0
-1127 1639 0
-1128 1640 0
-3688 1640 3176 1128 -1127 0
-1127 3175 0
-1128 3176 0
-1136 1131 0
-1132 1136 0
-1264 1136 1260 1132 -1131 0
-1392 1136 1388 1132 -1131 0
-1648 1136 1644 1132 -1131 0
-1148 1131 0
-1132 1148 0
-1276 1148 1260 1132 -1131 0
-1404 1148 1388 1132 -1131 0
-1660 1148 1644 1132 -1131 0
-3196 1148 3180 1132 -1131 0
-1131 1259 0
-1260 1131 0
-1132 1260 0
-1516 1260 1388 1132 -1131 0
-1772 1260 1644 1132 -1131 0
-3308 1260 3180 1132 -1131 0
-1131 1387 0
-1388 1131 0
-1132 1388 0
-1900 1388 1644 1132 -1131 0
-3436 1388 3180 1132 -1131 0
-1131 1643 0
-1644 1131 0
-1132 1644 0
-3692 1644 3180 1132 -1131 0
-1131 3179 0
-3180 1131 0
-1132 3180 0
-1136 1152 0
-1664 1152 1648 1136 -1135 0
-1136 1264 0
-1520 1264 1392 1136 -1135 0
-3312 1264 3184 1136 -1135 0
-1136 1392 0
-1904 1392 1648 1136 -1135 0
-3440 1392 3184 1136 -1135 0
-1136 1648 0
-3696 1648 3184 1136 -1135 0
-1136 3184 0
-1144 1139 0
-1140 1144 0
-1272 1144 1268 1140 -1139 0
-1400 1144 1396 1140 -1139 0
-1656 1144 1652 1140 -1139 0
-3192 1144 3188 1140 -1139 0
-1148 1139 0
-1140 1148 0
-1276 1148 1268 1140 -1139 0
-1404 1148 1396 1140 -1139 0
-3196 1148 3188 1140 -1139 0
-1139 1267 0
-1268 1139 0
-1140 1268 0
-1523 1267 1395 1139 -1138 0
-1524 1268 1396 1140 -1139 0
-1780 1268 1652 1140 -1139 0
-3316 1268 3188 1140 -1139 0
-1139 1395 0
-1396 1139 0
-1140 1396 0
-1908 1396 1652 1140 -1139 0
-3444 1396 3188 1140 -1139 0
-1139 1651 0
-1140 1652 0
-3700 1652 3188 1140 -1139 0
-1139 3187 0
-1140 3188 0
-1144 1152 0
-1408 1152 1400 1144 -1143 0
-1664 1152 1656 1144 -1143 0
-3200 1152 3192 1144 -1143 0
-1144 1272 0
-1528 1272 1400 1144 -1143 0
-3320 1272 3192 1144 -1143 0
-1144 1400 0
-1912 1400 1656 1144 -1143 0
-3448 1400 3192 1144 -1143 0
-1144 1656 0
-3704 1656 3192 1144 -1143 0
-1144 3192 0
-1148 1152 0
-1280 1152 1276 1148 -1147 0
-1408 1152 1404 1148 -1147 0
-1664 1152 1660 1148 -1147 0
-3200 1152 3196 1148 -1147 0
-1148 1276 0
-1532 1276 1404 1148 -1147 0
-3324 1276 3196 1148 -1147 0
-1148 1404 0
-3452 1404 3196 1148 -1147 0
-1148 1660 0
-3708 1660 3196 1148 -1147 0
-1148 3196 0
-1152 1280 0
-1536 1280 1408 1152 -1151 0
-1792 1280 1664 1152 -1151 0
-3328 1280 3200 1152 -1151 0
-1152 1408 0
-1920 1408 1664 1152 -1151 0
-3456 1408 3200 1152 -1151 0
-3712 1664 3200 1152 -1151 0
-1152 3200 0
-1159 1154 0
-1167 1159 1163 1155 -1154 0
-1175 1159 1171 1155 -1154 0
-1191 1159 1187 1155 -1154 0
-1223 1159 1219 1155 -1154 0
-1415 1159 1411 1155 -1154 0
-1671 1159 1667 1155 -1154 0
-3207 1159 3203 1155 -1154 0
-1163 1154 0
-1179 1163 1171 1155 -1154 0
-1195 1163 1187 1155 -1154 0
-1227 1163 1219 1155 -1154 0
-1419 1163 1411 1155 -1154 0
-1675 1163 1667 1155 -1154 0
-3211 1163 3203 1155 -1154 0
-1171 1154 0
-1203 1171 1187 1155 -1154 0
-1235 1171 1219 1155 -1154 0
-1427 1171 1411 1155 -1154 0
-1683 1171 1667 1155 -1154 0
-3219 1171 3203 1155 -1154 0
-1187 1154 0
-1251 1187 1219 1155 -1154 0
-1443 1187 1411 1155 -1154 0
-1699 1187 1667 1155 -1154 0
-3235 1187 3203 1155 -1154 0
-1219 1154 0
-1475 1219 1411 1155 -1154 0
-1731 1219 1667 1155 -1154 0
-3267 1219 3203 1155 -1154 0
-1411 1154 0
-1923 1411 1667 1155 -1154 0
-3459 1411 3203 1155 -1154 0
-1667 1154 0
-3715 1667 3203 1155 -1154 0
-3203 1154 0
-1159 1167 0
-1168 1159 0
-1184 1168 1176 1160 -1159 0
-1200 1168 1192 1160 -1159 0
-1231 1167 1223 1159 -1158 0
-1232 1168 1224 1160 -1159 0
-1423 1167 1415 1159 -1158 0
-1424 1168 1416 1160 -1159 0
-1679 1167 1671 1159 -1158 0
-1680 1168 1672 1160 -1159 0
-3216 1168 3208 1160 -1159 0
-1159 1175 0
-1176 1159 0
-1208 1176 1192 1160 -1159 0
-1240 1176 1224 1160 -1159 0
-1432 1176 1416 1160 -1159 0
-1688 1176 1672 1160 -1159 0
-3224 1176 3208 1160 -1159 0
-1159 1191 0
-1192 1159 0
-1256 1192 1224 1160 -1159 0
-1448 1192 1416 1160 -1159 0
-1704 1192 1672 1160 -1159 0
-3240 1192 3208 1160 -1159 0
-1159 1223 0
-1224 1159 0
-1479 1223 1415 1159 -1158 0
-1480 1224 1416 1160 -1159 0
-1735 1223 1671 1159 -1158 0
-1736 1224 1672 1160 -1159 0
-3271 1223 3207 1159 -1158 0
-3272 1224 3208 1160 -1159 0
-1159 1415 0
-1416 1159 0
-1927 1415 1671 1159 -1158 0
-1928 1416 1672 1160 -1159 0
-3463 1415 3207 1159 -1158 0
-3464 1416 3208 1160 -1159 0
-1159 1671 0
-1672 1159 0
-3720 1672 3208 1160 -1159 0
-1159 3207 0
-3208 1159 0
-1163 1167 0
-1168 1163 0
-1184 1168 1180 1164 -1163 0
-1200 1168 1196 1164 -1163 0
-1231 1167 1227 1163 -1162 0
-1232 1168 1228 1164 -1163 0
-1423 1167 1419 1163 -1162 0
-1424 1168 1420 1164 -1163 0
-1680 1168 1676 1164 -1163 0
-3216 1168 3212 1164 -1163 0
-1163 1179 0
-1180 1163 0
-1212 1180 1196 1164 -1163 0
-1243 1179 1227 1163 -1162 0
-1244 1180 1228 1164 -1163 0
-1435 1179 1419 1163 -1162 0
-1436 1180 1420 1164 -1163 0
-1691 1179 1675 1163 -1162 0
-1692 1180 1676 1164 -1163 0
-3227 1179 3211 1163 -1162 0
-3228 1180 3212 1164 -1163 0
-1163 1195 0
-1196 1163 0
-1260 1196 1228 1164 -1163 0
-1452 1196 1420 1164 -1163 0
-1708 1196 1676 1164 -1163 0
-3244 1196 3212 1164 -1163 0
-1163 1227 0
-1228 1163 0
-1483 1227 1419 1163 -1162 0
-1484 1228 1420 1164 -1163 0
-1739 1227 1675 1163 -1162 0
-1740 1228 1676 1164 -1163 0
-3276 1228 3212 1164 -1163 0
-1163 1419 0
-1420 1163 0
-1931 1419 1675 1163 -1162 0
-1932 1420 1676 1164 -1163 0
-3467 1419 3211 1163 -1162 0
-3468 1420 3212 1164 -1163 0
-1163 1675 0
-1676 1163 0
-3724 1676 3212 1164 -1163 0
-1163 3211 0
-3212 1163 0
-1184 1167 0
-1168 1184 0
-1440 1184 1424 1168 -1167 0
-3232 1184 3216 1168 -1167 0
-1200 1167 0
-1168 1200 0
-1264 1200 1232 1168 -1167 0
-1456 1200 1424 1168 -1167 0
-1712 1200 1680 1168 -1167 0
-3248 1200 3216 1168 -1167 0
-1167 1231 0
-1232 1167 0
-1168 1232 0
-1488 1232 1424 1168 -1167 0
-1744 1232 1680 1168 -1167 0
-3280 1232 3216 1168 -1167 0
-1167 1423 0
-1424 1167 0
-1168 1424 0
-1936 1424 1680 1168 -1167 0
-3472 1424 3216 1168 -1167 0
-1167 1679 0
-1680 1167 0
-1168 1680 0
-3728 1680 3216 1168 -1167 0
-1167 3215 0
-1168 3216 0
-1171 1175 0
-1176 1171 0
-1184 1176 1180 1172 -1171 0
-1208 1176 1204 1172 -1171 0
-1239 1175 1235 1171 -1170 0
-1240 1176 1236 1172 -1171 0
-1432 1176 1428 1172 -1171 0
-1688 1176 1684 1172 -1171 0
-3224 1176 3220 1172 -1171 0
-1171 1179 0
-1180 1171 0
-1212 1180 1204 1172 -1171 0
-1243 1179 1235 1171 -1170 0
-1244 1180 1236 1172 -1171 0
-1435 1179 1427 1171 -1170 0
-1436 1180 1428 1172 -1171 0
-1692 1180 1684 1172 -1171 0
-3228 1180 3220 1172 -1171 0
-1171 1203 0
-1204 1171 0
-1267 1203 1235 1171 -1170 0
-1268 1204 1236 1172 -1171 0
-1460 1204 1428 1172 -1171 0
-1715 1203 1683 1171 -1170 0
-1716 1204 1684 1172 -1171 0
-3252 1204 3220 1172 -1171 0
-1171 1235 0
-1236 1171 0
-1492 1236 1428 1172 -1171 0
-1747 1235 1683 1171 -1170 0
-1748 1236 1684 1172 -1171 0
-3284 1236 3220 1172 -1171 0
-1171 1427 0
-1428 1171 0
-1940 1428 1684 1172 -1171 0
-3476 1428 3220 1172 -1171 0
-1171 1683 0
-1684 1171 0
-3732 1684 3220 1172 -1171 0
-1171 3219 0
-3220 1171 0
-1184 1175 0
-1176 1184 0
-1216 1184 1208 1176 -1175 0
-1248 1184 1240 1176 -1175 0
-1440 1184 1432 1176 -1175 0
-1696 1184 1688 1176 -1175 0
-3232 1184 3224 1176 -1175 0
-1208 1175 0
-1176 1208 0
-1272 1208 1240 1176 -1175 0
-1464 1208 1432 1176 -1175 0
-1720 1208 1688 1176 -1175 0
-3256 1208 3224 1176 -1175 0
-1175 1239 0
-1240 1175 0
-1176 1240 0
-1496 1240 1432 1176 -1175 0
-1752 1240 1688 1176 -1175 0
-3288 1240 3224 1176 -1175 0
-1175 1431 0
-1176 1432 0
-1944 1432 1688 1176 -1175 0
-3480 1432 3224 1176 -1175 0
-1175 1687 0
-1688 1175 0
-1176 1688 0
-3736 1688 3224 1176 -1175 0
-1175 3223 0
-3224 1175 0
-1176 3224 0
-1184 1179 0
-1180 1184 0
-1248 1184 1244 1180 -1179 0
-1440 1184 1436 1180 -1179 0
-1696 1184 1692 1180 -1179 0
-3232 1184 3228 1180 -1179 0
-1180 1212 0
-1276 1212 1244 1180 -1179 0
-1468 1212 1436 1180 -1179 0
-1724 1212 1692 1180 -1179 0
-3260 1212 3228 1180 -1179 0
-1179 1243 0
-1244 1179 0
-1180 1244 0
-1500 1244 1436 1180 -1179 0
-1756 1244 1692 1180 -1179 0
-3292 1244 3228 1180 -1179 0
-1179 1435 0
-1436 1179 0
-1180 1436 0
-1947 1435 1691 1179 -1178 0
-1948 1436 1692 1180 -1179 0
-3484 1436 3228 1180 -1179 0
-1179 1691 0
-1692 1179 0
-1180 1692 0
-3740 1692 3228 1180 -1179 0
-1179 3227 0
-3228 1179 0
-1180 3228 0
-1184 1216 0
-1280 1216 1248 1184 -1183 0
-1472 1216 1440 1184 -1183 0
-3264 1216 3232 1184 -1183 0
-1184 1248 0
-1184 1440 0
-1952 1440 1696 1184 -1183 0
-3488 1440 3232 1184 -1183 0
-1184 1696 0
-3744 1696 3232 1184 -1183 0
-1184 3232 0
-1187 1191 0
-1192 1187 0
-1200 1192 1196 1188 -1187 0
-1208 1192 1204 1188 -1187 0
-1256 1192 1252 1188 -1187 0
-1447 1191 1443 1187 -1186 0
-1448 1192 1444 1188 -1187 0
-1704 1192 1700 1188 -1187 0
-3240 1192 3236 1188 -1187 0
-1187 1195 0
-1196 1187 0
-1212 1196 1204 1188 -1187 0
-1259 1195 1251 1187 -1186 0
-1260 1196 1252 1188 -1187 0
-1452 1196 1444 1188 -1187 0
-1708 1196 1700 1188 -1187 0
-3244 1196 3236 1188 -1187 0
-1187 1203 0
-1204 1187 0
-1268 1204 1252 1188 -1187 0
-1460 1204 1444 1188 -1187 0
-1716 1204 1700 1188 -1187 0
-3252 1204 3236 1188 -1187 0
-1187 1251 0
-1252 1187 0
-1508 1252 1444 1188 -1187 0
-1764 1252 1700 1188 -1187 0
-3300 1252 3236 1188 -1187 0
-1187 1443 0
-1444 1187 0
-1956 1444 1700 1188 -1187 0
-3492 1444 3236 1188 -1187 0
-1187 1699 0
-1700 1187 0
-3748 1700 3236 1188 -1187 0
-1187 3235 0
-3236 1187 0
-1200 1191 0
-1192 1200 0
-1216 1200 1208 1192 -1191 0
-1456 1200 1448 1192 -1191 0
-1712 1200 1704 1192 -1191 0
-3248 1200 3240 1192 -1191 0
-1208 1191 0
-1192 1208 0
-1272 1208 1256 1192 -1191 0
-1464 1208 1448 1192 -1191 0
-1720 1208 1704 1192 -1191 0
-3256 1208 3240 1192 -1191 0
-1191 1255 0
-1256 1191 0
-1192 1256 0
-3304 1256 3240 1192 -1191 0
-1191 1447 0
-1192 1448 0
-1960 1448 1704 1192 -1191 0
-3496 1448 3240 1192 -1191 0
-1192 1704 0
-1191 3239 0
-1192 3240 0
-1200 1195 0
-1196 1200 0
-1264 1200 1260 1196 -1195 0
-1456 1200 1452 1196 -1195 0
-1712 1200 1708 1196 -1195 0
-3248 1200 3244 1196 -1195 0
-1212 1195 0
-1196 1212 0
-1276 1212 1260 1196 -1195 0
-1468 1212 1452 1196 -1195 0
-1724 1212 1708 1196 -1195 0
-3260 1212 3244 1196 -1195 0
-1195 1259 0
-1260 1195 0
-1196 1260 0
-1516 1260 1452 1196 -1195 0
-1772 1260 1708 1196 -1195 0
-3308 1260 3244 1196 -1195 0
-1195 1451 0
-1452 1195 0
-1196 1452 0
-1964 1452 1708 1196 -1195 0
-3500 1452 3244 1196 -1195 0
-1195 1707 0
-1708 1195 0
-1196 1708 0
-3756 1708 3244 1196 -1195 0
-1195 3243 0
-3244 1195 0
-1196 3244 0
-1200 1216 0
-1280 1216 1264 1200 -1199 0
-1728 1216 1712 1200 -1199 0
-3264 1216 3248 1200 -1199 0
-1200 1264 0
-1520 1264 1456 1200 -1199 0
-3312 1264 3248 1200 -1199 0
-1200 1456 0
-1968 1456 1712 1200 -1199 0
-3504 1456 3248 1200 -1199 0
-1200 1712 0
-1200 3248 0
-1208 1203 0
-1204 1208 0
-1216 1208 1212 1204 -1203 0
-1272 1208 1268 1204 -1203 0
-1464 1208 1460 1204 -1203 0
-1720 1208 1716 1204 -1203 0
-3256 1208 3252 1204 -1203 0
-1212 1203 0
-1204 1212 0
-1276 1212 1268 1204 -1203 0
-1468 1212 1460 1204 -1203 0
-1724 1212 1716 1204 -1203 0
-3260 1212 3252 1204 -1203 0
-1203 1267 0
-1268 1203 0
-1204 1268 0
-1523 1267 1459 1203 -1202 0
-1524 1268 1460 1204 -1203 0
-1780 1268 1716 1204 -1203 0
-3316 1268 3252 1204 -1203 0
-1203 1459 0
-1460 1203 0
-1204 1460 0
-1971 1459 1715 1203 -1202 0
-1972 1460 1716 1204 -1203 0
-3508 1460 3252 1204 -1203 0
-1203 1715 0
-1204 1716 0
-3764 1716 3252 1204 -1203 0
-1203 3251 0
-3252 1203 0
-1204 3252 0
-1208 1216 0
-1280 1216 1272 1208 -1207 0
-1472 1216 1464 1208 -1207 0
-1728 1216 1720 1208 -1207 0
-3264 1216 3256 1208 -1207 0
-1208 1272 0
-1528 1272 1464 1208 -1207 0
-1784 1272 1720 1208 -1207 0
-1208 1464 0
-1976 1464 1720 1208 -1207 0
-3512 1464 3256 1208 -1207 0
-1208 1720 0
-3768 1720 3256 1208 -1207 0
-1208 3256 0
-1212 1216 0
-1472 1216 1468 1212 -1211 0
-1728 1216 1724 1212 -1211 0
-3264 1216 3260 1212 -1211 0
-1212 1276 0
-1788 1276 1724 1212 -1211 0
-3324 1276 3260 1212 -1211 0
-1212 1468 0
-1212 1724 0
-3772 1724 3260 1212 -1211 0
-1212 3260 0
-1216 1280 0
-1536 1280 1472 1216 -1215 0
-1792 1280 1728 1216 -1215 0
-3328 1280 3264 1216 -1215 0
-1216 1472 0
-1984 1472 1728 1216 -1215 0
-3520 1472 3264 1216 -1215 0
-1216 1728 0
-3776 1728 3264 1216 -1215 0
-1216 3264 0
-1219 1223 0
-1224 1219 0
-1231 1223 1227 1219 -1218 0
-1232 1224 1228 1220 -1219 0
-1239 1223 1235 1219 -1218 0
-1240 1224 1236 1220 -1219 0
-1255 1223 1251 1219 -1218 0
-1256 1224 1252 1220 -1219 0
-1479 1223 1475 1219 -1218 0
-1480 1224 1476 1220 -1219 0
-1735 1223 1731 1219 -1218 0
-1736 1224 1732 1220 -1219 0
-3271 1223 3267 1219 -1218 0
-3272 1224 3268 1220 -1219 0
-1219 1227 0
-1228 1219 0
-1243 1227 1235 1219 -1218 0
-1244 1228 1236 1220 -1219 0
-1259 1227 1251 1219 -1218 0
-1260 1228 1252 1220 -1219 0
-1483 1227 1475 1219 -1218 0
-1484 1228 1476 1220 -1219 0
-1740 1228 1732 1220 -1219 0
-3275 1227 3267 1219 -1218 0
-3276 1228 3268 1220 -1219 0
-1219 1235 0
-1236 1219 0
-1267 1235 1251 1219 -1218 0
-1268 1236 1252 1220 -1219 0
-1491 1235 1475 1219 -1218 0
-1492 1236 1476 1220 -1219 0
-1747 1235 1731 1219 -1218 0
-1748 1236 1732 1220 -1219 0
-3283 1235 3267 1219 -1218 0
-3284 1236 3268 1220 -1219 0
-1219 1251 0
-1252 1219 0
-1507 1251 1475 1219 -1218 0
-1508 1252 1476 1220 -1219 0
-1763 1251 1731 1219 -1218 0
-1764 1252 1732 1220 -1219 0
-3299 1251 3267 1219 -1218 0
-3300 1252 3268 1220 -1219 0
-1219 1475 0
-1476 1219 0
-1987 1475 1731 1219 -1218 0
-1988 1476 1732 1220 -1219 0
-3523 1475 3267 1219 -1218 0
-3524 1476 3268 1220 -1219 0
-1219 1731 0
-1732 1219 0
-3779 1731 3267 1219 -1218 0
-3780 1732 3268 1220 -1219 0
-1219 3267 0
-3268 1219 0
-1223 1231 0
-1232 1223 0
-1224 1232 0
-1487 1231 1479 1223 -1222 0
-1488 1232 1480 1224 -1223 0
-1744 1232 1736 1224 -1223 0
-3280 1232 3272 1224 -1223 0
-1223 1239 0
-1240 1223 0
-1224 1240 0
-1496 1240 1480 1224 -1223 0
-1752 1240 1736 1224 -1223 0
-3288 1240 3272 1224 -1223 0
-1256 1223 0
-1224 1256 0
-1512 1256 1480 1224 -1223 0
-1768 1256 1736 1224 -1223 0
-3303 1255 3271 1223 -1222 0
-3304 1256 3272 1224 -1223 0
-1223 1479 0
-1480 1223 0
-1224 1480 0
-1992 1480 1736 1224 -1223 0
-3528 1480 3272 1224 -1223 0
-1223 1735 0
-1736 1223 0
-1224 1736 0
-3784 1736 3272 1224 -1223 0
-1223 3271 0
-3272 1223 0
-1224 3272 0
-1227 1231 0
-1228 1232 0
-1264 1232 1260 1228 -1227 0
-1488 1232 1484 1228 -1227 0
-1743 1231 1739 1227 -1226 0
-1744 1232 1740 1228 -1227 0
-3279 1231 3275 1227 -1226 0
-3280 1232 3276 1228 -1227 0
-1227 1243 0
-1244 1227 0
-1228 1244 0
-1500 1244 1484 1228 -1227 0
-1756 1244 1740 1228 -1227 0
-3292 1244 3276 1228 -1227 0
-1227 1259 0
-1260 1227 0
-1228 1260 0
-1516 1260 1484 1228 -1227 0
-1772 1260 1740 1228 -1227 0
-1227 1483 0
-1484 1227 0
-1228 1484 0
-1996 1484 1740 1228 -1227 0
-3532 1484 3276 1228 -1227 0
-1227 1739 0
-1740 1227 0
-1228 1740 0
-3788 1740 3276 1228 -1227 0
-1227 3275 0
-1228 3276 0
-1248 1231 0
-1232 1248 0
-1504 1248 1488 1232 -1231 0
-3296 1248 3280 1232 -1231 0
-1264 1231 0
-1232 1264 0
-1520 1264 1488 1232 -1231 0
-1776 1264 1744 1232 -1231 0
-3312 1264 3280 1232 -1231 0
-1488 1231 0
-1232 1488 0
-2000 1488 1744 1232 -1231 0
-3536 1488 3280 1232 -1231 0
-1232 1744 0
-3792 1744 3280 1232 -1231 0
-1232 3280 0
-1235 1239 0
-1240 1235 0
-1236 1240 0
-1248 1240 1244 1236 -1235 0
-1496 1240 1492 1236 -1235 0
-3288 1240 3284 1236 -1235 0
-1244 1235 0
-1236 1244 0
-1500 1244 1492 1236 -1235 0
-1756 1244 1748 1236 -1235 0
-3292 1244 3284 1236 -1235 0
-1268 1235 0
-1236 1268 0
-1523 1267 1491 1235 -1234 0
-1524 1268 1492 1236 -1235 0
-1780 1268 1748 1236 -1235 0
-1235 1491 0
-1492 1235 0
-1236 1492 0
-2004 1492 1748 1236 -1235 0
-3540 1492 3284 1236 -1235 0
-1235 1747 0
-1236 1748 0
-3796 1748 3284 1236 -1235 0
-1235 3283 0
-1236 3284 0
-1240 1248 0
-1504 1248 1496 1240 -1239 0
-1760 1248 1752 1240 -1239 0
-3296 1248 3288 1240 -1239 0
-1272 1239 0
-1240 1272 0
-3320 1272 3288 1240 -1239 0
-1240 1496 0
-3544 1496 3288 1240 -1239 0
-1752 1239 0
-1240 1752 0
-3800 1752 3288 1240 -1239 0
-1240 3288 0
-1248 1243 0
-1244 1248 0
-3296 1248 3292 1244 -1243 0
-1244 1276 0
-1532 1276 1500 1244 -1243 0
-1244 1500 0
-3548 1500 3292 1244 -1243 0
-1244 1756 0
-1244 3292 0
-1248 1280 0
-1536 1280 1504 1248 -1247 0
-3328 1280 3296 1248 -1247 0
-1248 1504 0
-1248 1760 0
-1248 3296 0
-1256 1251 0
-1252 1256 0
-1512 1256 1508 1252 -1251 0
-1768 1256 1764 1252 -1251 0
-3304 1256 3300 1252 -1251 0
-1260 1251 0
-1252 1260 0
-1516 1260 1508 1252 -1251 0
-1772 1260 1764 1252 -1251 0
-3308 1260 3300 1252 -1251 0
-1268 1251 0
-1252 1268 0
-1524 1268 1508 1252 -1251 0
-1780 1268 1764 1252 -1251 0
-3315 1267 3299 1251 -1250 0
-3316 1268 3300 1252 -1251 0
-1251 1507 0
-1252 1508 0
-2020 1508 1764 1252 -1251 0
-3556 1508 3300 1252 -1251 0
-1252 1764 0
-3812 1764 3300 1252 -1251 0
-1251 3299 0
-1252 3300 0
-1256 1264 0
-1520 1264 1512 1256 -1255 0
-3312 1264 3304 1256 -1255 0
-1256 1272 0
-1256 1512 0
-1256 1768 0
-1256 3304 0
-1264 1259 0
-1260 1264 0
-1520 1264 1516 1260 -1259 0
-1276 1259 0
-1260 1276 0
-1532 1276 1516 1260 -1259 0
-1516 1259 0
-1260 1516 0
-2028 1516 1772 1260 -1259 0
-3564 1516 3308 1260 -1259 0
-1260 1772 0
-3820 1772 3308 1260 -1259 0
-1260 3308 0
-1264 1280 0
-1536 1280 1520 1264 -1263 0
-3328 1280 3312 1264 -1263 0
-1264 1520 0
-1264 3312 0
-1272 1267 0
-3320 1272 3316 1268 -1267 0
-1276 1267 0
-1788 1276 1780 1268 -1267 0
-3324 1276 3316 1268 -1267 0
-1268 1524 0
-2036 1524 1780 1268 -1267 0
-3572 1524 3316 1268 -1267 0
-1268 1780 0
-3828 1780 3316 1268 -1267 0
-1268 3316 0
-1272 1280 0
-3328 1280 3320 1272 -1271 0
-1272 1528 0
-1272 1784 0
-1272 3320 0
-1276 1280 0
-3328 1280 3324 1276 -1275 0
-1276 1788 0
-1276 3324 0
-1287 1282 0
-1295 1287 1291 1283 -1282 0
-1303 1287 1299 1283 -1282 0
-1319 1287 1315 1283 -1282 0
-1351 1287 1347 1283 -1282 0
-1415 1287 1411 1283 -1282 0
-1799 1287 1795 1283 -1282 0
-3335 1287 3331 1283 -1282 0
-1291 1282 0
-1307 1291 1299 1283 -1282 0
-1323 1291 1315 1283 -1282 0
-1355 1291 1347 1283 -1282 0
-1419 1291 1411 1283 -1282 0
-1803 1291 1795 1283 -1282 0
-3339 1291 3331 1283 -1282 0
-1299 1282 0
-1331 1299 1315 1283 -1282 0
-1363 1299 1347 1283 -1282 0
-1427 1299 1411 1283 -1282 0
-1811 1299 1795 1283 -1282 0
-3347 1299 3331 1283 -1282 0
-1315 1282 0
-1379 1315 1347 1283 -1282 0
-1443 1315 1411 1283 -1282 0
-1827 1315 1795 1283 -1282 0
-3363 1315 3331 1283 -1282 0
-1347 1282 0
-1475 1347 1411 1283 -1282 0
-1859 1347 1795 1283 -1282 0
-3395 1347 3331 1283 -1282 0
-1411 1282 0
-1923 1411 1795 1283 -1282 0
-3459 1411 3331 1283 -1282 0
-1795 1282 0
-3843 1795 3331 1283 -1282 0
-3331 1282 0
-1287 1295 0
-1296 1287 0
-1312 1296 1304 1288 -1287 0
-1328 1296 1320 1288 -1287 0
-1360 1296 1352 1288 -1287 0
-1423 1295 1415 1287 -1286 0
-1424 1296 1416 1288 -1287 0
-1808 1296 1800 1288 -1287 0
-3344 1296 3336 1288 -1287 0
-1287 1303 0
-1304 1287 0
-1336 1304 1320 1288 -1287 0
-1367 1303 1351 1287 -1286 0
-1368 1304 1352 1288 -1287 0
-1431 1303 1415 1287 -1286 0
-1432 1304 1416 1288 -1287 0
-1816 1304 1800 1288 -1287 0
-3352 1304 3336 1288 -1287 0
-1287 1319 0
-1320 1287 0
-1383 1319 1351 1287 -1286 0
-1384 1320 1352 1288 -1287 0
-1447 1319 1415 1287 -1286 0
-1448 1320 1416 1288 -1287 0
-1832 1320 1800 1288 -1287 0
-3368 1320 3336 1288 -1287 0
-1287 1351 0
-1352 1287 0
-1479 1351 1415 1287 -1286 0
-1480 1352 1416 1288 -1287 0
-1863 1351 1799 1287 -1286 0
-1864 1352 1800 1288 -1287 0
-3399 1351 3335 1287 -1286 0
-3400 1352 3336 1288 -1287 0
-1287 1415 0
-1416 1287 0
-1928 1416 1800 1288 -1287 0
-3463 1415 3335 1287 -1286 0
-3464 1416 3336 1288 -1287 0
-1287 1799 0
-1800 1287 0
-3847 1799 3335 1287 -1286 0
-3848 1800 3336 1288 -1287 0
-1287 3335 0
-3336 1287 0
-1291 1295 0
-1296 1291 0
-1312 1296 1308 1292 -1291 0
-1328 1296 1324 1292 -1291 0
-1360 1296 1356 1292 -1291 0
-1423 1295 1419 1291 -1290 0
-1424 1296 1420 1292 -1291 0
-1808 1296 1804 1292 -1291 0
-3344 1296 3340 1292 -1291 0
-1291 1307 0
-1308 1291 0
-1340 1308 1324 1292 -1291 0
-1372 1308 1356 1292 -1291 0
-1436 1308 1420 1292 -1291 0
-1819 1307 1803 1291 -1290 0
-1820 1308 1804 1292 -1291 0
-3356 1308 3340 1292 -1291 0
-1291 1323 0
-1324 1291 0
-1388 1324 1356 1292 -1291 0
-1452 1324 1420 1292 -1291 0
-1836 1324 1804 1292 -1291 0
-3371 1323 3339 1291 -1290 0
-3372 1324 3340 1292 -1291 0
-1291 1355 0
-1356 1291 0
-1484 1356 1420 1292 -1291 0
-1868 1356 1804 1292 -1291 0
-3403 1355 3339 1291 -1290 0
-3404 1356 3340 1292 -1291 0
-1291 1419 0
-1420 1291 0
-1931 1419 1803 1291 -1290 0
-1932 1420 1804 1292 -1291 0
-3468 1420 3340 1292 -1291 0
-1291 1803 0
-1804 1291 0
-3851 1803 3339 1291 -1290 0
-3852 1804 3340 1292 -1291 0
-1291 3339 0
-3340 1291 0
-1312 1295 0
-1296 1312 0
-1376 1312 1360 1296 -1295 0
-1440 1312 1424 1296 -1295 0
-1824 1312 1808 1296 -1295 0
-3360 1312 3344 1296 -1295 0
-1328 1295 0
-1296 1328 0
-1392 1328 1360 1296 -1295 0
-1456 1328 1424 1296 -1295 0
-1840 1328 1808 1296 -1295 0
-3376 1328 3344 1296 -1295 0
-1295 1359 0
-1360 1295 0
-1296 1360 0
-1488 1360 1424 1296 -1295 0
-1872 1360 1808 1296 -1295 0
-3408 1360 3344 1296 -1295 0
-1295 1423 0
-1424 1295 0
-1296 1424 0
-1936 1424 1808 1296 -1295 0
-3472 1424 3344 1296 -1295 0
-1295 1807 0
-1808 1295 0
-1296 1808 0
-3856 1808 3344 1296 -1295 0
-1295 3343 0
-3344 1295 0
-1296 3344 0
-1299 1303 0
-1304 1299 0
-1312 1304 1308 1300 -1299 0
-1336 1304 1332 1300 -1299 0
-1367 1303 1363 1299 -1298 0
-1368 1304 1364 1300 -1299 0
-1431 1303 1427 1299 -1298 0
-1432 1304 1428 1300 -1299 0
-1816 1304 1812 1300 -1299 0
-3351 1303 3347 1299 -1298 0
-3352 1304 3348 1300 -1299 0
-1299 1307 0
-1308 1299 0
-1340 1308 1332 1300 -1299 0
-1371 1307 1363 1299 -1298 0
-1372 1308 1364 1300 -1299 0
-1436 1308 1428 1300 -1299 0
-1820 1308 1812 1300 -1299 0
-3355 1307 3347 1299 -1298 0
-3356 1308 3348 1300 -1299 0
-1299 1331 0
-1332 1299 0
-1396 1332 1364 1300 -1299 0
-1460 1332 1428 1300 -1299 0
-1844 1332 1812 1300 -1299 0
-3380 1332 3348 1300 -1299 0
-1299 1363 0
-1364 1299 0
-1491 1363 1427 1299 -1298 0
-1492 1364 1428 1300 -1299 0
-1876 1364 1812 1300 -1299 0
-3412 1364 3348 1300 -1299 0
-1299 1427 0
-1428 1299 0
-1939 1427 1811 1299 -1298 0
-1940 1428 1812 1300 -1299 0
-3476 1428 3348 1300 -1299 0
-1299 1811 0
-1812 1299 0
-3860 1812 3348 1300 -1299 0
-1299 3347 0
-3348 1299 0
-1312 1303 0
-1304 1312 0
-1376 1312 1368 1304 -1303 0
-1440 1312 1432 1304 -1303 0
-1824 1312 1816 1304 -1303 0
-3360 1312 3352 1304 -1303 0
-1336 1303 0
-1304 1336 0
-1400 1336 1368 1304 -1303 0
-1464 1336 1432 1304 -1303 0
-1848 1336 1816 1304 -1303 0
-3384 1336 3352 1304 -1303 0
-1303 1367 0
-1304 1368 0
-1496 1368 1432 1304 -1303 0
-1880 1368 1816 1304 -1303 0
-3416 1368 3352 1304 -1303 0
-1303 1431 0
-1432 1303 0
-1304 1432 0
-1944 1432 1816 1304 -1303 0
-3480 1432 3352 1304 -1303 0
-1303 1815 0
-1816 1303 0
-1304 1816 0
-3864 1816 3352 1304 -1303 0
-1303 3351 0
-3352 1303 0
-1304 3352 0
-1312 1307 0
-1308 1312 0
-1376 1312 1372 1308 -1307 0
-1440 1312 1436 1308 -1307 0
-1824 1312 1820 1308 -1307 0
-3360 1312 3356 1308 -1307 0
-1340 1307 0
-1308 1340 0
-1404 1340 1372 1308 -1307 0
-1468 1340 1436 1308 -1307 0
-1852 1340 1820 1308 -1307 0
-3388 1340 3356 1308 -1307 0
-1308 1372 0
-1500 1372 1436 1308 -1307 0
-1884 1372 1820 1308 -1307 0
-3420 1372 3356 1308 -1307 0
-1307 1435 0
-1436 1307 0
-1308 1436 0
-1948 1436 1820 1308 -1307 0
-3484 1436 3356 1308 -1307 0
-1308 1820 0
-3868 1820 3356 1308 -1307 0
-1307 3355 0
-1308 3356 0
-1312 1344 0
-1408 1344 1376 1312 -1311 0
-1472 1344 1440 1312 -1311 0
-1856 1344 1824 1312 -1311 0
-3392 1344 3360 1312 -1311 0
-1312 1376 0
-1504 1376 1440 1312 -1311 0
-3424 1376 3360 1312 -1311 0
-1312 1440 0
-3488 1440 3360 1312 -1311 0
-1312 1824 0
-1312 3360 0
-1315 1319 0
-1320 1315 0
-1328 1320 1324 1316 -1315 0
-1336 1320 1332 1316 -1315 0
-1383 1319 1379 1315 -1314 0
-1384 1320 1380 1316 -1315 0
-1447 1319 1443 1315 -1314 0
-1448 1320 1444 1316 -1315 0
-1831 1319 1827 1315 -1314 0
-1832 1320 1828 1316 -1315 0
-3367 1319 3363 1315 -1314 0
-3368 1320 3364 1316 -1315 0
-1315 1323 0
-1324 1315 0
-1340 1324 1332 1316 -1315 0
-1387 1323 1379 1315 -1314 0
-1388 1324 1380 1316 -1315 0
-1452 1324 1444 1316 -1315 0
-1836 1324 1828 1316 -1315 0
-3372 1324 3364 1316 -1315 0
-1315 1331 0
-1332 1315 0
-1396 1332 1380 1316 -1315 0
-1460 1332 1444 1316 -1315 0
-1844 1332 1828 1316 -1315 0
-3380 1332 3364 1316 -1315 0
-1315 1379 0
-1380 1315 0
-1507 1379 1443 1315 -1314 0
-1508 1380 1444 1316 -1315 0
-1892 1380 1828 1316 -1315 0
-3427 1379 3363 1315 -1314 0
-3428 1380 3364 1316 -1315 0
-1315 1443 0
-1444 1315 0
-1956 1444 1828 1316 -1315 0
-3492 1444 3364 1316 -1315 0
-1315 1827 0
-1828 1315 0
-3876 1828 3364 1316 -1315 0
-1315 3363 0
-3364 1315 0
-1328 1319 0
-1320 1328 0
-1392 1328 1384 1320 -1319 0
-1456 1328 1448 1320 -1319 0
-1840 1328 1832 1320 -1319 0
-3376 1328 3368 1320 -1319 0
-1336 1319 0
-1320 1336 0
-1400 1336 1384 1320 -1319 0
-1464 1336 1448 1320 -1319 0
-1848 1336 1832 1320 -1319 0
-3384 1336 3368 1320 -1319 0
-1319 1383 0
-1384 1319 0
-1320 1384 0
-1512 1384 1448 1320 -1319 0
-1896 1384 1832 1320 -1319 0
-3432 1384 3368 1320 -1319 0
-1319 1447 0
-1448 1319 0
-1320 1448 0
-3496 1448 3368 1320 -1319 0
-1319 1831 0
-1320 1832 0
-3880 1832 3368 1320 -1319 0
-1319 3367 0
-1320 3368 0
-1328 1323 0
-1324 1328 0
-1392 1328 1388 1324 -1323 0
-1456 1328 1452 1324 -1323 0
-1840 1328 1836 1324 -1323 0
-3376 1328 3372 1324 -1323 0
-1340 1323 0
-1324 1340 0
-1404 1340 1388 1324 -1323 0
-1468 1340 1452 1324 -1323 0
-1852 1340 1836 1324 -1323 0
-3388 1340 3372 1324 -1323 0
-1323 1387 0
-1388 1323 0
-1324 1388 0
-1516 1388 1452 1324 -1323 0
-1900 1388 1836 1324 -1323 0
-3436 1388 3372 1324 -1323 0
-1323 1451 0
-1452 1323 0
-1324 1452 0
-1964 1452 1836 1324 -1323 0
-3500 1452 3372 1324 -1323 0
-1323 1835 0
-1836 1323 0
-1324 1836 0
-3884 1836 3372 1324 -1323 0
-1323 3371 0
-1324 3372 0
-1328 1344 0
-1856 1344 1840 1328 -1327 0
-1328 1392 0
-1520 1392 1456 1328 -1327 0
-1904 1392 1840 1328 -1327 0
-3440 1392 3376 1328 -1327 0
-1328 1456 0
-1968 1456 1840 1328 -1327 0
-3504 1456 3376 1328 -1327 0
-1328 1840 0
-1328 3376 0
-1336 1331 0
-1332 1336 0
-1400 1336 1396 1332 -1331 0
-1464 1336 1460 1332 -1331 0
-1848 1336 1844 1332 -1331 0
-3384 1336 3380 1332 -1331 0
-1340 1331 0
-1332 1340 0
-1404 1340 1396 1332 -1331 0
-1852 1340 1844 1332 -1331 0
-3388 1340 3380 1332 -1331 0
-1331 1395 0
-1332 1396 0
-1524 1396 1460 1332 -1331 0
-1908 1396 1844 1332 -1331 0
-3444 1396 3380 1332 -1331 0
-1331 1459 0
-1460 1331 0
-1332 1460 0
-1972 1460 1844 1332 -1331 0
-3508 1460 3380 1332 -1331 0
-1844 1331 0
-1332 1844 0
-3892 1844 3380 1332 -1331 0
-1331 3379 0
-1332 3380 0
-1336 1344 0
-1408 1344 1400 1336 -1335 0
-1472 1344 1464 1336 -1335 0
-1856 1344 1848 1336 -1335 0
-3392 1344 3384 1336 -1335 0
-1336 1400 0
-1528 1400 1464 1336 -1335 0
-1912 1400 1848 1336 -1335 0
-3448 1400 3384 1336 -1335 0
-1336 1464 0
-1976 1464 1848 1336 -1335 0
-3512 1464 3384 1336 -1335 0
-1336 1848 0
-1336 3384 0
-1340 1344 0
-1408 1344 1404 1340 -1339 0
-1472 1344 1468 1340 -1339 0
-1856 1344 1852 1340 -1339 0
-3392 1344 3388 1340 -1339 0
-1340 1404 0
-1532 1404 1468 1340 -1339 0
-1916 1404 1852 1340 -1339 0
-3452 1404 3388 1340 -1339 0
-1340 1468 0
-1340 1852 0
-1340 3388 0
-1536 1408 1472 1344 -1343 0
-1920 1408 1856 1344 -1343 0
-3456 1408 3392 1344 -1343 0
-1344 1472 0
-1984 1472 1856 1344 -1343 0
-3520 1472 3392 1344 -1343 0
-1344 1856 0
-3904 1856 3392 1344 -1343 0
-1347 1351 0
-1352 1347 0
-1359 1351 1355 1347 -1346 0
-1360 1352 1356 1348 -1347 0
-1367 1351 1363 1347 -1346 0
-1368 1352 1364 1348 -1347 0
-1383 1351 1379 1347 -1346 0
-1384 1352 1380 1348 -1347 0
-1479 1351 1475 1347 -1346 0
-1480 1352 1476 1348 -1347 0
-1863 1351 1859 1347 -1346 0
-1864 1352 1860 1348 -1347 0
-3399 1351 3395 1347 -1346 0
-3400 1352 3396 1348 -1347 0
-1347 1355 0
-1356 1347 0
-1371 1355 1363 1347 -1346 0
-1372 1356 1364 1348 -1347 0
-1387 1355 1379 1347 -1346 0
-1388 1356 1380 1348 -1347 0
-1483 1355 1475 1347 -1346 0
-1484 1356 1476 1348 -1347 0
-1868 1356 1860 1348 -1347 0
-3403 1355 3395 1347 -1346 0
-3404 1356 3396 1348 -1347 0
-1347 1363 0
-1364 1347 0
-1395 1363 1379 1347 -1346 0
-1396 1364 1380 1348 -1347 0
-1491 1363 1475 1347 -1346 0
-1492 1364 1476 1348 -1347 0
-1875 1363 1859 1347 -1346 0
-1876 1364 1860 1348 -1347 0
-3411 1363 3395 1347 -1346 0
-3412 1364 3396 1348 -1347 0
-1347 1379 0
-1380 1347 0
-1507 1379 1475 1347 -1346 0
-1508 1380 1476 1348 -1347 0
-1891 1379 1859 1347 -1346 0
-1892 1380 1860 1348 -1347 0
-3428 1380 3396 1348 -1347 0
-1347 1475 0
-1476 1347 0
-1987 1475 1859 1347 -1346 0
-1988 1476 1860 1348 -1347 0
-3524 1476 3396 1348 -1347 0
-1347 1859 0
-1860 1347 0
-3907 1859 3395 1347 -1346 0
-3908 1860 3396 1348 -1347 0
-1347 3395 0
-3396 1347 0
-1360 1351 0
-1352 1360 0
-1376 1360 1368 1352 -1351 0
-1392 1360 1384 1352 -1351 0
-1488 1360 1480 1352 -1351 0
-1872 1360 1864 1352 -1351 0
-3408 1360 3400 1352 -1351 0
-1368 1351 0
-1352 1368 0
-1496 1368 1480 1352 -1351 0
-1880 1368 1864 1352 -1351 0
-3416 1368 3400 1352 -1351 0
-1351 1383 0
-1384 1351 0
-1352 1384 0
-1512 1384 1480 1352 -1351 0
-3432 1384 3400 1352 -1351 0
-1351 1479 0
-1480 1351 0
-1352 1480 0
-1992 1480 1864 1352 -1351 0
-3528 1480 3400 1352 -1351 0
-1351 1863 0
-1864 1351 0
-1352 1864 0
-3912 1864 3400 1352 -1351 0
-1351 3399 0
-3400 1351 0
-1352 3400 0
-1360 1355 0
-1356 1360 0
-1488 1360 1484 1356 -1355 0
-1355 1371 0
-1356 1372 0
-1500 1372 1484 1356 -1355 0
-1884 1372 1868 1356 -1355 0
-1355 1387 0
-1356 1388 0
-1516 1388 1484 1356 -1355 0
-1900 1388 1868 1356 -1355 0
-3436 1388 3404 1356 -1355 0
-1355 1483 0
-1356 1484 0
-1996 1484 1868 1356 -1355 0
-3532 1484 3404 1356 -1355 0
-1355 1867 0
-1868 1355 0
-1356 1868 0
-3916 1868 3404 1356 -1355 0
-1355 3403 0
-1356 3404 0
-1360 1376 0
-1504 1376 1488 1360 -1359 0
-3424 1376 3408 1360 -1359 0
-1360 1392 0
-1520 1392 1488 1360 -1359 0
-1904 1392 1872 1360 -1359 0
-1360 1488 0
-2000 1488 1872 1360 -1359 0
-3536 1488 3408 1360 -1359 0
-1360 1872 0
-3920 1872 3408 1360 -1359 0
-1360 3408 0
-1363 1367 0
-1364 1368 0
-1376 1368 1372 1364 -1363 0
-1400 1368 1396 1364 -1363 0
-1496 1368 1492 1364 -1363 0
-3416 1368 3412 1364 -1363 0
-1363 1371 0
-1372 1363 0
-1364 1372 0
-1404 1372 1396 1364 -1363 0
-1500 1372 1492 1364 -1363 0
-1883 1371 1875 1363 -1362 0
-3420 1372 3412 1364 -1363 0
-1363 1395 0
-1396 1363 0
-1364 1396 0
-1524 1396 1492 1364 -1363 0
-1908 1396 1876 1364 -1363 0
-1363 1491 0
-1492 1363 0
-1364 1492 0
-2004 1492 1876 1364 -1363 0
-3540 1492 3412 1364 -1363 0
-1363 1875 0
-1876 1363 0
-1364 1876 0
-3924 1876 3412 1364 -1363 0
-1363 3411 0
-1364 3412 0
-1376 1367 0
-1368 1376 0
-1504 1376 1496 1368 -1367 0
-1888 1376 1880 1368 -1367 0
-3424 1376 3416 1368 -1367 0
-1400 1367 0
-1368 1400 0
-1528 1400 1496 1368 -1367 0
-3448 1400 3416 1368 -1367 0
-1368 1496 0
-2008 1496 1880 1368 -1367 0
-3544 1496 3416 1368 -1367 0
-1368 1880 0
-3928 1880 3416 1368 -1367 0
-3416 1367 0
-1368 3416 0
-1376 1371 0
-1372 1376 0
-1888 1376 1884 1372 -1371 0
-3424 1376 3420 1372 -1371 0
-1404 1371 0
-1372 1404 0
-1532 1404 1500 1372 -1371 0
-3452 1404 3420 1372 -1371 0
-1372 1500 0
-2012 1500 1884 1372 -1371 0
-3548 1500 3420 1372 -1371 0
-1884 1371 0
-1372 1884 0
-3932 1884 3420 1372 -1371 0
-3420 1371 0
-1372 3420 0
-1536 1408 1504 1376 -1375 0
-1920 1408 1888 1376 -1375 0
-3456 1408 3424 1376 -1375 0
-1376 1888 0
-1376 3424 0
-1379 1383 0
-1384 1379 0
-1380 1384 0
-1392 1384 1388 1380 -1379 0
-1512 1384 1508 1380 -1379 0
-1895 1383 1891 1379 -1378 0
-1896 1384 1892 1380 -1379 0
-3431 1383 3427 1379 -1378 0
-3432 1384 3428 1380 -1379 0
-1379 1387 0
-1388 1379 0
-1380 1388 0
-1404 1388 1396 1380 -1379 0
-1516 1388 1508 1380 -1379 0
-1900 1388 1892 1380 -1379 0
-3436 1388 3428 1380 -1379 0
-1379 1395 0
-1396 1379 0
-1380 1396 0
-1524 1396 1508 1380 -1379 0
-1908 1396 1892 1380 -1379 0
-3444 1396 3428 1380 -1379 0
-1379 1507 0
-1508 1379 0
-1380 1508 0
-2020 1508 1892 1380 -1379 0
-3556 1508 3428 1380 -1379 0
-1379 1891 0
-1892 1379 0
-1380 1892 0
-3940 1892 3428 1380 -1379 0
-1379 3427 0
-1380 3428 0
-1384 1392 0
-1520 1392 1512 1384 -1383 0
-3440 1392 3432 1384 -1383 0
-1400 1383 0
-1384 1400 0
-1528 1400 1512 1384 -1383 0
-1912 1400 1896 1384 -1383 0
-3448 1400 3432 1384 -1383 0
-1384 1512 0
-1384 1896 0
-3944 1896 3432 1384 -1383 0
-1384 3432 0
-1392 1387 0
-1388 1392 0
-1520 1392 1516 1388 -1387 0
-1904 1392 1900 1388 -1387 0
-3440 1392 3436 1388 -1387 0
-1404 1387 0
-1532 1404 1516 1388 -1387 0
-1388 1516 0
-2028 1516 1900 1388 -1387 0
-3564 1516 3436 1388 -1387 0
-1388 1900 0
-3948 1900 3436 1388 -1387 0
-1388 3436 0
-1392 1408 0
-1536 1408 1520 1392 -1391 0
-1920 1408 1904 1392 -1391 0
-3456 1408 3440 1392 -1391 0
-1392 1520 0
-1392 1904 0
-1392 3440 0
-1400 1395 0
-1396 1400 0
-1912 1400 1908 1396 -1395 0
-1396 1404 0
-1532 1404 1524 1396 -1395 0
-3452 1404 3444 1396 -1395 0
-1524 1395 0
-1396 1524 0
-2036 1524 1908 1396 -1395 0
-1908 1395 0
-1396 1908 0
-3956 1908 3444 1396 -1395 0
-3444 1395 0
-1396 3444 0
-1400 1408 0
-1536 1408 1528 1400 -1399 0
-1920 1408 1912 1400 -1399 0
-3456 1408 3448 1400 -1399 0
-1400 1528 0
-1400 1912 0
-1400 3448 0
-1404 1408 0
-3456 1408 3452 1404 -1403 0
-1404 1532 0
-1411 1415 0
-1416 1411 0
-1423 1415 1419 1411 -1410 0
-1424 1416 1420 1412 -1411 0
-1432 1416 1428 1412 -1411 0
-1447 1415 1443 1411 -1410 0
-1448 1416 1444 1412 -1411 0
-1479 1415 1475 1411 -1410 0
-1480 1416 1476 1412 -1411 0
-1927 1415 1923 1411 -1410 0
-1928 1416 1924 1412 -1411 0
-3463 1415 3459 1411 -1410 0
-3464 1416 3460 1412 -1411 0
-1411 1419 0
-1420 1411 0
-1435 1419 1427 1411 -1410 0
-1436 1420 1428 1412 -1411 0
-1451 1419 1443 1411 -1410 0
-1452 1420 1444 1412 -1411 0
-1483 1419 1475 1411 -1410 0
-1484 1420 1476 1412 -1411 0
-1931 1419 1923 1411 -1410 0
-1932 1420 1924 1412 -1411 0
-3468 1420 3460 1412 -1411 0
-1428 1411 0
-1460 1428 1444 1412 -1411 0
-1492 1428 1476 1412 -1411 0
-1940 1428 1924 1412 -1411 0
-3476 1428 3460 1412 -1411 0
-1411 1443 0
-1444 1411 0
-1507 1443 1475 1411 -1410 0
-1508 1444 1476 1412 -1411 0
-1955 1443 1923 1411 -1410 0
-1956 1444 1924 1412 -1411 0
-3491 1443 3459 1411 -1410 0
-3492 1444 3460 1412 -1411 0
-1411 1475 0
-1476 1411 0
-1987 1475 1923 1411 -1410 0
-1988 1476 1924 1412 -1411 0
-3524 1476 3460 1412 -1411 0
-1411 1923 0
-1924 1411 0
-3971 1923 3459 1411 -1410 0
-3972 1924 3460 1412 -1411 0
-1411 3459 0
-3460 1411 0
-1415 1423 0
-1424 1415 0
-1416 1424 0
-1488 1424 1480 1416 -1415 0
-1936 1424 1928 1416 -1415 0
-3471 1423 3463 1415 -1414 0
-3472 1424 3464 1416 -1415 0
-1415 1431 0
-1432 1415 0
-1416 1432 0
-1464 1432 1448 1416 -1415 0
-1496 1432 1480 1416 -1415 0
-1944 1432 1928 1416 -1415 0
-3480 1432 3464 1416 -1415 0
-1415 1447 0
-1448 1415 0
-1416 1448 0
-1512 1448 1480 1416 -1415 0
-1960 1448 1928 1416 -1415 0
-3496 1448 3464 1416 -1415 0
-1415 1479 0
-1480 1415 0
-1416 1480 0
-1992 1480 1928 1416 -1415 0
-3528 1480 3464 1416 -1415 0
-1415 1927 0
-1928 1415 0
-1416 1928 0
-3976 1928 3464 1416 -1415 0
-1415 3463 0
-3464 1415 0
-1416 3464 0
-1419 1423 0
-1424 1419 0
-1420 1424 0
-1456 1424 1452 1420 -1419 0
-1487 1423 1483 1419 -1418 0
-1488 1424 1484 1420 -1419 0
-1936 1424 1932 1420 -1419 0
-3471 1423 3467 1419 -1418 0
-3472 1424 3468 1420 -1419 0
-1419 1435 0
-1436 1419 0
-1420 1436 0
-1500 1436 1484 1420 -1419 0
-1948 1436 1932 1420 -1419 0
-3484 1436 3468 1420 -1419 0
-1419 1451 0
-1452 1419 0
-1420 1452 0
-1516 1452 1484 1420 -1419 0
-1964 1452 1932 1420 -1419 0
-3500 1452 3468 1420 -1419 0
-1419 1483 0
-1484 1419 0
-1420 1484 0
-1996 1484 1932 1420 -1419 0
-3532 1484 3468 1420 -1419 0
-1419 1931 0
-1932 1419 0
-1420 1932 0
-3980 1932 3468 1420 -1419 0
-1419 3467 0
-3468 1419 0
-1420 3468 0
-1440 1423 0
-1424 1440 0
-1504 1440 1488 1424 -1423 0
-1456 1423 0
-1520 1456 1488 1424 -1423 0
-3504 1456 3472 1424 -1423 0
-1424 1488 0
-2000 1488 1936 1424 -1423 0
-3536 1488 3472 1424 -1423 0
-1936 1423 0
-1424 1936 0
-3984 1936 3472 1424 -1423 0
-3472 1423 0
-1424 3472 0
-1427 1431 0
-1432 1427 0
-1428 1432 0
-1440 1432 1436 1428 -1427 0
-1464 1432 1460 1428 -1427 0
-1496 1432 1492 1428 -1427 0
-1944 1432 1940 1428 -1427 0
-3480 1432 3476 1428 -1427 0
-1427 1435 0
-1436 1427 0
-1428 1436 0
-1500 1436 1492 1428 -1427 0
-1948 1436 1940 1428 -1427 0
-3484 1436 3476 1428 -1427 0
-1427 1459 0
-1428 1460 0
-1524 1460 1492 1428 -1427 0
-1972 1460 1940 1428 -1427 0
-1492 1427 0
-1428 1492 0
-2004 1492 1940 1428 -1427 0
-3540 1492 3476 1428 -1427 0
-1940 1427 0
-1428 1940 0
-3988 1940 3476 1428 -1427 0
-1427 3475 0
-1428 3476 0
-1432 1440 0
-1504 1440 1496 1432 -1431 0
-1952 1440 1944 1432 -1431 0
-3488 1440 3480 1432 -1431 0
-1464 1431 0
-1432 1464 0
-1528 1464 1496 1432 -1431 0
-3512 1464 3480 1432 -1431 0
-1432 1496 0
-2008 1496 1944 1432 -1431 0
-3544 1496 3480 1432 -1431 0
-1432 1944 0
-3992 1944 3480 1432 -1431 0
-1432 3480 0
-1440 1435 0
-1436 1440 0
-1504 1440 1500 1436 -1435 0
-1952 1440 1948 1436 -1435 0
-3488 1440 3484 1436 -1435 0
-1468 1435 0
-1436 1468 0
-1980 1468 1948 1436 -1435 0
-1500 1435 0
-2012 1500 1948 1436 -1435 0
-3548 1500 3484 1436 -1435 0
-1948 1435 0
-1436 1948 0
-3996 1948 3484 1436 -1435 0
-3484 1435 0
-1436 3484 0
-1440 1472 0
-1536 1472 1504 1440 -1439 0
-3520 1472 3488 1440 -1439 0
-1440 1952 0
-1443 1447 0
-1448 1443 0
-1444 1448 0
-1456 1448 1452 1444 -1443 0
-1512 1448 1508 1444 -1443 0
-1959 1447 1955 1443 -1442 0
-1960 1448 1956 1444 -1443 0
-3495 1447 3491 1443 -1442 0
-1443 1451 0
-1452 1443 0
-1444 1452 0
-1468 1452 1460 1444 -1443 0
-1516 1452 1508 1444 -1443 0
-1964 1452 1956 1444 -1443 0
-3500 1452 3492 1444 -1443 0
-1443 1459 0
-1460 1443 0
-1444 1460 0
-1524 1460 1508 1444 -1443 0
-1972 1460 1956 1444 -1443 0
-3508 1460 3492 1444 -1443 0
-1508 1443 0
-1444 1508 0
-2020 1508 1956 1444 -1443 0
-3556 1508 3492 1444 -1443 0
-1443 1955 0
-1956 1443 0
-1444 1956 0
-4004 1956 3492 1444 -1443 0
-1443 3491 0
-3492 1443 0
-1444 3492 0
-1456 1447 0
-1448 1456 0
-1520 1456 1512 1448 -1447 0
-1968 1456 1960 1448 -1447 0
-3504 1456 3496 1448 -1447 0
-1464 1447 0
-1448 1464 0
-1528 1464 1512 1448 -1447 0
-1448 1512 0
-1960 1447 0
-1448 1960 0
-4008 1960 3496 1448 -1447 0
-3496 1447 0
-1448 3496 0
-1456 1451 0
-1452 1456 0
-1520 1456 1516 1452 -1451 0
-1968 1456 1964 1452 -1451 0
-3504 1456 3500 1452 -1451 0
-1468 1451 0
-1532 1468 1516 1452 -1451 0
-1980 1468 1964 1452 -1451 0
-1452 1516 0
-2028 1516 1964 1452 -1451 0
-1964 1451 0
-1452 1964 0
-4012 1964 3500 1452 -1451 0
-3500 1451 0
-1452 3500 0
-1456 1472 0
-1536 1472 1520 1456 -1455 0
-1984 1472 1968 1456 -1455 0
-3520 1472 3504 1456 -1455 0
-1456 1968 0
-1456 3504 0
-1464 1459 0
-1460 1464 0
-1528 1464 1524 1460 -1459 0
-3512 1464 3508 1460 -1459 0
-1468 1459 0
-1460 1468 0
-1524 1459 0
-1460 1524 0
-2036 1524 1972 1460 -1459 0
-1460 1972 0
-1460 3508 0
-1464 1472 0
-1536 1472 1528 1464 -1463 0
-3520 1472 3512 1464 -1463 0
-1464 1528 0
-1464 3512 0
-1468 1472 0
-1536 1472 1532 1468 -1467 0
-1468 3516 0
-1475 1479 0
-1480 1475 0
-1476 1480 0
-1488 1480 1484 1476 -1475 0
-1496 1480 1492 1476 -1475 0
-1512 1480 1508 1476 -1475 0
-1992 1480 1988 1476 -1475 0
-3528 1480 3524 1476 -1475 0
-1475 1483 0
-1484 1475 0
-1476 1484 0
-1500 1484 1492 1476 -1475 0
-1516 1484 1508 1476 -1475 0
-1996 1484 1988 1476 -1475 0
-3532 1484 3524 1476 -1475 0
-1492 1475 0
-1476 1492 0
-1524 1492 1508 1476 -1475 0
-2004 1492 1988 1476 -1475 0
-3540 1492 3524 1476 -1475 0
-1508 1475 0
-1476 1508 0
-2020 1508 1988 1476 -1475 0
-3556 1508 3524 1476 -1475 0
-1475 1987 0
-1988 1475 0
-1476 1988 0
-4035 1987 3523 1475 -1474 0
-4036 1988 3524 1476 -1475 0
-1475 3523 0
-3524 1475 0
-1488 1479 0
-1520 1488 1512 1480 -1479 0
-2000 1488 1992 1480 -1479 0
-3536 1488 3528 1480 -1479 0
-1496 1479 0
-1480 1496 0
-2008 1496 1992 1480 -1479 0
-3544 1496 3528 1480 -1479 0
-1512 1479 0
-1480 1512 0
-3560 1512 3528 1480 -1479 0
-1480 1992 0
-4040 1992 3528 1480 -1479 0
-1480 3528 0
-1484 1488 0
-2000 1488 1996 1484 -1483 0
-3536 1488 3532 1484 -1483 0
-2012 1500 1996 1484 -1483 0
-3548 1500 3532 1484 -1483 0
-1516 1483 0
-1484 1516 0
-2028 1516 1996 1484 -1483 0
-3564 1516 3532 1484 -1483 0
-1484 1996 0
-4044 1996 3532 1484 -1483 0
-1484 3532 0
-1488 1504 0
-1488 1520 0
-1488 2000 0
-4048 2000 3536 1488 -1487 0
-1488 3536 0
-2008 1496 2004 1492 -1491 0
-3544 1496 3540 1492 -1491 0
-1492 1500 0
-3548 1500 3540 1492 -1491 0
-1524 1491 0
-1492 1524 0
-2036 1524 2004 1492 -1491 0
-1492 2004 0
-4052 2004 3540 1492 -1491 0
-1492 3540 0
-4056 2008 3544 1496 -1495 0
-4060 2012 3548 1500 -1499 0
-1500 3548 0
-1512 1507 0
-1508 1512 0
-1520 1512 1516 1508 -1507 0
-2024 1512 2020 1508 -1507 0
-3560 1512 3556 1508 -1507 0
-1508 1516 0
-2028 1516 2020 1508 -1507 0
-3564 1516 3556 1508 -1507 0
-1524 1507 0
-1508 1524 0
-2036 1524 2020 1508 -1507 0
-3572 1524 3556 1508 -1507 0
-1508 2020 0
-4068 2020 3556 1508 -1507 0
-1508 3556 0
-1512 2024 0
-4072 2024 3560 1512 -1511 0
-1512 3560 0
-1516 2028 0
-4076 2028 3564 1516 -1515 0
-1516 3564 0
-1524 1528 0
-1524 1532 0
-1524 2036 0
-4084 2036 3572 1524 -1523 0
-1524 3572 0
-1543 1538 0
-1551 1543 1547 1539 -1538 0
-1559 1543 1555 1539 -1538 0
-1575 1543 1571 1539 -1538 0
-1607 1543 1603 1539 -1538 0
-1671 1543 1667 1539 -1538 0
-1799 1543 1795 1539 -1538 0
-3591 1543 3587 1539 -1538 0
-1547 1538 0
-1563 1547 1555 1539 -1538 0
-1579 1547 1571 1539 -1538 0
-1611 1547 1603 1539 -1538 0
-1675 1547 1667 1539 -1538 0
-1803 1547 1795 1539 -1538 0
-3595 1547 3587 1539 -1538 0
-1555 1538 0
-1587 1555 1571 1539 -1538 0
-1683 1555 1667 1539 -1538 0
-1811 1555 1795 1539 -1538 0
-3603 1555 3587 1539 -1538 0
-1571 1538 0
-1635 1571 1603 1539 -1538 0
-1699 1571 1667 1539 -1538 0
-1827 1571 1795 1539 -1538 0
-3619 1571 3587 1539 -1538 0
-1603 1538 0
-1731 1603 1667 1539 -1538 0
-1859 1603 1795 1539 -1538 0
-3651 1603 3587 1539 -1538 0
-1667 1538 0
-1923 1667 1795 1539 -1538 0
-3715 1667 3587 1539 -1538 0
-1795 1538 0
-3843 1795 3587 1539 -1538 0
-3587 1538 0
-1543 1551 0
-1552 1543 0
-1568 1552 1560 1544 -1543 0
-1584 1552 1576 1544 -1543 0
-1616 1552 1608 1544 -1543 0
-1680 1552 1672 1544 -1543 0
-1808 1552 1800 1544 -1543 0
-3600 1552 3592 1544 -1543 0
-1543 1559 0
-1560 1543 0
-1592 1560 1576 1544 -1543 0
-1623 1559 1607 1543 -1542 0
-1624 1560 1608 1544 -1543 0
-1688 1560 1672 1544 -1543 0
-1816 1560 1800 1544 -1543 0
-3608 1560 3592 1544 -1543 0
-1543 1575 0
-1576 1543 0
-1639 1575 1607 1543 -1542 0
-1640 1576 1608 1544 -1543 0
-1704 1576 1672 1544 -1543 0
-1832 1576 1800 1544 -1543 0
-3624 1576 3592 1544 -1543 0
-1543 1607 0
-1608 1543 0
-1735 1607 1671 1543 -1542 0
-1736 1608 1672 1544 -1543 0
-1863 1607 1799 1543 -1542 0
-1864 1608 1800 1544 -1543 0
-3655 1607 3591 1543 -1542 0
-3656 1608 3592 1544 -1543 0
-1543 1671 0
-1672 1543 0
-1927 1671 1799 1543 -1542 0
-1928 1672 1800 1544 -1543 0
-3719 1671 3591 1543 -1542 0
-3720 1672 3592 1544 -1543 0
-1543 1799 0
-1800 1543 0
-3847 1799 3591 1543 -1542 0
-3848 1800 3592 1544 -1543 0
-1543 3591 0
-3592 1543 0
-1547 1551 0
-1552 1547 0
-1568 1552 1564 1548 -1547 0
-1584 1552 1580 1548 -1547 0
-1615 1551 1611 1547 -1546 0
-1616 1552 1612 1548 -1547 0
-1680 1552 1676 1548 -1547 0
-1807 1551 1803 1547 -1546 0
-1808 1552 1804 1548 -1547 0
-3599 1551 3595 1547 -1546 0
-3600 1552 3596 1548 -1547 0
-1547 1563 0
-1564 1547 0
-1596 1564 1580 1548 -1547 0
-1627 1563 1611 1547 -1546 0
-1628 1564 1612 1548 -1547 0
-1692 1564 1676 1548 -1547 0
-1819 1563 1803 1547 -1546 0
-1820 1564 1804 1548 -1547 0
-3612 1564 3596 1548 -1547 0
-1547 1579 0
-1580 1547 0
-1643 1579 1611 1547 -1546 0
-1644 1580 1612 1548 -1547 0
-1708 1580 1676 1548 -1547 0
-1835 1579 1803 1547 -1546 0
-1836 1580 1804 1548 -1547 0
-3628 1580 3596 1548 -1547 0
-1547 1611 0
-1612 1547 0
-1739 1611 1675 1547 -1546 0
-1740 1612 1676 1548 -1547 0
-1867 1611 1803 1547 -1546 0
-1868 1612 1804 1548 -1547 0
-3659 1611 3595 1547 -1546 0
-3660 1612 3596 1548 -1547 0
-1547 1675 0
-1676 1547 0
-1931 1675 1803 1547 -1546 0
-1932 1676 1804 1548 -1547 0
-3723 1675 3595 1547 -1546 0
-3724 1676 3596 1548 -1547 0
-1547 1803 0
-1804 1547 0
-3851 1803 3595 1547 -1546 0
-3852 1804 3596 1548 -1547 0
-1547 3595 0
-3596 1547 0
-1568 1551 0
-1552 1568 0
-1632 1568 1616 1552 -1551 0
-1696 1568 1680 1552 -1551 0
-1824 1568 1808 1552 -1551 0
-3616 1568 3600 1552 -1551 0
-1584 1551 0
-1552 1584 0
-1648 1584 1616 1552 -1551 0
-1712 1584 1680 1552 -1551 0
-1840 1584 1808 1552 -1551 0
-3632 1584 3600 1552 -1551 0
-1551 1615 0
-1616 1551 0
-1552 1616 0
-1744 1616 1680 1552 -1551 0
-1872 1616 1808 1552 -1551 0
-3664 1616 3600 1552 -1551 0
-1551 1679 0
-1680 1551 0
-1552 1680 0
-1936 1680 1808 1552 -1551 0
-3728 1680 3600 1552 -1551 0
-1551 1807 0
-1808 1551 0
-1552 1808 0
-3856 1808 3600 1552 -1551 0
-1551 3599 0
-3600 1551 0
-1552 3600 0
-1555 1559 0
-1560 1555 0
-1568 1560 1564 1556 -1555 0
-1592 1560 1588 1556 -1555 0
-1623 1559 1619 1555 -1554 0
-1624 1560 1620 1556 -1555 0
-1687 1559 1683 1555 -1554 0
-1688 1560 1684 1556 -1555 0
-1815 1559 1811 1555 -1554 0
-1816 1560 1812 1556 -1555 0
-3607 1559 3603 1555 -1554 0
-3608 1560 3604 1556 -1555 0
-1555 1563 0
-1564 1555 0
-1596 1564 1588 1556 -1555 0
-1627 1563 1619 1555 -1554 0
-1628 1564 1620 1556 -1555 0
-1691 1563 1683 1555 -1554 0
-1692 1564 1684 1556 -1555 0
-1819 1563 1811 1555 -1554 0
-1820 1564 1812 1556 -1555 0
-3612 1564 3604 1556 -1555 0
-1555 1587 0
-1588 1555 0
-1652 1588 1620 1556 -1555 0
-1715 1587 1683 1555 -1554 0
-1716 1588 1684 1556 -1555 0
-1843 1587 1811 1555 -1554 0
-1844 1588 1812 1556 -1555 0
-3635 1587 3603 1555 -1554 0
-3636 1588 3604 1556 -1555 0
-1555 1619 0
-1620 1555 0
-1748 1620 1684 1556 -1555 0
-1876 1620 1812 1556 -1555 0
-3667 1619 3603 1555 -1554 0
-3668 1620 3604 1556 -1555 0
-1555 1683 0
-1684 1555 0
-1939 1683 1811 1555 -1554 0
-1940 1684 1812 1556 -1555 0
-3731 1683 3603 1555 -1554 0
-3732 1684 3604 1556 -1555 0
-1555 1811 0
-1812 1555 0
-3859 1811 3603 1555 -1554 0
-3860 1812 3604 1556 -1555 0
-1555 3603 0
-3604 1555 0
-1568 1559 0
-1560 1568 0
-1632 1568 1624 1560 -1559 0
-1696 1568 1688 1560 -1559 0
-1824 1568 1816 1560 -1559 0
-3616 1568 3608 1560 -1559 0
-1592 1559 0
-1560 1592 0
-1656 1592 1624 1560 -1559 0
-1720 1592 1688 1560 -1559 0
-1848 1592 1816 1560 -1559 0
-3640 1592 3608 1560 -1559 0
-1559 1623 0
-1560 1624 0
-1752 1624 1688 1560 -1559 0
-1880 1624 1816 1560 -1559 0
-3672 1624 3608 1560 -1559 0
-1559 1687 0
-1688 1559 0
-1560 1688 0
-1944 1688 1816 1560 -1559 0
-3736 1688 3608 1560 -1559 0
-1559 1815 0
-1816 1559 0
-1560 1816 0
-3864 1816 3608 1560 -1559 0
-1559 3607 0
-1560 3608 0
-1568 1563 0
-1564 1568 0
-1632 1568 1628 1564 -1563 0
-1696 1568 1692 1564 -1563 0
-1824 1568 1820 1564 -1563 0
-1596 1563 0
-1564 1596 0
-1660 1596 1628 1564 -1563 0
-1724 1596 1692 1564 -1563 0
-1852 1596 1820 1564 -1563 0
-3644 1596 3612 1564 -1563 0
-1563 1627 0
-1628 1563 0
-1564 1628 0
-1756 1628 1692 1564 -1563 0
-3676 1628 3612 1564 -1563 0
-1564 1692 0
-1948 1692 1820 1564 -1563 0
-3740 1692 3612 1564 -1563 0
-1563 1819 0
-1820 1563 0
-1564 1820 0
-3868 1820 3612 1564 -1563 0
-1563 3611 0
-3612 1563 0
-1564 3612 0
-1568 1600 0
-1664 1600 1632 1568 -1567 0
-1728 1600 1696 1568 -1567 0
-1856 1600 1824 1568 -1567 0
-3648 1600 3616 1568 -1567 0
-1568 1632 0
-1760 1632 1696 1568 -1567 0
-1568 1696 0
-1568 1824 0
-1568 3616 0
-1571 1575 0
-1576 1571 0
-1584 1576 1580 1572 -1571 0
-1592 1576 1588 1572 -1571 0
-1640 1576 1636 1572 -1571 0
-1704 1576 1700 1572 -1571 0
-1832 1576 1828 1572 -1571 0
-3623 1575 3619 1571 -1570 0
-3624 1576 3620 1572 -1571 0
-1571 1579 0
-1580 1571 0
-1596 1580 1588 1572 -1571 0
-1644 1580 1636 1572 -1571 0
-1708 1580 1700 1572 -1571 0
-1836 1580 1828 1572 -1571 0
-3627 1579 3619 1571 -1570 0
-3628 1580 3620 1572 -1571 0
-1571 1587 0
-1588 1571 0
-1651 1587 1635 1571 -1570 0
-1652 1588 1636 1572 -1571 0
-1715 1587 1699 1571 -1570 0
-1716 1588 1700 1572 -1571 0
-1844 1588 1828 1572 -1571 0
-3636 1588 3620 1572 -1571 0
-1571 1635 0
-1636 1571 0
-1764 1636 1700 1572 -1571 0
-1892 1636 1828 1572 -1571 0
-3683 1635 3619 1571 -1570 0
-3684 1636 3620 1572 -1571 0
-1571 1699 0
-1700 1571 0
-1955 1699 1827 1571 -1570 0
-1956 1700 1828 1572 -1571 0
-3747 1699 3619 1571 -1570 0
-3748 1700 3620 1572 -1571 0
-1571 1827 0
-1828 1571 0
-3875 1827 3619 1571 -1570 0
-3876 1828 3620 1572 -1571 0
-1571 3619 0
-3620 1571 0
-1584 1575 0
-1576 1584 0
-1648 1584 1640 1576 -1575 0
-1712 1584 1704 1576 -1575 0
-1840 1584 1832 1576 -1575 0
-3632 1584 3624 1576 -1575 0
-1592 1575 0
-1576 1592 0
-1656 1592 1640 1576 -1575 0
-1720 1592 1704 1576 -1575 0
-1848 1592 1832 1576 -1575 0
-3640 1592 3624 1576 -1575 0
-1575 1639 0
-1640 1575 0
-1576 1640 0
-1896 1640 1832 1576 -1575 0
-3688 1640 3624 1576 -1575 0
-1575 1703 0
-1704 1575 0
-1576 1704 0
-3752 1704 3624 1576 -1575 0
-1575 1831 0
-1576 1832 0
-1575 3623 0
-1576 3624 0
-1584 1579 0
-1580 1584 0
-1712 1584 1708 1580 -1579 0
-1840 1584 1836 1580 -1579 0
-3632 1584 3628 1580 -1579 0
-1596 1579 0
-1580 1596 0
-1660 1596 1644 1580 -1579 0
-1724 1596 1708 1580 -1579 0
-1852 1596 1836 1580 -1579 0
-3644 1596 3628 1580 -1579 0
-1579 1643 0
-1644 1579 0
-1580 1644 0
-1900 1644 1836 1580 -1579 0
-3692 1644 3628 1580 -1579 0
-1708 1579 0
-1580 1708 0
-1964 1708 1836 1580 -1579 0
-3756 1708 3628 1580 -1579 0
-1579 1835 0
-1580 1836 0
-3884 1836 3628 1580 -1579 0
-1579 3627 0
-1580 3628 0
-1584 1600 0
-1664 1600 1648 1584 -1583 0
-1728 1600 1712 1584 -1583 0
-1856 1600 1840 1584 -1583 0
-3648 1600 3632 1584 -1583 0
-1584 1648 0
-1776 1648 1712 1584 -1583 0
-1904 1648 1840 1584 -1583 0
-3696 1648 3632 1584 -1583 0
-1584 1712 0
-1968 1712 1840 1584 -1583 0
-3760 1712 3632 1584 -1583 0
-1584 1840 0
-3888 1840 3632 1584 -1583 0
-1584 3632 0
-1592 1587 0
-1588 1592 0
-1656 1592 1652 1588 -1587 0
-1720 1592 1716 1588 -1587 0
-1848 1592 1844 1588 -1587 0
-3640 1592 3636 1588 -1587 0
-1588 1596 0
-1660 1596 1652 1588 -1587 0
-1724 1596 1716 1588 -1587 0
-1852 1596 1844 1588 -1587 0
-3644 1596 3636 1588 -1587 0
-1587 1651 0
-1652 1587 0
-1588 1652 0
-1779 1651 1715 1587 -1586 0
-1780 1652 1716 1588 -1587 0
-1907 1651 1843 1587 -1586 0
-1908 1652 1844 1588 -1587 0
-3699 1651 3635 1587 -1586 0
-3700 1652 3636 1588 -1587 0
-1587 1715 0
-1716 1587 0
-1588 1716 0
-3764 1716 3636 1588 -1587 0
-1587 1843 0
-1844 1587 0
-1588 1844 0
-1587 3635 0
-3636 1587 0
-1588 3636 0
-1592 1600 0
-1664 1600 1656 1592 -1591 0
-1728 1600 1720 1592 -1591 0
-1856 1600 1848 1592 -1591 0
-3648 1600 3640 1592 -1591 0
-1592 1656 0
-1784 1656 1720 1592 -1591 0
-1912 1656 1848 1592 -1591 0
-3704 1656 3640 1592 -1591 0
-1592 1720 0
-1976 1720 1848 1592 -1591 0
-1592 1848 0
-3896 1848 3640 1592 -1591 0
-1592 3640 0
-1596 1600 0
-1664 1600 1660 1596 -1595 0
-1728 1600 1724 1596 -1595 0
-1856 1600 1852 1596 -1595 0
-3648 1600 3644 1596 -1595 0
-1596 1660 0
-1788 1660 1724 1596 -1595 0
-1916 1660 1852 1596 -1595 0
-1596 1724 0
-1596 1852 0
-1596 3644 0
-1600 1664 0
-1792 1664 1728 1600 -1599 0
-1920 1664 1856 1600 -1599 0
-3712 1664 3648 1600 -1599 0
-1600 1728 0
-1984 1728 1856 1600 -1599 0
-3776 1728 3648 1600 -1599 0
-1600 1856 0
-3904 1856 3648 1600 -1599 0
-1600 3648 0
-1603 1607 0
-1608 1603 0
-1615 1607 1611 1603 -1602 0
-1616 1608 1612 1604 -1603 0
-1623 1607 1619 1603 -1602 0
-1624 1608 1620 1604 -1603 0
-1639 1607 1635 1603 -1602 0
-1640 1608 1636 1604 -1603 0
-1735 1607 1731 1603 -1602 0
-1736 1608 1732 1604 -1603 0
-1863 1607 1859 1603 -1602 0
-1864 1608 1860 1604 -1603 0
-3655 1607 3651 1603 -1602 0
-3656 1608 3652 1604 -1603 0
-1603 1611 0
-1612 1603 0
-1627 1611 1619 1603 -1602 0
-1628 1612 1620 1604 -1603 0
-1644 1612 1636 1604 -1603 0
-1739 1611 1731 1603 -1602 0
-1740 1612 1732 1604 -1603 0
-1867 1611 1859 1603 -1602 0
-1868 1612 1860 1604 -1603 0
-3659 1611 3651 1603 -1602 0
-3660 1612 3652 1604 -1603 0
-1603 1619 0
-1620 1603 0
-1652 1620 1636 1604 -1603 0
-1747 1619 1731 1603 -1602 0
-1748 1620 1732 1604 -1603 0
-1875 1619 1859 1603 -1602 0
-1876 1620 1860 1604 -1603 0
-3668 1620 3652 1604 -1603 0
-1636 1603 0
-1763 1635 1731 1603 -1602 0
-1764 1636 1732 1604 -1603 0
-1891 1635 1859 1603 -1602 0
-1892 1636 1860 1604 -1603 0
-3684 1636 3652 1604 -1603 0
-1603 1731 0
-1732 1603 0
-1988 1732 1860 1604 -1603 0
-3780 1732 3652 1604 -1603 0
-1603 1859 0
-1860 1603 0
-3907 1859 3651 1603 -1602 0
-3908 1860 3652 1604 -1603 0
-1603 3651 0
-3652 1603 0
-1607 1615 0
-1616 1607 0
-1608 1616 0
-1632 1616 1624 1608 -1607 0
-1744 1616 1736 1608 -1607 0
-3664 1616 3656 1608 -1607 0
-1607 1623 0
-1624 1607 0
-1608 1624 0
-1751 1623 1735 1607 -1606 0
-1752 1624 1736 1608 -1607 0
-1880 1624 1864 1608 -1607 0
-1607 1639 0
-1640 1607 0
-1608 1640 0
-1768 1640 1736 1608 -1607 0
-1896 1640 1864 1608 -1607 0
-1607 1735 0
-1736 1607 0
-1608 1736 0
-1992 1736 1864 1608 -1607 0
-3784 1736 3656 1608 -1607 0
-1607 1863 0
-1864 1607 0
-1608 1864 0
-3912 1864 3656 1608 -1607 0
-1607 3655 0
-3656 1607 0
-1608 3656 0
-1611 1615 0
-1616 1611 0
-1612 1616 0
-1744 1616 1740 1612 -1611 0
-3663 1615 3659 1611 -1610 0
-3664 1616 3660 1612 -1611 0
-1611 1627 0
-1628 1611 0
-1612 1628 0
-1755 1627 1739 1611 -1610 0
-1756 1628 1740 1612 -1611 0
-1884 1628 1868 1612 -1611 0
-1611 1643 0
-1644 1611 0
-1612 1644 0
-1772 1644 1740 1612 -1611 0
-1900 1644 1868 1612 -1611 0
-1611 1739 0
-1740 1611 0
-1612 1740 0
-1996 1740 1868 1612 -1611 0
-3788 1740 3660 1612 -1611 0
-1611 1867 0
-1868 1611 0
-1612 1868 0
-3916 1868 3660 1612 -1611 0
-1611 3659 0
-3660 1611 0
-1612 3660 0
-1632 1615 0
-1888 1632 1872 1616 -1615 0
-1648 1615 0
-1776 1648 1744 1616 -1615 0
-1904 1648 1872 1616 -1615 0
-1744 1615 0
-1616 1744 0
-3792 1744 3664 1616 -1615 0
-1616 1872 0
-3664 1615 0
-1616 3664 0
-1619 1623 0
-1624 1619 0
-1620 1624 0
-1752 1624 1748 1620 -1619 0
-1619 1627 0
-1620 1628 0
-1756 1628 1748 1620 -1619 0
-1884 1628 1876 1620 -1619 0
-3676 1628 3668 1620 -1619 0
-1619 1651 0
-1620 1652 0
-1780 1652 1748 1620 -1619 0
-3700 1652 3668 1620 -1619 0
-1619 1747 0
-1620 1748 0
-2004 1748 1876 1620 -1619 0
-3796 1748 3668 1620 -1619 0
-1876 1619 0
-1620 1876 0
-3924 1876 3668 1620 -1619 0
-1619 3667 0
-1620 3668 0
-1632 1623 0
-1760 1632 1752 1624 -1623 0
-1656 1623 0
-1624 1656 0
-1912 1656 1880 1624 -1623 0
-1752 1623 0
-1624 1752 0
-2008 1752 1880 1624 -1623 0
-3800 1752 3672 1624 -1623 0
-1624 1880 0
-1624 3672 0
-1632 1627 0
-1760 1632 1756 1628 -1627 0
-1660 1627 0
-1628 1660 0
-1788 1660 1756 1628 -1627 0
-1916 1660 1884 1628 -1627 0
-1628 1756 0
-2012 1756 1884 1628 -1627 0
-3804 1756 3676 1628 -1627 0
-1628 1884 0
-3932 1884 3676 1628 -1627 0
-3676 1627 0
-1628 3676 0
-1632 1664 0
-1632 1888 0
-1632 3680 0
-1635 1639 0
-1640 1635 0
-1636 1640 0
-1768 1640 1764 1636 -1635 0
-1896 1640 1892 1636 -1635 0
-3688 1640 3684 1636 -1635 0
-1635 1643 0
-1644 1635 0
-1636 1644 0
-1660 1644 1652 1636 -1635 0
-1900 1644 1892 1636 -1635 0
-1635 1651 0
-1652 1635 0
-1636 1652 0
-1908 1652 1892 1636 -1635 0
-3700 1652 3684 1636 -1635 0
-1635 1763 0
-1636 1764 0
-2020 1764 1892 1636 -1635 0
-3812 1764 3684 1636 -1635 0
-1635 1891 0
-1636 1892 0
-3940 1892 3684 1636 -1635 0
-1635 3683 0
-3684 1635 0
-1636 3684 0
-1776 1648 1768 1640 -1639 0
-1904 1648 1896 1640 -1639 0
-3696 1648 3688 1640 -1639 0
-1656 1639 0
-1640 1656 0
-1784 1656 1768 1640 -1639 0
-1912 1656 1896 1640 -1639 0
-1640 1768 0
-2024 1768 1896 1640 -1639 0
-3816 1768 3688 1640 -1639 0
-1640 1896 0
-3944 1896 3688 1640 -1639 0
-1640 3688 0
-1648 1643 0
-1644 1648 0
-1904 1648 1900 1644 -1643 0
-1660 1643 0
-1644 1772 0
-2028 1772 1900 1644 -1643 0
-1644 1900 0
-3948 1900 3692 1644 -1643 0
-1644 3692 0
-1648 1664 0
-1920 1664 1904 1648 -1647 0
-3712 1664 3696 1648 -1647 0
-1648 1776 0
-1648 1904 0
-1648 3696 0
-1656 1651 0
-1652 1656 0
-1912 1656 1908 1652 -1651 0
-1660 1651 0
-1652 1660 0
-1652 1780 0
-2036 1780 1908 1652 -1651 0
-1908 1651 0
-1652 1908 0
-3956 1908 3700 1652 -1651 0
-1652 3700 0
-1656 1664 0
-1920 1664 1912 1656 -1655 0
-3712 1664 3704 1656 -1655 0
-1656 1784 0
-1656 1912 0
-1656 3704 0
-1660 1664 0
-1660 1788 0
-1660 3708 0
-1667 1671 0
-1672 1667 0
-1679 1671 1675 1667 -1666 0
-1680 1672 1676 1668 -1667 0
-1688 1672 1684 1668 -1667 0
-1703 1671 1699 1667 -1666 0
-1704 1672 1700 1668 -1667 0
-1735 1671 1731 1667 -1666 0
-1736 1672 1732 1668 -1667 0
-1927 1671 1923 1667 -1666 0
-1928 1672 1924 1668 -1667 0
-3719 1671 3715 1667 -1666 0
-3720 1672 3716 1668 -1667 0
-1667 1675 0
-1676 1667 0
-1692 1676 1684 1668 -1667 0
-1708 1676 1700 1668 -1667 0
-1740 1676 1732 1668 -1667 0
-1931 1675 1923 1667 -1666 0
-1932 1676 1924 1668 -1667 0
-3723 1675 3715 1667 -1666 0
-3724 1676 3716 1668 -1667 0
-1667 1683 0
-1684 1667 0
-1716 1684 1700 1668 -1667 0
-1747 1683 1731 1667 -1666 0
-1748 1684 1732 1668 -1667 0
-1939 1683 1923 1667 -1666 0
-1940 1684 1924 1668 -1667 0
-3732 1684 3716 1668 -1667 0
-1667 1699 0
-1700 1667 0
-1763 1699 1731 1667 -1666 0
-1764 1700 1732 1668 -1667 0
-1955 1699 1923 1667 -1666 0
-1956 1700 1924 1668 -1667 0
-3747 1699 3715 1667 -1666 0
-3748 1700 3716 1668 -1667 0
-1667 1731 0
-1732 1667 0
-1987 1731 1923 1667 -1666 0
-1988 1732 1924 1668 -1667 0
-3779 1731 3715 1667 -1666 0
-3780 1732 3716 1668 -1667 0
-1667 1923 0
-1924 1667 0
-3972 1924 3716 1668 -1667 0
-1667 3715 0
-3716 1667 0
-1671 1679 0
-1680 1671 0
-1672 1680 0
-1696 1680 1688 1672 -1671 0
-1744 1680 1736 1672 -1671 0
-1936 1680 1928 1672 -1671 0
-3728 1680 3720 1672 -1671 0
-1671 1687 0
-1688 1671 0
-1672 1688 0
-1720 1688 1704 1672 -1671 0
-1752 1688 1736 1672 -1671 0
-1944 1688 1928 1672 -1671 0
-3736 1688 3720 1672 -1671 0
-1671 1703 0
-1704 1671 0
-1672 1704 0
-1768 1704 1736 1672 -1671 0
-1960 1704 1928 1672 -1671 0
-1671 1735 0
-1736 1671 0
-1672 1736 0
-1992 1736 1928 1672 -1671 0
-3784 1736 3720 1672 -1671 0
-1671 1927 0
-1672 1928 0
-3976 1928 3720 1672 -1671 0
-1671 3719 0
-1672 3720 0
-1675 1679 0
-1680 1675 0
-1676 1680 0
-1712 1680 1708 1676 -1675 0
-1744 1680 1740 1676 -1675 0
-1936 1680 1932 1676 -1675 0
-3728 1680 3724 1676 -1675 0
-1675 1691 0
-1692 1675 0
-1676 1692 0
-1756 1692 1740 1676 -1675 0
-1948 1692 1932 1676 -1675 0
-3740 1692 3724 1676 -1675 0
-1675 1707 0
-1708 1675 0
-1676 1708 0
-1964 1708 1932 1676 -1675 0
-3756 1708 3724 1676 -1675 0
-1740 1675 0
-1676 1740 0
-1996 1740 1932 1676 -1675 0
-3788 1740 3724 1676 -1675 0
-1675 1931 0
-1932 1675 0
-1676 1932 0
-3980 1932 3724 1676 -1675 0
-1675 3723 0
-3724 1675 0
-1676 3724 0
-1696 1679 0
-1680 1696 0
-1728 1696 1712 1680 -1679 0
-1760 1696 1744 1680 -1679 0
-3744 1696 3728 1680 -1679 0
-1712 1679 0
-1680 1712 0
-1776 1712 1744 1680 -1679 0
-1968 1712 1936 1680 -1679 0
-3760 1712 3728 1680 -1679 0
-1744 1679 0
-1680 1744 0
-2000 1744 1936 1680 -1679 0
-3792 1744 3728 1680 -1679 0
-1936 1679 0
-1680 1936 0
-3984 1936 3728 1680 -1679 0
-3728 1679 0
-1680 3728 0
-1688 1683 0
-1684 1688 0
-1696 1688 1692 1684 -1683 0
-1720 1688 1716 1684 -1683 0
-1752 1688 1748 1684 -1683 0
-3736 1688 3732 1684 -1683 0
-1692 1683 0
-1684 1692 0
-1756 1692 1748 1684 -1683 0
-1948 1692 1940 1684 -1683 0
-3740 1692 3732 1684 -1683 0
-1716 1683 0
-1684 1716 0
-1780 1716 1748 1684 -1683 0
-3764 1716 3732 1684 -1683 0
-1748 1683 0
-1684 1748 0
-2004 1748 1940 1684 -1683 0
-3796 1748 3732 1684 -1683 0
-1683 1939 0
-1940 1683 0
-1684 1940 0
-3988 1940 3732 1684 -1683 0
-1683 3731 0
-1684 3732 0
-1688 1696 0
-1952 1696 1944 1688 -1687 0
-1720 1687 0
-1688 1720 0
-1784 1720 1752 1688 -1687 0
-1976 1720 1944 1688 -1687 0
-1688 1752 0
-2008 1752 1944 1688 -1687 0
-1688 1944 0
-1688 3736 0
-1696 1691 0
-1692 1696 0
-1760 1696 1756 1692 -1691 0
-1952 1696 1948 1692 -1691 0
-1724 1691 0
-1980 1724 1948 1692 -1691 0
-3772 1724 3740 1692 -1691 0
-1692 1756 0
-2012 1756 1948 1692 -1691 0
-3804 1756 3740 1692 -1691 0
-1692 1948 0
-3996 1948 3740 1692 -1691 0
-3740 1691 0
-1692 3740 0
-1696 1728 0
-1792 1728 1760 1696 -1695 0
-1984 1728 1952 1696 -1695 0
-1696 1760 0
-1696 1952 0
-1699 1703 0
-1704 1699 0
-1700 1704 0
-1768 1704 1764 1700 -1699 0
-1960 1704 1956 1700 -1699 0
-3752 1704 3748 1700 -1699 0
-1708 1699 0
-1700 1708 0
-1724 1708 1716 1700 -1699 0
-1964 1708 1956 1700 -1699 0
-3756 1708 3748 1700 -1699 0
-1716 1699 0
-1700 1716 0
-1780 1716 1764 1700 -1699 0
-1972 1716 1956 1700 -1699 0
-3764 1716 3748 1700 -1699 0
-1699 1763 0
-1764 1699 0
-1700 1764 0
-2020 1764 1956 1700 -1699 0
-3812 1764 3748 1700 -1699 0
-1699 1955 0
-1700 1956 0
-4004 1956 3748 1700 -1699 0
-1699 3747 0
-1700 3748 0
-1712 1703 0
-1704 1712 0
-1968 1712 1960 1704 -1703 0
-3760 1712 3752 1704 -1703 0
-1720 1703 0
-1704 1720 0
-1784 1720 1768 1704 -1703 0
-1704 1768 0
-2024 1768 1960 1704 -1703 0
-3816 1768 3752 1704 -1703 0
-1960 1703 0
-1704 1960 0
-1704 3752 0
-1712 1707 0
-1708 1712 0
-1968 1712 1964 1708 -1707 0
-3760 1712 3756 1708 -1707 0
-1708 1724 0
-1788 1724 1772 1708 -1707 0
-1708 1772 0
-2028 1772 1964 1708 -1707 0
-3820 1772 3756 1708 -1707 0
-1708 1964 0
-1708 3756 0
-1712 1728 0
-1792 1728 1776 1712 -1711 0
-1984 1728 1968 1712 -1711 0
-1712 1776 0
-1712 3760 0
-1720 1715 0
-1716 1720 0
-3768 1720 3764 1716 -1715 0
-1716 1724 0
-1716 1780 0
-2036 1780 1972 1716 -1715 0
-3828 1780 3764 1716 -1715 0
-1716 1972 0
-1716 3764 0
-1720 1728 0
-1792 1728 1784 1720 -1719 0
-1984 1728 1976 1720 -1719 0
-3776 1728 3768 1720 -1719 0
-1720 1784 0
-1720 1976 0
-1720 3768 0
-1724 1728 0
-1792 1728 1788 1724 -1723 0
-1984 1728 1980 1724 -1723 0
-3776 1728 3772 1724 -1723 0
-1724 1980 0
-1724 3772 0
-1731 1735 0
-1736 1731 0
-1732 1736 0
-1744 1736 1740 1732 -1731 0
-1768 1736 1764 1732 -1731 0
-1992 1736 1988 1732 -1731 0
-3784 1736 3780 1732 -1731 0
-1731 1739 0
-1740 1731 0
-1732 1740 0
-1756 1740 1748 1732 -1731 0
-1772 1740 1764 1732 -1731 0
-1996 1740 1988 1732 -1731 0
-1748 1731 0
-1732 1748 0
-1780 1748 1764 1732 -1731 0
-2004 1748 1988 1732 -1731 0
-3796 1748 3780 1732 -1731 0
-1764 1731 0
-1732 1764 0
-2020 1764 1988 1732 -1731 0
-3812 1764 3780 1732 -1731 0
-1731 1987 0
-1732 1988 0
-4035 1987 3779 1731 -1730 0
-1731 3779 0
-3780 1731 0
-1732 3780 0
-1736 1744 0
-2000 1744 1992 1736 -1735 0
-3792 1744 3784 1736 -1735 0
-1752 1735 0
-2008 1752 1992 1736 -1735 0
-3800 1752 3784 1736 -1735 0
-1736 1768 0
-3816 1768 3784 1736 -1735 0
-1736 1992 0
-4040 1992 3784 1736 -1735 0
-1736 3784 0
-3804 1756 3788 1740 -1739 0
-1740 1772 0
-2028 1772 1996 1740 -1739 0
-3820 1772 3788 1740 -1739 0
-1740 1996 0
-1740 3788 0
-1744 2000 0
-4048 2000 3792 1744 -1743 0
-1744 3792 0
-1748 1752 0
-3800 1752 3796 1748 -1747 0
-1756 1747 0
-1748 1756 0
-2012 1756 2004 1748 -1747 0
-3804 1756 3796 1748 -1747 0
-1748 1780 0
-2036 1780 2004 1748 -1747 0
-3828 1780 3796 1748 -1747 0
-1748 2004 0
-4052 2004 3796 1748 -1747 0
-1748 3796 0
-1752 2008 0
-4056 2008 3800 1752 -1751 0
-1752 3800 0
-1756 2012 0
-4060 2012 3804 1756 -1755 0
-1756 3804 0
-1768 1763 0
-1764 1768 0
-2024 1768 2020 1764 -1763 0
-3816 1768 3812 1764 -1763 0
-1772 1763 0
-1764 1772 0
-2028 1772 2020 1764 -1763 0
-3820 1772 3812 1764 -1763 0
-2036 1780 2020 1764 -1763 0
-1764 2020 0
-4068 2020 3812 1764 -1763 0
-1764 3812 0
-1768 2024 0
-4072 2024 3816 1768 -1767 0
-1768 3816 0
-4076 2028 3820 1772 -1771 0
-1772 3820 0
-1780 2036 0
-4084 2036 3828 1780 -1779 0
-1795 1799 0
-1800 1795 0
-1807 1799 1803 1795 -1794 0
-1808 1800 1804 1796 -1795 0
-1816 1800 1812 1796 -1795 0
-1831 1799 1827 1795 -1794 0
-1832 1800 1828 1796 -1795 0
-1863 1799 1859 1795 -1794 0
-1864 1800 1860 1796 -1795 0
-1927 1799 1923 1795 -1794 0
-1928 1800 1924 1796 -1795 0
-3847 1799 3843 1795 -1794 0
-3848 1800 3844 1796 -1795 0
-1795 1803 0
-1804 1795 0
-1820 1804 1812 1796 -1795 0
-1835 1803 1827 1795 -1794 0
-1836 1804 1828 1796 -1795 0
-1867 1803 1859 1795 -1794 0
-1868 1804 1860 1796 -1795 0
-1931 1803 1923 1795 -1794 0
-1932 1804 1924 1796 -1795 0
-3851 1803 3843 1795 -1794 0
-3852 1804 3844 1796 -1795 0
-1795 1811 0
-1812 1795 0
-1843 1811 1827 1795 -1794 0
-1844 1812 1828 1796 -1795 0
-1876 1812 1860 1796 -1795 0
-1940 1812 1924 1796 -1795 0
-3859 1811 3843 1795 -1794 0
-3860 1812 3844 1796 -1795 0
-1795 1827 0
-1828 1795 0
-1891 1827 1859 1795 -1794 0
-1892 1828 1860 1796 -1795 0
-1955 1827 1923 1795 -1794 0
-1956 1828 1924 1796 -1795 0
-3875 1827 3843 1795 -1794 0
-3876 1828 3844 1796 -1795 0
-1795 1859 0
-1860 1795 0
-1987 1859 1923 1795 -1794 0
-1988 1860 1924 1796 -1795 0
-3907 1859 3843 1795 -1794 0
-3908 1860 3844 1796 -1795 0
-1795 1923 0
-1924 1795 0
-3971 1923 3843 1795 -1794 0
-3972 1924 3844 1796 -1795 0
-1795 3843 0
-3844 1795 0
-1799 1807 0
-1808 1799 0
-1800 1808 0
-1824 1808 1816 1800 -1799 0
-1872 1808 1864 1800 -1799 0
-1935 1807 1927 1799 -1798 0
-1936 1808 1928 1800 -1799 0
-3856 1808 3848 1800 -1799 0
-1799 1815 0
-1816 1799 0
-1800 1816 0
-1848 1816 1832 1800 -1799 0
-1880 1816 1864 1800 -1799 0
-1944 1816 1928 1800 -1799 0
-3864 1816 3848 1800 -1799 0
-1799 1831 0
-1832 1799 0
-1800 1832 0
-1896 1832 1864 1800 -1799 0
-1960 1832 1928 1800 -1799 0
-3880 1832 3848 1800 -1799 0
-1799 1863 0
-1864 1799 0
-1800 1864 0
-1992 1864 1928 1800 -1799 0
-3912 1864 3848 1800 -1799 0
-1799 1927 0
-1928 1799 0
-1800 1928 0
-3976 1928 3848 1800 -1799 0
-1799 3847 0
-3848 1799 0
-1800 3848 0
-1808 1803 0
-1804 1808 0
-1824 1808 1820 1804 -1803 0
-1840 1808 1836 1804 -1803 0
-1872 1808 1868 1804 -1803 0
-1936 1808 1932 1804 -1803 0
-3855 1807 3851 1803 -1802 0
-3856 1808 3852 1804 -1803 0
-1803 1819 0
-1820 1803 0
-1804 1820 0
-1852 1820 1836 1804 -1803 0
-1884 1820 1868 1804 -1803 0
-1948 1820 1932 1804 -1803 0
-3868 1820 3852 1804 -1803 0
-1803 1835 0
-1836 1803 0
-1804 1836 0
-1899 1835 1867 1803 -1802 0
-1900 1836 1868 1804 -1803 0
-1964 1836 1932 1804 -1803 0
-3884 1836 3852 1804 -1803 0
-1803 1867 0
-1868 1803 0
-1804 1868 0
-1996 1868 1932 1804 -1803 0
-3916 1868 3852 1804 -1803 0
-1803 1931 0
-1932 1803 0
-1804 1932 0
-3980 1932 3852 1804 -1803 0
-1803 3851 0
-3852 1803 0
-1804 3852 0
-1824 1807 0
-1808 1824 0
-1888 1824 1872 1808 -1807 0
-1808 1840 0
-1904 1840 1872 1808 -1807 0
-1968 1840 1936 1808 -1807 0
-3888 1840 3856 1808 -1807 0
-1808 1872 0
-2000 1872 1936 1808 -1807 0
-3920 1872 3856 1808 -1807 0
-1808 1936 0
-3984 1936 3856 1808 -1807 0
-1808 3856 0
-1811 1815 0
-1816 1811 0
-1812 1816 0
-1824 1816 1820 1812 -1811 0
-1848 1816 1844 1812 -1811 0
-1880 1816 1876 1812 -1811 0
-1944 1816 1940 1812 -1811 0
-3864 1816 3860 1812 -1811 0
-1820 1811 0
-1812 1820 0
-1852 1820 1844 1812 -1811 0
-1884 1820 1876 1812 -1811 0
-1948 1820 1940 1812 -1811 0
-3868 1820 3860 1812 -1811 0
-1811 1843 0
-1844 1811 0
-1812 1844 0
-1908 1844 1876 1812 -1811 0
-1971 1843 1939 1811 -1810 0
-3892 1844 3860 1812 -1811 0
-1811 1875 0
-1876 1811 0
-1812 1876 0
-2004 1876 1940 1812 -1811 0
-3924 1876 3860 1812 -1811 0
-1811 1939 0
-1812 1940 0
-3988 1940 3860 1812 -1811 0
-1811 3859 0
-1812 3860 0
-1824 1815 0
-1816 1824 0
-1888 1824 1880 1816 -1815 0
-3872 1824 3864 1816 -1815 0
-1816 1848 0
-1816 1880 0
-2008 1880 1944 1816 -1815 0
-3928 1880 3864 1816 -1815 0
-1816 1944 0
-3992 1944 3864 1816 -1815 0
-1816 3864 0
-1824 1819 0
-1820 1824 0
-1888 1824 1884 1820 -1819 0
-3872 1824 3868 1820 -1819 0
-1852 1819 0
-1820 1852 0
-1916 1852 1884 1820 -1819 0
-1820 1884 0
-2012 1884 1948 1820 -1819 0
-3932 1884 3868 1820 -1819 0
-1820 1948 0
-3996 1948 3868 1820 -1819 0
-3868 1819 0
-1820 3868 0
-1824 1856 0
-1920 1856 1888 1824 -1823 0
-1824 1888 0
-1824 1952 0
-1824 3872 0
-1827 1831 0
-1832 1827 0
-1828 1832 0
-1840 1832 1836 1828 -1827 0
-1896 1832 1892 1828 -1827 0
-1960 1832 1956 1828 -1827 0
-3880 1832 3876 1828 -1827 0
-1827 1835 0
-1836 1827 0
-1828 1836 0
-1852 1836 1844 1828 -1827 0
-1900 1836 1892 1828 -1827 0
-1964 1836 1956 1828 -1827 0
-3884 1836 3876 1828 -1827 0
-1827 1843 0
-1844 1827 0
-1828 1844 0
-1908 1844 1892 1828 -1827 0
-1972 1844 1956 1828 -1827 0
-3892 1844 3876 1828 -1827 0
-1827 1891 0
-1828 1892 0
-2020 1892 1956 1828 -1827 0
-3940 1892 3876 1828 -1827 0
-1956 1827 0
-1828 1956 0
-4004 1956 3876 1828 -1827 0
-1827 3875 0
-3876 1827 0
-1828 3876 0
-1840 1831 0
-1832 1840 0
-1968 1840 1960 1832 -1831 0
-1832 1848 0
-1912 1848 1896 1832 -1831 0
-1976 1848 1960 1832 -1831 0
-1832 1896 0
-3944 1896 3880 1832 -1831 0
-1832 1960 0
-1832 3880 0
-1840 1835 0
-1836 1840 0
-1904 1840 1900 1836 -1835 0
-3888 1840 3884 1836 -1835 0
-1852 1835 0
-1836 1852 0
-1916 1852 1900 1836 -1835 0
-1900 1835 0
-1836 1900 0
-2028 1900 1964 1836 -1835 0
-3948 1900 3884 1836 -1835 0
-1964 1835 0
-1836 1964 0
-4012 1964 3884 1836 -1835 0
-1836 3884 0
-1840 1856 0
-1920 1856 1904 1840 -1839 0
-1984 1856 1968 1840 -1839 0
-1840 1904 0
-1840 1968 0
-1840 3888 0
-1848 1843 0
-1844 1848 0
-1912 1848 1908 1844 -1843 0
-3896 1848 3892 1844 -1843 0
-1852 1843 0
-1844 1852 0
-1916 1852 1908 1844 -1843 0
-2036 1908 1972 1844 -1843 0
-3956 1908 3892 1844 -1843 0
-1844 3892 0
-1848 1856 0
-1920 1856 1912 1848 -1847 0
-1984 1856 1976 1848 -1847 0
-1848 3896 0
-1852 1856 0
-1920 1856 1916 1852 -1851 0
-1984 1856 1980 1852 -1851 0
-1852 1916 0
-1852 1980 0
-1852 3900 0
-1859 1863 0
-1864 1859 0
-1860 1864 0
-1872 1864 1868 1860 -1859 0
-1880 1864 1876 1860 -1859 0
-1896 1864 1892 1860 -1859 0
-1992 1864 1988 1860 -1859 0
-3912 1864 3908 1860 -1859 0
-1859 1867 0
-1868 1859 0
-1860 1868 0
-1884 1868 1876 1860 -1859 0
-1900 1868 1892 1860 -1859 0
-1996 1868 1988 1860 -1859 0
-3916 1868 3908 1860 -1859 0
-1876 1859 0
-1860 1876 0
-1908 1876 1892 1860 -1859 0
-2004 1876 1988 1860 -1859 0
-3924 1876 3908 1860 -1859 0
-1892 1859 0
-1860 1892 0
-2020 1892 1988 1860 -1859 0
-1859 1987 0
-1860 1988 0
-4035 1987 3907 1859 -1858 0
-4036 1988 3908 1860 -1859 0
-1859 3907 0
-3908 1859 0
-1860 3908 0
-1872 1863 0
-2000 1872 1992 1864 -1863 0
-3920 1872 3912 1864 -1863 0
-1864 1880 0
-2008 1880 1992 1864 -1863 0
-3928 1880 3912 1864 -1863 0
-1864 1896 0
-2024 1896 1992 1864 -1863 0
-3944 1896 3912 1864 -1863 0
-1864 1992 0
-4040 1992 3912 1864 -1863 0
-1864 3912 0
-3920 1872 3916 1868 -1867 0
-1884 1867 0
-1868 1884 0
-2012 1884 1996 1868 -1867 0
-3932 1884 3916 1868 -1867 0
-1900 1867 0
-2028 1900 1996 1868 -1867 0
-3948 1900 3916 1868 -1867 0
-1868 1996 0
-4044 1996 3916 1868 -1867 0
-1868 3916 0
-1872 2000 0
-4048 2000 3920 1872 -1871 0
-1872 3920 0
-1876 1880 0
-2008 1880 2004 1876 -1875 0
-1884 1875 0
-1876 1884 0
-2012 1884 2004 1876 -1875 0
-3932 1884 3924 1876 -1875 0
-1876 1908 0
-3956 1908 3924 1876 -1875 0
-1876 2004 0
-4052 2004 3924 1876 -1875 0
-1876 3924 0
-1880 2008 0
-4056 2008 3928 1880 -1879 0
-1880 3928 0
-1884 2012 0
-4060 2012 3932 1884 -1883 0
-1884 3932 0
-1896 1891 0
-1892 1896 0
-2024 1896 2020 1892 -1891 0
-3944 1896 3940 1892 -1891 0
-1892 1900 0
-3948 1900 3940 1892 -1891 0
-1892 1908 0
-2036 1908 2020 1892 -1891 0
-3956 1908 3940 1892 -1891 0
-1892 2020 0
-4068 2020 3940 1892 -1891 0
-1892 3940 0
-1896 2024 0
-4072 2024 3944 1896 -1895 0
-1896 3944 0
-1900 2028 0
-4076 2028 3948 1900 -1899 0
-4084 2036 3956 1908 -1907 0
-1908 3956 0
-1923 1927 0
-1928 1923 0
-1924 1928 0
-1936 1928 1932 1924 -1923 0
-1944 1928 1940 1924 -1923 0
-1960 1928 1956 1924 -1923 0
-1992 1928 1988 1924 -1923 0
-3976 1928 3972 1924 -1923 0
-1923 1931 0
-1932 1923 0
-1924 1932 0
-1948 1932 1940 1924 -1923 0
-1964 1932 1956 1924 -1923 0
-1996 1932 1988 1924 -1923 0
-3980 1932 3972 1924 -1923 0
-1940 1923 0
-1924 1940 0
-1972 1940 1956 1924 -1923 0
-3988 1940 3972 1924 -1923 0
-1956 1923 0
-1924 1956 0
-2020 1956 1988 1924 -1923 0
-1923 1987 0
-1988 1923 0
-1924 1988 0
-4035 1987 3971 1923 -1922 0
-4036 1988 3972 1924 -1923 0
-1923 3971 0
-3972 1923 0
-1924 3972 0
-1968 1936 1960 1928 -1927 0
-2000 1936 1992 1928 -1927 0
-1928 1944 0
-2008 1944 1992 1928 -1927 0
-3992 1944 3976 1928 -1927 0
-1960 1927 0
-1928 1960 0
-2024 1960 1992 1928 -1927 0
-4008 1960 3976 1928 -1927 0
-1928 1992 0
-4040 1992 3976 1928 -1927 0
-1928 3976 0
-1932 1936 0
-2000 1936 1996 1932 -1931 0
-3984 1936 3980 1932 -1931 0
-1932 1948 0
-2012 1948 1996 1932 -1931 0
-3996 1948 3980 1932 -1931 0
-1964 1931 0
-1932 1964 0
-2028 1964 1996 1932 -1931 0
-4012 1964 3980 1932 -1931 0
-1932 1996 0
-4044 1996 3980 1932 -1931 0
-1932 3980 0
-4048 2000 3984 1936 -1935 0
-1936 3984 0
-1940 1944 0
-2008 1944 2004 1940 -1939 0
-3992 1944 3988 1940 -1939 0
-1948 1939 0
-1940 1948 0
-2012 1948 2004 1940 -1939 0
-3996 1948 3988 1940 -1939 0
-1940 1972 0
-4020 1972 3988 1940 -1939 0
-1940 2004 0
-4052 2004 3988 1940 -1939 0
-1940 3988 0
-1944 2008 0
-4056 2008 3992 1944 -1943 0
-1944 3992 0
-1948 2012 0
-4060 2012 3996 1948 -1947 0
-1948 3996 0
-1960 1955 0
-1956 1960 0
-1968 1960 1964 1956 -1955 0
-2024 1960 2020 1956 -1955 0
-4008 1960 4004 1956 -1955 0
-1956 1964 0
-2028 1964 2020 1956 -1955 0
-1956 1972 0
-2036 1972 2020 1956 -1955 0
-4020 1972 4004 1956 -1955 0
-1956 2020 0
-1956 4004 0
-1960 2024 0
-4072 2024 4008 1960 -1959 0
-1960 4008 0
-1964 2028 0
-4076 2028 4012 1964 -1963 0
-1964 4012 0
-4084 2036 4020 1972 -1971 0
-1972 4020 0
-1992 1987 0
-1988 1992 0
-2000 1992 1996 1988 -1987 0
-2008 1992 2004 1988 -1987 0
-2024 1992 2020 1988 -1987 0
-4040 1992 4036 1988 -1987 0
-1996 1987 0
-1988 1996 0
-2028 1996 2020 1988 -1987 0
-2004 1987 0
-1988 2004 0
-2036 2004 2020 1988 -1987 0
-4052 2004 4036 1988 -1987 0
-1988 2020 0
-4068 2020 4036 1988 -1987 0
-4036 1987 0
-1988 4036 0
-4048 2000 4040 1992 -1991 0
-1992 2008 0
-4056 2008 4040 1992 -1991 0
-1992 4040 0
-4048 2000 4044 1996 -1995 0
-1996 2012 0
-4076 2028 4044 1996 -1995 0
-1996 4044 0
-4056 2008 4052 2004 -2003 0
-2004 2012 0
-4060 2012 4052 2004 -2003 0
-2004 2036 0
-4084 2036 4052 2004 -2003 0
-2004 4052 0
-2020 2024 0
-4072 2024 4068 2020 -2019 0
-2020 2028 0
-4076 2028 4068 2020 -2019 0
-4084 2036 4068 2020 -2019 0
-2020 4068 0
-2242 2114 2178 2050 -2049 0
-2370 2114 2306 2050 -2049 0
-2626 2114 2562 2050 -2049 0
-3138 2114 3074 2050 -2049 0
-2434 2178 2306 2050 -2049 0
-2690 2178 2562 2050 -2049 0
-3202 2178 3074 2050 -2049 0
-3330 2306 3074 2050 -2049 0
-3586 2562 3074 2050 -2049 0
-2063 2054 0
-2079 2063 2071 2055 -2054 0
-2095 2063 2087 2055 -2054 0
-2319 2063 2311 2055 -2054 0
-3087 2063 3079 2055 -2054 0
-2071 2054 0
-2103 2071 2087 2055 -2054 0
-2135 2071 2119 2055 -2054 0
-2199 2071 2183 2055 -2054 0
-2327 2071 2311 2055 -2054 0
-2583 2071 2567 2055 -2054 0
-3095 2071 3079 2055 -2054 0
-2087 2054 0
-2151 2087 2119 2055 -2054 0
-2215 2087 2183 2055 -2054 0
-2343 2087 2311 2055 -2054 0
-2599 2087 2567 2055 -2054 0
-2247 2119 2183 2055 -2054 0
-2375 2119 2311 2055 -2054 0
-2631 2119 2567 2055 -2054 0
-3143 2119 3079 2055 -2054 0
-2439 2183 2311 2055 -2054 0
-2695 2183 2567 2055 -2054 0
-3207 2183 3079 2055 -2054 0
-2311 2054 0
-2823 2311 2567 2055 -2054 0
-3335 2311 3079 2055 -2054 0
-3591 2567 3079 2055 -2054 0
-2079 2063 2075 2059 -2058 0
-2095 2063 2091 2059 -2058 0
-2319 2063 2315 2059 -2058 0
-2575 2063 2571 2059 -2058 0
-3087 2063 3083 2059 -2058 0
-2075 2058 0
-2331 2075 2315 2059 -2058 0
-2587 2075 2571 2059 -2058 0
-3099 2075 3083 2059 -2058 0
-2091 2058 0
-2155 2091 2123 2059 -2058 0
-2219 2091 2187 2059 -2058 0
-2347 2091 2315 2059 -2058 0
-2603 2091 2571 2059 -2058 0
-3115 2091 3083 2059 -2058 0
-2251 2123 2187 2059 -2058 0
-2379 2123 2315 2059 -2058 0
-2635 2123 2571 2059 -2058 0
-3147 2123 3083 2059 -2058 0
-2443 2187 2315 2059 -2058 0
-2699 2187 2571 2059 -2058 0
-3211 2187 3083 2059 -2058 0
-2827 2315 2571 2059 -2058 0
-3339 2315 3083 2059 -2058 0
-3595 2571 3083 2059 -2058 0
-2144 2080 2128 2064 -2063 0
-2208 2080 2192 2064 -2063 0
-2336 2080 2320 2064 -2063 0
-2592 2080 2576 2064 -2063 0
-3104 2080 3088 2064 -2063 0
-2160 2096 2128 2064 -2063 0
-2224 2096 2192 2064 -2063 0
-2352 2096 2320 2064 -2063 0
-2608 2096 2576 2064 -2063 0
-3120 2096 3088 2064 -2063 0
-2063 2127 0
-2128 2063 0
-2256 2128 2192 2064 -2063 0
-2384 2128 2320 2064 -2063 0
-2640 2128 2576 2064 -2063 0
-3152 2128 3088 2064 -2063 0
-2063 2191 0
-2192 2063 0
-2448 2192 2320 2064 -2063 0
-2703 2191 2575 2063 -2062 0
-2704 2192 2576 2064 -2063 0
-3216 2192 3088 2064 -2063 0
-2063 2319 0
-2320 2063 0
-2832 2320 2576 2064 -2063 0
-3343 2319 3087 2063 -2062 0
-3344 2320 3088 2064 -2063 0
-2063 2575 0
-2576 2063 0
-3599 2575 3087 2063 -2062 0
-3600 2576 3088 2064 -2063 0
-2063 3087 0
-3088 2063 0
-2071 2066 0
-2103 2071 2099 2067 -2066 0
-2327 2071 2323 2067 -2066 0
-2583 2071 2579 2067 -2066 0
-3095 2071 3091 2067 -2066 0
-2075 2066 0
-2107 2075 2099 2067 -2066 0
-2139 2075 2131 2067 -2066 0
-2331 2075 2323 2067 -2066 0
-3099 2075 3091 2067 -2066 0
-2355 2099 2323 2067 -2066 0
-2611 2099 2579 2067 -2066 0
-2131 2066 0
-2259 2131 2195 2067 -2066 0
-2387 2131 2323 2067 -2066 0
-2643 2131 2579 2067 -2066 0
-3155 2131 3091 2067 -2066 0
-2451 2195 2323 2067 -2066 0
-2707 2195 2579 2067 -2066 0
-3219 2195 3091 2067 -2066 0
-2323 2066 0
-2835 2323 2579 2067 -2066 0
-3347 2323 3091 2067 -2066 0
-3603 2579 3091 2067 -2066 0
-2144 2080 2136 2072 -2071 0
-2208 2080 2200 2072 -2071 0
-2336 2080 2328 2072 -2071 0
-2592 2080 2584 2072 -2071 0
-3104 2080 3096 2072 -2071 0
-2168 2104 2136 2072 -2071 0
-2232 2104 2200 2072 -2071 0
-2360 2104 2328 2072 -2071 0
-2616 2104 2584 2072 -2071 0
-3128 2104 3096 2072 -2071 0
-2071 2135 0
-2136 2071 0
-2264 2136 2200 2072 -2071 0
-2391 2135 2327 2071 -2070 0
-2392 2136 2328 2072 -2071 0
-2647 2135 2583 2071 -2070 0
-2648 2136 2584 2072 -2071 0
-3159 2135 3095 2071 -2070 0
-3160 2136 3096 2072 -2071 0
-2071 2199 0
-2200 2071 0
-2456 2200 2328 2072 -2071 0
-2712 2200 2584 2072 -2071 0
-3224 2200 3096 2072 -2071 0
-2071 2327 0
-2328 2071 0
-2840 2328 2584 2072 -2071 0
-3351 2327 3095 2071 -2070 0
-3352 2328 3096 2072 -2071 0
-2071 2583 0
-2584 2071 0
-3607 2583 3095 2071 -2070 0
-3608 2584 3096 2072 -2071 0
-2071 3095 0
-3096 2071 0
-2144 2080 2140 2076 -2075 0
-2208 2080 2204 2076 -2075 0
-2336 2080 2332 2076 -2075 0
-2592 2080 2588 2076 -2075 0
-3104 2080 3100 2076 -2075 0
-2172 2108 2140 2076 -2075 0
-2236 2108 2204 2076 -2075 0
-2364 2108 2332 2076 -2075 0
-2620 2108 2588 2076 -2075 0
-3132 2108 3100 2076 -2075 0
-2075 2139 0
-2140 2075 0
-2267 2139 2203 2075 -2074 0
-2268 2140 2204 2076 -2075 0
-2395 2139 2331 2075 -2074 0
-2396 2140 2332 2076 -2075 0
-2651 2139 2587 2075 -2074 0
-2652 2140 2588 2076 -2075 0
-3163 2139 3099 2075 -2074 0
-3164 2140 3100 2076 -2075 0
-2075 2203 0
-2204 2075 0
-2459 2203 2331 2075 -2074 0
-2460 2204 2332 2076 -2075 0
-2716 2204 2588 2076 -2075 0
-3228 2204 3100 2076 -2075 0
-2075 2331 0
-2332 2075 0
-2843 2331 2587 2075 -2074 0
-2844 2332 2588 2076 -2075 0
-3355 2331 3099 2075 -2074 0
-3356 2332 3100 2076 -2075 0
-2075 2587 0
-2588 2075 0
-3612 2588 3100 2076 -2075 0
-2075 3099 0
-3100 2075 0
-2176 2112 2144 2080 -2079 0
-2272 2144 2208 2080 -2079 0
-2400 2144 2336 2080 -2079 0
-2656 2144 2592 2080 -2079 0
-3168 2144 3104 2080 -2079 0
-2464 2208 2336 2080 -2079 0
-2720 2208 2592 2080 -2079 0
-3232 2208 3104 2080 -2079 0
-2848 2336 2592 2080 -2079 0
-3360 2336 3104 2080 -2079 0
-3616 2592 3104 2080 -2079 0
-2087 2082 0
-2095 2087 2091 2083 -2082 0
-2103 2087 2099 2083 -2082 0
-2151 2087 2147 2083 -2082 0
-2215 2087 2211 2083 -2082 0
-2343 2087 2339 2083 -2082 0
-3111 2087 3107 2083 -2082 0
-2091 2082 0
-2107 2091 2099 2083 -2082 0
-2155 2091 2147 2083 -2082 0
-2219 2091 2211 2083 -2082 0
-2347 2091 2339 2083 -2082 0
-2603 2091 2595 2083 -2082 0
-3115 2091 3107 2083 -2082 0
-2099 2082 0
-2163 2099 2147 2083 -2082 0
-2355 2099 2339 2083 -2082 0
-2611 2099 2595 2083 -2082 0
-3123 2099 3107 2083 -2082 0
-2147 2082 0
-2275 2147 2211 2083 -2082 0
-2403 2147 2339 2083 -2082 0
-2659 2147 2595 2083 -2082 0
-3171 2147 3107 2083 -2082 0
-2467 2211 2339 2083 -2082 0
-2723 2211 2595 2083 -2082 0
-3235 2211 3107 2083 -2082 0
-2851 2339 2595 2083 -2082 0
-3363 2339 3107 2083 -2082 0
-3619 2595 3107 2083 -2082 0
-2160 2096 2152 2088 -2087 0
-2224 2096 2216 2088 -2087 0
-2352 2096 2344 2088 -2087 0
-2608 2096 2600 2088 -2087 0
-3120 2096 3112 2088 -2087 0
-2168 2104 2152 2088 -2087 0
-2232 2104 2216 2088 -2087 0
-2360 2104 2344 2088 -2087 0
-2616 2104 2600 2088 -2087 0
-3128 2104 3112 2088 -2087 0
-2087 2151 0
-2152 2087 0
-2280 2152 2216 2088 -2087 0
-2407 2151 2343 2087 -2086 0
-2408 2152 2344 2088 -2087 0
-2663 2151 2599 2087 -2086 0
-2664 2152 2600 2088 -2087 0
-3175 2151 3111 2087 -2086 0
-3176 2152 3112 2088 -2087 0
-2087 2215 0
-2216 2087 0
-2472 2216 2344 2088 -2087 0
-2728 2216 2600 2088 -2087 0
-3240 2216 3112 2088 -2087 0
-2087 2343 0
-2344 2087 0
-2856 2344 2600 2088 -2087 0
-3367 2343 3111 2087 -2086 0
-3368 2344 3112 2088 -2087 0
-2087 2599 0
-2600 2087 0
-3624 2600 3112 2088 -2087 0
-2087 3111 0
-3112 2087 0
-2160 2096 2156 2092 -2091 0
-2224 2096 2220 2092 -2091 0
-2352 2096 2348 2092 -2091 0
-2608 2096 2604 2092 -2091 0
-3120 2096 3116 2092 -2091 0
-2172 2108 2156 2092 -2091 0
-2236 2108 2220 2092 -2091 0
-2364 2108 2348 2092 -2091 0
-2620 2108 2604 2092 -2091 0
-3132 2108 3116 2092 -2091 0
-2091 2155 0
-2156 2091 0
-2284 2156 2220 2092 -2091 0
-2412 2156 2348 2092 -2091 0
-2668 2156 2604 2092 -2091 0
-3180 2156 3116 2092 -2091 0
-2091 2219 0
-2220 2091 0
-2475 2219 2347 2091 -2090 0
-2476 2220 2348 2092 -2091 0
-2732 2220 2604 2092 -2091 0
-3244 2220 3116 2092 -2091 0
-2091 2347 0
-2348 2091 0
-2859 2347 2603 2091 -2090 0
-2860 2348 2604 2092 -2091 0
-3372 2348 3116 2092 -2091 0
-2091 2603 0
-2604 2091 0
-3628 2604 3116 2092 -2091 0
-2091 3115 0
-3116 2091 0
-2288 2160 2224 2096 -2095 0
-2416 2160 2352 2096 -2095 0
-2672 2160 2608 2096 -2095 0
-3184 2160 3120 2096 -2095 0
-2480 2224 2352 2096 -2095 0
-2736 2224 2608 2096 -2095 0
-3248 2224 3120 2096 -2095 0
-2864 2352 2608 2096 -2095 0
-3376 2352 3120 2096 -2095 0
-3632 2608 3120 2096 -2095 0
-2168 2104 2164 2100 -2099 0
-2232 2104 2228 2100 -2099 0
-2360 2104 2356 2100 -2099 0
-2616 2104 2612 2100 -2099 0
-3128 2104 3124 2100 -2099 0
-2172 2108 2164 2100 -2099 0
-2236 2108 2228 2100 -2099 0
-2364 2108 2356 2100 -2099 0
-2620 2108 2612 2100 -2099 0
-3132 2108 3124 2100 -2099 0
-2099 2163 0
-2164 2099 0
-2292 2164 2228 2100 -2099 0
-2420 2164 2356 2100 -2099 0
-2676 2164 2612 2100 -2099 0
-3188 2164 3124 2100 -2099 0
-2099 2227 0
-2228 2099 0
-2484 2228 2356 2100 -2099 0
-2739 2227 2611 2099 -2098 0
-2740 2228 2612 2100 -2099 0
-3252 2228 3124 2100 -2099 0
-2099 2355 0
-2356 2099 0
-2868 2356 2612 2100 -2099 0
-3380 2356 3124 2100 -2099 0
-2099 2611 0
-2612 2099 0
-3636 2612 3124 2100 -2099 0
-2099 3123 0
-3124 2099 0
-2176 2112 2168 2104 -2103 0
-2296 2168 2232 2104 -2103 0
-2424 2168 2360 2104 -2103 0
-2680 2168 2616 2104 -2103 0
-3192 2168 3128 2104 -2103 0
-2488 2232 2360 2104 -2103 0
-2744 2232 2616 2104 -2103 0
-3256 2232 3128 2104 -2103 0
-2872 2360 2616 2104 -2103 0
-3384 2360 3128 2104 -2103 0
-3640 2616 3128 2104 -2103 0
-2624 2112 2620 2108 -2107 0
-2300 2172 2236 2108 -2107 0
-2428 2172 2364 2108 -2107 0
-2684 2172 2620 2108 -2107 0
-3196 2172 3132 2108 -2107 0
-2492 2236 2364 2108 -2107 0
-2748 2236 2620 2108 -2107 0
-3260 2236 3132 2108 -2107 0
-2876 2364 2620 2108 -2107 0
-3388 2364 3132 2108 -2107 0
-3644 2620 3132 2108 -2107 0
-2304 2176 2240 2112 -2111 0
-2432 2176 2368 2112 -2111 0
-2688 2176 2624 2112 -2111 0
-3200 2176 3136 2112 -2111 0
-2496 2240 2368 2112 -2111 0
-2752 2240 2624 2112 -2111 0
-3264 2240 3136 2112 -2111 0
-2880 2368 2624 2112 -2111 0
-3392 2368 3136 2112 -2111 0
-3648 2624 3136 2112 -2111 0
-2119 2114 0
-2127 2119 2123 2115 -2114 0
-2135 2119 2131 2115 -2114 0
-2151 2119 2147 2115 -2114 0
-2247 2119 2243 2115 -2114 0
-2375 2119 2371 2115 -2114 0
-2631 2119 2627 2115 -2114 0
-3143 2119 3139 2115 -2114 0
-2123 2114 0
-2139 2123 2131 2115 -2114 0
-2155 2123 2147 2115 -2114 0
-2251 2123 2243 2115 -2114 0
-2379 2123 2371 2115 -2114 0
-2635 2123 2627 2115 -2114 0
-3147 2123 3139 2115 -2114 0
-2131 2114 0
-2163 2131 2147 2115 -2114 0
-2259 2131 2243 2115 -2114 0
-2387 2131 2371 2115 -2114 0
-3155 2131 3139 2115 -2114 0
-2147 2114 0
-2275 2147 2243 2115 -2114 0
-2403 2147 2371 2115 -2114 0
-2659 2147 2627 2115 -2114 0
-3171 2147 3139 2115 -2114 0
-2243 2114 0
-2499 2243 2371 2115 -2114 0
-2755 2243 2627 2115 -2114 0
-3267 2243 3139 2115 -2114 0
-2371 2114 0
-2883 2371 2627 2115 -2114 0
-3395 2371 3139 2115 -2114 0
-2627 2114 0
-3651 2627 3139 2115 -2114 0
-2119 2127 0
-2128 2119 0
-2144 2128 2136 2120 -2119 0
-2160 2128 2152 2120 -2119 0
-2256 2128 2248 2120 -2119 0
-2384 2128 2376 2120 -2119 0
-2640 2128 2632 2120 -2119 0
-3152 2128 3144 2120 -2119 0
-2119 2135 0
-2136 2119 0
-2168 2136 2152 2120 -2119 0
-2264 2136 2248 2120 -2119 0
-2391 2135 2375 2119 -2118 0
-2392 2136 2376 2120 -2119 0
-2648 2136 2632 2120 -2119 0
-3160 2136 3144 2120 -2119 0
-2119 2151 0
-2152 2119 0
-2280 2152 2248 2120 -2119 0
-2407 2151 2375 2119 -2118 0
-2408 2152 2376 2120 -2119 0
-2664 2152 2632 2120 -2119 0
-3175 2151 3143 2119 -2118 0
-3176 2152 3144 2120 -2119 0
-2119 2247 0
-2248 2119 0
-2503 2247 2375 2119 -2118 0
-2504 2248 2376 2120 -2119 0
-2760 2248 2632 2120 -2119 0
-3272 2248 3144 2120 -2119 0
-2119 2375 0
-2376 2119 0
-2888 2376 2632 2120 -2119 0
-3400 2376 3144 2120 -2119 0
-2119 2631 0
-2632 2119 0
-3656 2632 3144 2120 -2119 0
-2119 3143 0
-3144 2119 0
-2123 2127 0
-2128 2123 0
-2144 2128 2140 2124 -2123 0
-2160 2128 2156 2124 -2123 0
-2256 2128 2252 2124 -2123 0
-2384 2128 2380 2124 -2123 0
-2640 2128 2636 2124 -2123 0
-3152 2128 3148 2124 -2123 0
-2123 2139 0
-2140 2123 0
-2172 2140 2156 2124 -2123 0
-2267 2139 2251 2123 -2122 0
-2268 2140 2252 2124 -2123 0
-2396 2140 2380 2124 -2123 0
-2651 2139 2635 2123 -2122 0
-2652 2140 2636 2124 -2123 0
-3163 2139 3147 2123 -2122 0
-3164 2140 3148 2124 -2123 0
-2123 2155 0
-2156 2123 0
-2284 2156 2252 2124 -2123 0
-2411 2155 2379 2123 -2122 0
-2412 2156 2380 2124 -2123 0
-2668 2156 2636 2124 -2123 0
-3179 2155 3147 2123 -2122 0
-3180 2156 3148 2124 -2123 0
-2123 2251 0
-2252 2123 0
-2507 2251 2379 2123 -2122 0
-2508 2252 2380 2124 -2123 0
-2763 2251 2635 2123 -2122 0
-2764 2252 2636 2124 -2123 0
-3275 2251 3147 2123 -2122 0
-3276 2252 3148 2124 -2123 0
-2123 2379 0
-2380 2123 0
-2891 2379 2635 2123 -2122 0
-2892 2380 2636 2124 -2123 0
-3403 2379 3147 2123 -2122 0
-3404 2380 3148 2124 -2123 0
-2123 2635 0
-2636 2123 0
-3660 2636 3148 2124 -2123 0
-2123 3147 0
-3148 2123 0
-2144 2127 0
-2128 2144 0
-2272 2144 2256 2128 -2127 0
-2400 2144 2384 2128 -2127 0
-2656 2144 2640 2128 -2127 0
-3168 2144 3152 2128 -2127 0
-2160 2127 0
-2128 2160 0
-2288 2160 2256 2128 -2127 0
-2416 2160 2384 2128 -2127 0
-2672 2160 2640 2128 -2127 0
-3184 2160 3152 2128 -2127 0
-2127 2255 0
-2256 2127 0
-2128 2256 0
-2512 2256 2384 2128 -2127 0
-3280 2256 3152 2128 -2127 0
-2127 2383 0
-2128 2384 0
-2896 2384 2640 2128 -2127 0
-2127 2639 0
-2640 2127 0
-2128 2640 0
-2127 3151 0
-3152 2127 0
-2128 3152 0
-2131 2135 0
-2136 2131 0
-2144 2136 2140 2132 -2131 0
-2168 2136 2164 2132 -2131 0
-2264 2136 2260 2132 -2131 0
-2391 2135 2387 2131 -2130 0
-2392 2136 2388 2132 -2131 0
-2648 2136 2644 2132 -2131 0
-3160 2136 3156 2132 -2131 0
-2131 2139 0
-2140 2131 0
-2172 2140 2164 2132 -2131 0
-2267 2139 2259 2131 -2130 0
-2268 2140 2260 2132 -2131 0
-2396 2140 2388 2132 -2131 0
-2651 2139 2643 2131 -2130 0
-2652 2140 2644 2132 -2131 0
-3164 2140 3156 2132 -2131 0
-2131 2163 0
-2164 2131 0
-2292 2164 2260 2132 -2131 0
-2420 2164 2388 2132 -2131 0
-2676 2164 2644 2132 -2131 0
-3188 2164 3156 2132 -2131 0
-2131 2259 0
-2260 2131 0
-2516 2260 2388 2132 -2131 0
-2771 2259 2643 2131 -2130 0
-2772 2260 2644 2132 -2131 0
-3283 2259 3155 2131 -2130 0
-3284 2260 3156 2132 -2131 0
-2131 2387 0
-2388 2131 0
-2899 2387 2643 2131 -2130 0
-2900 2388 2644 2132 -2131 0
-3412 2388 3156 2132 -2131 0
-2131 2643 0
-2644 2131 0
-3668 2644 3156 2132 -2131 0
-2131 3155 0
-3156 2131 0
-2144 2135 0
-2136 2144 0
-2176 2144 2168 2136 -2135 0
-2272 2144 2264 2136 -2135 0
-2400 2144 2392 2136 -2135 0
-2656 2144 2648 2136 -2135 0
-3168 2144 3160 2136 -2135 0
-2168 2135 0
-2136 2168 0
-2296 2168 2264 2136 -2135 0
-2424 2168 2392 2136 -2135 0
-2680 2168 2648 2136 -2135 0
-3192 2168 3160 2136 -2135 0
-2135 2263 0
-2264 2135 0
-2136 2264 0
-2520 2264 2392 2136 -2135 0
-3288 2264 3160 2136 -2135 0
-2135 2391 0
-2392 2135 0
-2136 2392 0
-2904 2392 2648 2136 -2135 0
-3416 2392 3160 2136 -2135 0
-2135 2647 0
-2648 2135 0
-2136 2648 0
-3672 2648 3160 2136 -2135 0
-3160 2135 0
-2136 3160 0
-2144 2139 0
-2140 2144 0
-2272 2144 2268 2140 -2139 0
-2400 2144 2396 2140 -2139 0
-2656 2144 2652 2140 -2139 0
-3168 2144 3164 2140 -2139 0
-2172 2139 0
-2140 2172 0
-2300 2172 2268 2140 -2139 0
-2428 2172 2396 2140 -2139 0
-2684 2172 2652 2140 -2139 0
-3196 2172 3164 2140 -2139 0
-2139 2267 0
-2268 2139 0
-2140 2268 0
-2524 2268 2396 2140 -2139 0
-2780 2268 2652 2140 -2139 0
-3292 2268 3164 2140 -2139 0
-2396 2139 0
-2140 2396 0
-2908 2396 2652 2140 -2139 0
-3419 2395 3163 2139 -2138 0
-3420 2396 3164 2140 -2139 0
-2139 2651 0
-2652 2139 0
-2140 2652 0
-3676 2652 3164 2140 -2139 0
-2139 3163 0
-3164 2139 0
-2140 3164 0
-2144 2176 0
-2304 2176 2272 2144 -2143 0
-2432 2176 2400 2144 -2143 0
-2688 2176 2656 2144 -2143 0
-3200 2176 3168 2144 -2143 0
-2144 2272 0
-2528 2272 2400 2144 -2143 0
-2784 2272 2656 2144 -2143 0
-3296 2272 3168 2144 -2143 0
-2144 2400 0
-2912 2400 2656 2144 -2143 0
-3424 2400 3168 2144 -2143 0
-2144 2656 0
-2144 3168 0
-2147 2151 0
-2152 2147 0
-2160 2152 2156 2148 -2147 0
-2168 2152 2164 2148 -2147 0
-2280 2152 2276 2148 -2147 0
-2407 2151 2403 2147 -2146 0
-2408 2152 2404 2148 -2147 0
-2664 2152 2660 2148 -2147 0
-3175 2151 3171 2147 -2146 0
-3176 2152 3172 2148 -2147 0
-2147 2155 0
-2156 2147 0
-2172 2156 2164 2148 -2147 0
-2284 2156 2276 2148 -2147 0
-2411 2155 2403 2147 -2146 0
-2412 2156 2404 2148 -2147 0
-2667 2155 2659 2147 -2146 0
-2668 2156 2660 2148 -2147 0
-3179 2155 3171 2147 -2146 0
-3180 2156 3172 2148 -2147 0
-2147 2163 0
-2164 2147 0
-2292 2164 2276 2148 -2147 0
-2420 2164 2404 2148 -2147 0
-2676 2164 2660 2148 -2147 0
-3188 2164 3172 2148 -2147 0
-2147 2275 0
-2276 2147 0
-2532 2276 2404 2148 -2147 0
-2787 2275 2659 2147 -2146 0
-2788 2276 2660 2148 -2147 0
-3300 2276 3172 2148 -2147 0
-2147 2403 0
-2404 2147 0
-2916 2404 2660 2148 -2147 0
-3428 2404 3172 2148 -2147 0
-2147 2659 0
-2660 2147 0
-3684 2660 3172 2148 -2147 0
-2147 3171 0
-3172 2147 0
-2160 2151 0
-2152 2160 0
-2288 2160 2280 2152 -2151 0
-2416 2160 2408 2152 -2151 0
-2672 2160 2664 2152 -2151 0
-3184 2160 3176 2152 -2151 0
-2152 2168 0
-2296 2168 2280 2152 -2151 0
-2424 2168 2408 2152 -2151 0
-2680 2168 2664 2152 -2151 0
-3192 2168 3176 2152 -2151 0
-2151 2279 0
-2280 2151 0
-2152 2280 0
-2536 2280 2408 2152 -2151 0
-2792 2280 2664 2152 -2151 0
-3304 2280 3176 2152 -2151 0
-2151 2407 0
-2408 2151 0
-2152 2408 0
-2920 2408 2664 2152 -2151 0
-3432 2408 3176 2152 -2151 0
-2151 2663 0
-2664 2151 0
-2152 2664 0
-3688 2664 3176 2152 -2151 0
-2151 3175 0
-3176 2151 0
-2152 3176 0
-2160 2155 0
-2156 2160 0
-2288 2160 2284 2156 -2155 0
-2416 2160 2412 2156 -2155 0
-2672 2160 2668 2156 -2155 0
-3184 2160 3180 2156 -2155 0
-2172 2155 0
-2156 2172 0
-2300 2172 2284 2156 -2155 0
-2428 2172 2412 2156 -2155 0
-2684 2172 2668 2156 -2155 0
-3196 2172 3180 2156 -2155 0
-2155 2283 0
-2284 2155 0
-2156 2284 0
-2540 2284 2412 2156 -2155 0
-2796 2284 2668 2156 -2155 0
-3308 2284 3180 2156 -2155 0
-2155 2411 0
-2412 2155 0
-2156 2412 0
-2924 2412 2668 2156 -2155 0
-3436 2412 3180 2156 -2155 0
-2155 2667 0
-2668 2155 0
-2156 2668 0
-3692 2668 3180 2156 -2155 0
-2155 3179 0
-3180 2155 0
-2156 3180 0
-2160 2176 0
-2304 2176 2288 2160 -2159 0
-2432 2176 2416 2160 -2159 0
-2688 2176 2672 2160 -2159 0
-3200 2176 3184 2160 -2159 0
-2160 2288 0
-2544 2288 2416 2160 -2159 0
-3312 2288 3184 2160 -2159 0
-2160 2416 0
-2928 2416 2672 2160 -2159 0
-3440 2416 3184 2160 -2159 0
-2160 2672 0
-3696 2672 3184 2160 -2159 0
-2160 3184 0
-2168 2163 0
-2164 2168 0
-2296 2168 2292 2164 -2163 0
-2424 2168 2420 2164 -2163 0
-2680 2168 2676 2164 -2163 0
-3192 2168 3188 2164 -2163 0
-2172 2163 0
-2164 2172 0
-2300 2172 2292 2164 -2163 0
-2428 2172 2420 2164 -2163 0
-2684 2172 2676 2164 -2163 0
-3196 2172 3188 2164 -2163 0
-2163 2291 0
-2292 2163 0
-2164 2292 0
-2548 2292 2420 2164 -2163 0
-2804 2292 2676 2164 -2163 0
-3316 2292 3188 2164 -2163 0
-2163 2419 0
-2420 2163 0
-2164 2420 0
-2932 2420 2676 2164 -2163 0
-3444 2420 3188 2164 -2163 0
-2163 2675 0
-2676 2163 0
-2164 2676 0
-3700 2676 3188 2164 -2163 0
-3188 2163 0
-2164 3188 0
-2168 2176 0
-2304 2176 2296 2168 -2167 0
-2688 2176 2680 2168 -2167 0
-3200 2176 3192 2168 -2167 0
-2168 2296 0
-2552 2296 2424 2168 -2167 0
-2808 2296 2680 2168 -2167 0
-3320 2296 3192 2168 -2167 0
-2168 2424 0
-2936 2424 2680 2168 -2167 0
-3448 2424 3192 2168 -2167 0
-2168 2680 0
-3704 2680 3192 2168 -2167 0
-2168 3192 0
-2172 2176 0
-2304 2176 2300 2172 -2171 0
-2432 2176 2428 2172 -2171 0
-2688 2176 2684 2172 -2171 0
-3200 2176 3196 2172 -2171 0
-2172 2300 0
-2812 2300 2684 2172 -2171 0
-3324 2300 3196 2172 -2171 0
-2172 2428 0
-2940 2428 2684 2172 -2171 0
-3452 2428 3196 2172 -2171 0
-2172 2684 0
-3708 2684 3196 2172 -2171 0
-2172 3196 0
-2176 2304 0
-2560 2304 2432 2176 -2175 0
-2816 2304 2688 2176 -2175 0
-3328 2304 3200 2176 -2175 0
-2176 2432 0
-2944 2432 2688 2176 -2175 0
-3456 2432 3200 2176 -2175 0
-3712 2688 3200 2176 -2175 0
-2176 3200 0
-2183 2178 0
-2191 2183 2187 2179 -2178 0
-2199 2183 2195 2179 -2178 0
-2215 2183 2211 2179 -2178 0
-2247 2183 2243 2179 -2178 0
-2439 2183 2435 2179 -2178 0
-2695 2183 2691 2179 -2178 0
-3207 2183 3203 2179 -2178 0
-2187 2178 0
-2203 2187 2195 2179 -2178 0
-2219 2187 2211 2179 -2178 0
-2251 2187 2243 2179 -2178 0
-2443 2187 2435 2179 -2178 0
-2699 2187 2691 2179 -2178 0
-2195 2178 0
-2227 2195 2211 2179 -2178 0
-2259 2195 2243 2179 -2178 0
-2451 2195 2435 2179 -2178 0
-2707 2195 2691 2179 -2178 0
-3219 2195 3203 2179 -2178 0
-2211 2178 0
-2275 2211 2243 2179 -2178 0
-2467 2211 2435 2179 -2178 0
-2723 2211 2691 2179 -2178 0
-3235 2211 3203 2179 -2178 0
-2243 2178 0
-2499 2243 2435 2179 -2178 0
-2755 2243 2691 2179 -2178 0
-3267 2243 3203 2179 -2178 0
-2435 2178 0
-2947 2435 2691 2179 -2178 0
-3459 2435 3203 2179 -2178 0
-2691 2178 0
-3715 2691 3203 2179 -2178 0
-3203 2178 0
-2183 2191 0
-2192 2183 0
-2208 2192 2200 2184 -2183 0
-2224 2192 2216 2184 -2183 0
-2255 2191 2247 2183 -2182 0
-2256 2192 2248 2184 -2183 0
-2447 2191 2439 2183 -2182 0
-2448 2192 2440 2184 -2183 0
-2704 2192 2696 2184 -2183 0
-3215 2191 3207 2183 -2182 0
-3216 2192 3208 2184 -2183 0
-2183 2199 0
-2200 2183 0
-2232 2200 2216 2184 -2183 0
-2263 2199 2247 2183 -2182 0
-2264 2200 2248 2184 -2183 0
-2456 2200 2440 2184 -2183 0
-2712 2200 2696 2184 -2183 0
-3224 2200 3208 2184 -2183 0
-2183 2215 0
-2216 2183 0
-2280 2216 2248 2184 -2183 0
-2472 2216 2440 2184 -2183 0
-2728 2216 2696 2184 -2183 0
-3240 2216 3208 2184 -2183 0
-2183 2247 0
-2248 2183 0
-2503 2247 2439 2183 -2182 0
-2504 2248 2440 2184 -2183 0
-2759 2247 2695 2183 -2182 0
-2760 2248 2696 2184 -2183 0
-3271 2247 3207 2183 -2182 0
-3272 2248 3208 2184 -2183 0
-2183 2439 0
-2440 2183 0
-2952 2440 2696 2184 -2183 0
-3464 2440 3208 2184 -2183 0
-2183 2695 0
-2696 2183 0
-3720 2696 3208 2184 -2183 0
-2183 3207 0
-3208 2183 0
-2187 2191 0
-2192 2187 0
-2208 2192 2204 2188 -2187 0
-2224 2192 2220 2188 -2187 0
-2255 2191 2251 2187 -2186 0
-2256 2192 2252 2188 -2187 0
-2447 2191 2443 2187 -2186 0
-2448 2192 2444 2188 -2187 0
-2704 2192 2700 2188 -2187 0
-3216 2192 3212 2188 -2187 0
-2187 2203 0
-2204 2187 0
-2236 2204 2220 2188 -2187 0
-2267 2203 2251 2187 -2186 0
-2268 2204 2252 2188 -2187 0
-2459 2203 2443 2187 -2186 0
-2460 2204 2444 2188 -2187 0
-2716 2204 2700 2188 -2187 0
-3228 2204 3212 2188 -2187 0
-2187 2219 0
-2220 2187 0
-2283 2219 2251 2187 -2186 0
-2284 2220 2252 2188 -2187 0
-2475 2219 2443 2187 -2186 0
-2476 2220 2444 2188 -2187 0
-2732 2220 2700 2188 -2187 0
-3244 2220 3212 2188 -2187 0
-2187 2251 0
-2252 2187 0
-2507 2251 2443 2187 -2186 0
-2508 2252 2444 2188 -2187 0
-2763 2251 2699 2187 -2186 0
-2764 2252 2700 2188 -2187 0
-3275 2251 3211 2187 -2186 0
-3276 2252 3212 2188 -2187 0
-2187 2443 0
-2444 2187 0
-2956 2444 2700 2188 -2187 0
-3468 2444 3212 2188 -2187 0
-2187 2699 0
-2700 2187 0
-3724 2700 3212 2188 -2187 0
-2187 3211 0
-3212 2187 0
-2208 2191 0
-2192 2208 0
-2464 2208 2448 2192 -2191 0
-2720 2208 2704 2192 -2191 0
-3232 2208 3216 2192 -2191 0
-2224 2191 0
-2192 2224 0
-2288 2224 2256 2192 -2191 0
-2480 2224 2448 2192 -2191 0
-2736 2224 2704 2192 -2191 0
-2191 2255 0
-2256 2191 0
-2192 2256 0
-2512 2256 2448 2192 -2191 0
-2768 2256 2704 2192 -2191 0
-3280 2256 3216 2192 -2191 0
-2191 2447 0
-2448 2191 0
-2192 2448 0
-2960 2448 2704 2192 -2191 0
-2191 2703 0
-2704 2191 0
-2192 2704 0
-3728 2704 3216 2192 -2191 0
-2191 3215 0
-2192 3216 0
-2195 2199 0
-2200 2195 0
-2208 2200 2204 2196 -2195 0
-2232 2200 2228 2196 -2195 0
-2263 2199 2259 2195 -2194 0
-2264 2200 2260 2196 -2195 0
-2456 2200 2452 2196 -2195 0
-2712 2200 2708 2196 -2195 0
-3224 2200 3220 2196 -2195 0
-2195 2203 0
-2204 2195 0
-2236 2204 2228 2196 -2195 0
-2267 2203 2259 2195 -2194 0
-2268 2204 2260 2196 -2195 0
-2459 2203 2451 2195 -2194 0
-2460 2204 2452 2196 -2195 0
-2716 2204 2708 2196 -2195 0
-3228 2204 3220 2196 -2195 0
-2195 2227 0
-2228 2195 0
-2292 2228 2260 2196 -2195 0
-2484 2228 2452 2196 -2195 0
-2740 2228 2708 2196 -2195 0
-3252 2228 3220 2196 -2195 0
-2195 2259 0
-2260 2195 0
-2515 2259 2451 2195 -2194 0
-2516 2260 2452 2196 -2195 0
-2771 2259 2707 2195 -2194 0
-2772 2260 2708 2196 -2195 0
-3283 2259 3219 2195 -2194 0
-3284 2260 3220 2196 -2195 0
-2195 2451 0
-2452 2195 0
-2964 2452 2708 2196 -2195 0
-3475 2451 3219 2195 -2194 0
-3476 2452 3220 2196 -2195 0
-2195 2707 0
-2708 2195 0
-3731 2707 3219 2195 -2194 0
-3732 2708 3220 2196 -2195 0
-2195 3219 0
-3220 2195 0
-2200 2208 0
-2240 2208 2232 2200 -2199 0
-2272 2208 2264 2200 -2199 0
-2464 2208 2456 2200 -2199 0
-2720 2208 2712 2200 -2199 0
-3232 2208 3224 2200 -2199 0
-2232 2199 0
-2200 2232 0
-2296 2232 2264 2200 -2199 0
-2488 2232 2456 2200 -2199 0
-3256 2232 3224 2200 -2199 0
-2199 2263 0
-2264 2199 0
-2200 2264 0
-2520 2264 2456 2200 -2199 0
-2776 2264 2712 2200 -2199 0
-3288 2264 3224 2200 -2199 0
-2200 2456 0
-2968 2456 2712 2200 -2199 0
-3480 2456 3224 2200 -2199 0
-2199 2711 0
-2712 2199 0
-2200 2712 0
-2199 3223 0
-3224 2199 0
-2200 3224 0
-2208 2203 0
-2204 2208 0
-2464 2208 2460 2204 -2203 0
-2720 2208 2716 2204 -2203 0
-3232 2208 3228 2204 -2203 0
-2236 2203 0
-2204 2236 0
-2300 2236 2268 2204 -2203 0
-2492 2236 2460 2204 -2203 0
-2748 2236 2716 2204 -2203 0
-3260 2236 3228 2204 -2203 0
-2203 2267 0
-2204 2268 0
-2524 2268 2460 2204 -2203 0
-2780 2268 2716 2204 -2203 0
-3292 2268 3228 2204 -2203 0
-2203 2459 0
-2460 2203 0
-2204 2460 0
-2972 2460 2716 2204 -2203 0
-3483 2459 3227 2203 -2202 0
-3484 2460 3228 2204 -2203 0
-2716 2203 0
-2204 2716 0
-3740 2716 3228 2204 -2203 0
-2203 3227 0
-3228 2203 0
-2204 3228 0
-2208 2240 0
-2496 2240 2464 2208 -2207 0
-2752 2240 2720 2208 -2207 0
-3264 2240 3232 2208 -2207 0
-2208 2272 0
-2528 2272 2464 2208 -2207 0
-2784 2272 2720 2208 -2207 0
-3296 2272 3232 2208 -2207 0
-2208 2464 0
-2976 2464 2720 2208 -2207 0
-3488 2464 3232 2208 -2207 0
-2208 2720 0
-2208 3232 0
-2211 2215 0
-2216 2211 0
-2224 2216 2220 2212 -2211 0
-2232 2216 2228 2212 -2211 0
-2280 2216 2276 2212 -2211 0
-2472 2216 2468 2212 -2211 0
-2728 2216 2724 2212 -2211 0
-3240 2216 3236 2212 -2211 0
-2211 2219 0
-2220 2211 0
-2236 2220 2228 2212 -2211 0
-2283 2219 2275 2211 -2210 0
-2284 2220 2276 2212 -2211 0
-2476 2220 2468 2212 -2211 0
-2732 2220 2724 2212 -2211 0
-3243 2219 3235 2211 -2210 0
-3244 2220 3236 2212 -2211 0
-2211 2227 0
-2228 2211 0
-2291 2227 2275 2211 -2210 0
-2292 2228 2276 2212 -2211 0
-2484 2228 2468 2212 -2211 0
-2740 2228 2724 2212 -2211 0
-3251 2227 3235 2211 -2210 0
-3252 2228 3236 2212 -2211 0
-2211 2275 0
-2276 2211 0
-2532 2276 2468 2212 -2211 0
-2788 2276 2724 2212 -2211 0
-3300 2276 3236 2212 -2211 0
-2211 2467 0
-2468 2211 0
-2980 2468 2724 2212 -2211 0
-3492 2468 3236 2212 -2211 0
-2211 2723 0
-2724 2211 0
-3748 2724 3236 2212 -2211 0
-2211 3235 0
-3236 2211 0
-2224 2215 0
-2216 2224 0
-2288 2224 2280 2216 -2215 0
-2480 2224 2472 2216 -2215 0
-2736 2224 2728 2216 -2215 0
-3248 2224 3240 2216 -2215 0
-2232 2215 0
-2216 2232 0
-2296 2232 2280 2216 -2215 0
-2488 2232 2472 2216 -2215 0
-3256 2232 3240 2216 -2215 0
-2215 2279 0
-2216 2280 0
-2536 2280 2472 2216 -2215 0
-2792 2280 2728 2216 -2215 0
-3304 2280 3240 2216 -2215 0
-2215 2471 0
-2216 2472 0
-2984 2472 2728 2216 -2215 0
-3496 2472 3240 2216 -2215 0
-2728 2215 0
-2216 2728 0
-3752 2728 3240 2216 -2215 0
-2215 3239 0
-2216 3240 0
-2224 2219 0
-2220 2224 0
-2288 2224 2284 2220 -2219 0
-2480 2224 2476 2220 -2219 0
-2736 2224 2732 2220 -2219 0
-3248 2224 3244 2220 -2219 0
-2236 2219 0
-2220 2236 0
-2300 2236 2284 2220 -2219 0
-2492 2236 2476 2220 -2219 0
-2748 2236 2732 2220 -2219 0
-3260 2236 3244 2220 -2219 0
-2219 2283 0
-2284 2219 0
-2220 2284 0
-2540 2284 2476 2220 -2219 0
-2796 2284 2732 2220 -2219 0
-3308 2284 3244 2220 -2219 0
-2219 2475 0
-2476 2219 0
-2220 2476 0
-2988 2476 2732 2220 -2219 0
-3500 2476 3244 2220 -2219 0
-2219 2731 0
-2732 2219 0
-2220 2732 0
-3756 2732 3244 2220 -2219 0
-2219 3243 0
-2220 3244 0
-2224 2240 0
-2304 2240 2288 2224 -2223 0
-2496 2240 2480 2224 -2223 0
-2752 2240 2736 2224 -2223 0
-3264 2240 3248 2224 -2223 0
-2224 2288 0
-3312 2288 3248 2224 -2223 0
-2224 2480 0
-3504 2480 3248 2224 -2223 0
-2224 2736 0
-2224 3248 0
-2232 2227 0
-2228 2232 0
-2296 2232 2292 2228 -2227 0
-2488 2232 2484 2228 -2227 0
-2744 2232 2740 2228 -2227 0
-3256 2232 3252 2228 -2227 0
-2236 2227 0
-2228 2236 0
-2492 2236 2484 2228 -2227 0
-2748 2236 2740 2228 -2227 0
-2227 2291 0
-2292 2227 0
-2228 2292 0
-2547 2291 2483 2227 -2226 0
-2548 2292 2484 2228 -2227 0
-2804 2292 2740 2228 -2227 0
-3316 2292 3252 2228 -2227 0
-2227 2483 0
-2228 2484 0
-2996 2484 2740 2228 -2227 0
-3508 2484 3252 2228 -2227 0
-2227 2739 0
-2228 2740 0
-3764 2740 3252 2228 -2227 0
-2227 3251 0
-2228 3252 0
-2232 2240 0
-2304 2240 2296 2232 -2231 0
-2496 2240 2488 2232 -2231 0
-2752 2240 2744 2232 -2231 0
-3264 2240 3256 2232 -2231 0
-2232 2296 0
-2552 2296 2488 2232 -2231 0
-2808 2296 2744 2232 -2231 0
-3320 2296 3256 2232 -2231 0
-2232 2488 0
-3000 2488 2744 2232 -2231 0
-3512 2488 3256 2232 -2231 0
-2232 2744 0
-2232 3256 0
-2236 2240 0
-2304 2240 2300 2236 -2235 0
-2496 2240 2492 2236 -2235 0
-2752 2240 2748 2236 -2235 0
-3264 2240 3260 2236 -2235 0
-2236 2300 0
-2556 2300 2492 2236 -2235 0
-2812 2300 2748 2236 -2235 0
-3324 2300 3260 2236 -2235 0
-2236 2492 0
-3004 2492 2748 2236 -2235 0
-2236 2748 0
-2236 3260 0
-2240 2304 0
-2560 2304 2496 2240 -2239 0
-2816 2304 2752 2240 -2239 0
-3328 2304 3264 2240 -2239 0
-2240 2496 0
-3008 2496 2752 2240 -2239 0
-3520 2496 3264 2240 -2239 0
-2240 2752 0
-3776 2752 3264 2240 -2239 0
-2240 3264 0
-2243 2247 0
-2248 2243 0
-2255 2247 2251 2243 -2242 0
-2256 2248 2252 2244 -2243 0
-2263 2247 2259 2243 -2242 0
-2264 2248 2260 2244 -2243 0
-2279 2247 2275 2243 -2242 0
-2280 2248 2276 2244 -2243 0
-2503 2247 2499 2243 -2242 0
-2504 2248 2500 2244 -2243 0
-2759 2247 2755 2243 -2242 0
-2760 2248 2756 2244 -2243 0
-3271 2247 3267 2243 -2242 0
-3272 2248 3268 2244 -2243 0
-2243 2251 0
-2252 2243 0
-2267 2251 2259 2243 -2242 0
-2268 2252 2260 2244 -2243 0
-2283 2251 2275 2243 -2242 0
-2284 2252 2276 2244 -2243 0
-2507 2251 2499 2243 -2242 0
-2508 2252 2500 2244 -2243 0
-2763 2251 2755 2243 -2242 0
-2764 2252 2756 2244 -2243 0
-3275 2251 3267 2243 -2242 0
-3276 2252 3268 2244 -2243 0
-2243 2259 0
-2260 2243 0
-2291 2259 2275 2243 -2242 0
-2292 2260 2276 2244 -2243 0
-2515 2259 2499 2243 -2242 0
-2516 2260 2500 2244 -2243 0
-2771 2259 2755 2243 -2242 0
-2772 2260 2756 2244 -2243 0
-3283 2259 3267 2243 -2242 0
-3284 2260 3268 2244 -2243 0
-2243 2275 0
-2276 2243 0
-2531 2275 2499 2243 -2242 0
-2532 2276 2500 2244 -2243 0
-2787 2275 2755 2243 -2242 0
-2788 2276 2756 2244 -2243 0
-3299 2275 3267 2243 -2242 0
-3300 2276 3268 2244 -2243 0
-2243 2499 0
-2500 2243 0
-3012 2500 2756 2244 -2243 0
-3523 2499 3267 2243 -2242 0
-3524 2500 3268 2244 -2243 0
-2243 2755 0
-2756 2243 0
-3779 2755 3267 2243 -2242 0
-3780 2756 3268 2244 -2243 0
-2243 3267 0
-3268 2243 0
-2247 2255 0
-2256 2247 0
-2248 2256 0
-2272 2256 2264 2248 -2247 0
-2511 2255 2503 2247 -2246 0
-2512 2256 2504 2248 -2247 0
-2767 2255 2759 2247 -2246 0
-2768 2256 2760 2248 -2247 0
-3280 2256 3272 2248 -2247 0
-2247 2263 0
-2264 2247 0
-2248 2264 0
-2519 2263 2503 2247 -2246 0
-2520 2264 2504 2248 -2247 0
-2775 2263 2759 2247 -2246 0
-2776 2264 2760 2248 -2247 0
-3288 2264 3272 2248 -2247 0
-2247 2279 0
-2280 2247 0
-2248 2280 0
-2536 2280 2504 2248 -2247 0
-2792 2280 2760 2248 -2247 0
-3304 2280 3272 2248 -2247 0
-2247 2503 0
-2504 2247 0
-2248 2504 0
-3016 2504 2760 2248 -2247 0
-3528 2504 3272 2248 -2247 0
-2247 2759 0
-2760 2247 0
-2248 2760 0
-3784 2760 3272 2248 -2247 0
-2247 3271 0
-2248 3272 0
-2251 2255 0
-2256 2251 0
-2252 2256 0
-2288 2256 2284 2252 -2251 0
-2512 2256 2508 2252 -2251 0
-2767 2255 2763 2251 -2250 0
-2768 2256 2764 2252 -2251 0
-3280 2256 3276 2252 -2251 0
-2251 2267 0
-2268 2251 0
-2252 2268 0
-2524 2268 2508 2252 -2251 0
-2779 2267 2763 2251 -2250 0
-2780 2268 2764 2252 -2251 0
-3292 2268 3276 2252 -2251 0
-2251 2283 0
-2284 2251 0
-2252 2284 0
-2539 2283 2507 2251 -2250 0
-2540 2284 2508 2252 -2251 0
-2795 2283 2763 2251 -2250 0
-2796 2284 2764 2252 -2251 0
-3308 2284 3276 2252 -2251 0
-2251 2507 0
-2508 2251 0
-2252 2508 0
-3020 2508 2764 2252 -2251 0
-3532 2508 3276 2252 -2251 0
-2251 2763 0
-2764 2251 0
-2252 2764 0
-3788 2764 3276 2252 -2251 0
-2251 3275 0
-3276 2251 0
-2252 3276 0
-2272 2255 0
-2256 2272 0
-2528 2272 2512 2256 -2255 0
-2784 2272 2768 2256 -2255 0
-3296 2272 3280 2256 -2255 0
-2256 2288 0
-3312 2288 3280 2256 -2255 0
-2512 2255 0
-2256 2512 0
-3536 2512 3280 2256 -2255 0
-2256 2768 0
-3792 2768 3280 2256 -2255 0
-3280 2255 0
-2256 3280 0
-2259 2263 0
-2260 2264 0
-2272 2264 2268 2260 -2259 0
-2296 2264 2292 2260 -2259 0
-2520 2264 2516 2260 -2259 0
-2775 2263 2771 2259 -2258 0
-2776 2264 2772 2260 -2259 0
-3288 2264 3284 2260 -2259 0
-2259 2267 0
-2268 2259 0
-2260 2268 0
-2524 2268 2516 2260 -2259 0
-2780 2268 2772 2260 -2259 0
-3292 2268 3284 2260 -2259 0
-2259 2291 0
-2292 2259 0
-2260 2292 0
-2804 2292 2772 2260 -2259 0
-3316 2292 3284 2260 -2259 0
-2259 2515 0
-2260 2516 0
-3028 2516 2772 2260 -2259 0
-3540 2516 3284 2260 -2259 0
-2259 2771 0
-2260 2772 0
-3796 2772 3284 2260 -2259 0
-2259 3283 0
-2260 3284 0
-2264 2272 0
-2528 2272 2520 2264 -2263 0
-2784 2272 2776 2264 -2263 0
-2296 2263 0
-2264 2296 0
-2552 2296 2520 2264 -2263 0
-2808 2296 2776 2264 -2263 0
-3320 2296 3288 2264 -2263 0
-2520 2263 0
-2264 2520 0
-3032 2520 2776 2264 -2263 0
-3544 2520 3288 2264 -2263 0
-2776 2263 0
-2264 3288 0
-2272 2267 0
-2268 2272 0
-2528 2272 2524 2268 -2267 0
-2784 2272 2780 2268 -2267 0
-3296 2272 3292 2268 -2267 0
-2300 2267 0
-2268 2300 0
-2812 2300 2780 2268 -2267 0
-3324 2300 3292 2268 -2267 0
-2268 2524 0
-3548 2524 3292 2268 -2267 0
-2780 2267 0
-2268 2780 0
-3804 2780 3292 2268 -2267 0
-2268 3292 0
-2272 2304 0
-2560 2304 2528 2272 -2271 0
-2816 2304 2784 2272 -2271 0
-3328 2304 3296 2272 -2271 0
-2272 2528 0
-2272 3296 0
-2275 2279 0
-2280 2275 0
-2276 2280 0
-2288 2280 2284 2276 -2275 0
-2536 2280 2532 2276 -2275 0
-2792 2280 2788 2276 -2275 0
-3304 2280 3300 2276 -2275 0
-2275 2283 0
-2284 2275 0
-2276 2284 0
-2539 2283 2531 2275 -2274 0
-2540 2284 2532 2276 -2275 0
-2795 2283 2787 2275 -2274 0
-2796 2284 2788 2276 -2275 0
-3308 2284 3300 2276 -2275 0
-2275 2291 0
-2292 2275 0
-2276 2292 0
-2548 2292 2532 2276 -2275 0
-2803 2291 2787 2275 -2274 0
-2804 2292 2788 2276 -2275 0
-3316 2292 3300 2276 -2275 0
-2275 2531 0
-2532 2275 0
-2276 2532 0
-3044 2532 2788 2276 -2275 0
-3556 2532 3300 2276 -2275 0
-2275 2787 0
-2788 2275 0
-2276 2788 0
-3812 2788 3300 2276 -2275 0
-2275 3299 0
-3300 2275 0
-2276 3300 0
-2280 2288 0
-2544 2288 2536 2280 -2279 0
-3312 2288 3304 2280 -2279 0
-2296 2279 0
-2280 2296 0
-2552 2296 2536 2280 -2279 0
-2808 2296 2792 2280 -2279 0
-3320 2296 3304 2280 -2279 0
-2536 2279 0
-2280 2536 0
-3560 2536 3304 2280 -2279 0
-2280 2792 0
-2280 3304 0
-2288 2283 0
-2284 2288 0
-2544 2288 2540 2284 -2283 0
-2800 2288 2796 2284 -2283 0
-3312 2288 3308 2284 -2283 0
-2300 2283 0
-2284 2300 0
-2556 2300 2540 2284 -2283 0
-2812 2300 2796 2284 -2283 0
-3324 2300 3308 2284 -2283 0
-2540 2283 0
-2284 2540 0
-3052 2540 2796 2284 -2283 0
-3564 2540 3308 2284 -2283 0
-2796 2283 0
-2284 2796 0
-3820 2796 3308 2284 -2283 0
-2284 3308 0
-2288 2304 0
-2560 2304 2544 2288 -2287 0
-2816 2304 2800 2288 -2287 0
-3328 2304 3312 2288 -2287 0
-2288 2544 0
-2288 2800 0
-2296 2291 0
-2292 2296 0
-2552 2296 2548 2292 -2291 0
-2808 2296 2804 2292 -2291 0
-3320 2296 3316 2292 -2291 0
-2300 2291 0
-2292 2300 0
-2556 2300 2548 2292 -2291 0
-2812 2300 2804 2292 -2291 0
-3324 2300 3316 2292 -2291 0
-2548 2291 0
-2292 2548 0
-3060 2548 2804 2292 -2291 0
-3572 2548 3316 2292 -2291 0
-2804 2291 0
-2292 2804 0
-3828 2804 3316 2292 -2291 0
-2292 3316 0
-2296 2304 0
-2560 2304 2552 2296 -2295 0
-2816 2304 2808 2296 -2295 0
-3328 2304 3320 2296 -2295 0
-2296 2552 0
-2296 2808 0
-2296 3320 0
-2300 2304 0
-2560 2304 2556 2300 -2299 0
-2816 2304 2812 2300 -2299 0
-3328 2304 3324 2300 -2299 0
-2300 2556 0
-2311 2306 0
-2319 2311 2315 2307 -2306 0
-2327 2311 2323 2307 -2306 0
-2343 2311 2339 2307 -2306 0
-2375 2311 2371 2307 -2306 0
-2439 2311 2435 2307 -2306 0
-2823 2311 2819 2307 -2306 0
-3335 2311 3331 2307 -2306 0
-2315 2306 0
-2331 2315 2323 2307 -2306 0
-2347 2315 2339 2307 -2306 0
-2379 2315 2371 2307 -2306 0
-2443 2315 2435 2307 -2306 0
-2827 2315 2819 2307 -2306 0
-3339 2315 3331 2307 -2306 0
-2323 2306 0
-2355 2323 2339 2307 -2306 0
-2387 2323 2371 2307 -2306 0
-2451 2323 2435 2307 -2306 0
-2835 2323 2819 2307 -2306 0
-3347 2323 3331 2307 -2306 0
-2339 2306 0
-2403 2339 2371 2307 -2306 0
-2467 2339 2435 2307 -2306 0
-2851 2339 2819 2307 -2306 0
-3363 2339 3331 2307 -2306 0
-2371 2306 0
-2499 2371 2435 2307 -2306 0
-2883 2371 2819 2307 -2306 0
-3395 2371 3331 2307 -2306 0
-2435 2306 0
-2947 2435 2819 2307 -2306 0
-3459 2435 3331 2307 -2306 0
-2819 2306 0
-3843 2819 3331 2307 -2306 0
-3331 2306 0
-2311 2319 0
-2320 2311 0
-2336 2320 2328 2312 -2311 0
-2352 2320 2344 2312 -2311 0
-2384 2320 2376 2312 -2311 0
-2448 2320 2440 2312 -2311 0
-2832 2320 2824 2312 -2311 0
-3343 2319 3335 2311 -2310 0
-3344 2320 3336 2312 -2311 0
-2311 2327 0
-2328 2311 0
-2360 2328 2344 2312 -2311 0
-2391 2327 2375 2311 -2310 0
-2392 2328 2376 2312 -2311 0
-2456 2328 2440 2312 -2311 0
-2839 2327 2823 2311 -2310 0
-2840 2328 2824 2312 -2311 0
-3352 2328 3336 2312 -2311 0
-2311 2343 0
-2344 2311 0
-2407 2343 2375 2311 -2310 0
-2408 2344 2376 2312 -2311 0
-2471 2343 2439 2311 -2310 0
-2472 2344 2440 2312 -2311 0
-2856 2344 2824 2312 -2311 0
-3367 2343 3335 2311 -2310 0
-3368 2344 3336 2312 -2311 0
-2311 2375 0
-2376 2311 0
-2504 2376 2440 2312 -2311 0
-2888 2376 2824 2312 -2311 0
-3400 2376 3336 2312 -2311 0
-2311 2439 0
-2440 2311 0
-2952 2440 2824 2312 -2311 0
-3463 2439 3335 2311 -2310 0
-3464 2440 3336 2312 -2311 0
-2311 2823 0
-2824 2311 0
-3847 2823 3335 2311 -2310 0
-3848 2824 3336 2312 -2311 0
-2311 3335 0
-3336 2311 0
-2315 2319 0
-2320 2315 0
-2336 2320 2332 2316 -2315 0
-2352 2320 2348 2316 -2315 0
-2384 2320 2380 2316 -2315 0
-2448 2320 2444 2316 -2315 0
-2832 2320 2828 2316 -2315 0
-3343 2319 3339 2315 -2314 0
-3344 2320 3340 2316 -2315 0
-2315 2331 0
-2332 2315 0
-2364 2332 2348 2316 -2315 0
-2396 2332 2380 2316 -2315 0
-2460 2332 2444 2316 -2315 0
-2843 2331 2827 2315 -2314 0
-2844 2332 2828 2316 -2315 0
-3355 2331 3339 2315 -2314 0
-3356 2332 3340 2316 -2315 0
-2315 2347 0
-2348 2315 0
-2412 2348 2380 2316 -2315 0
-2476 2348 2444 2316 -2315 0
-2860 2348 2828 2316 -2315 0
-3372 2348 3340 2316 -2315 0
-2315 2379 0
-2380 2315 0
-2507 2379 2443 2315 -2314 0
-2508 2380 2444 2316 -2315 0
-2892 2380 2828 2316 -2315 0
-3403 2379 3339 2315 -2314 0
-3404 2380 3340 2316 -2315 0
-2315 2443 0
-2444 2315 0
-2956 2444 2828 2316 -2315 0
-3468 2444 3340 2316 -2315 0
-2315 2827 0
-2828 2315 0
-3852 2828 3340 2316 -2315 0
-2315 3339 0
-3340 2315 0
-2336 2319 0
-2320 2336 0
-2400 2336 2384 2320 -2319 0
-2464 2336 2448 2320 -2319 0
-2848 2336 2832 2320 -2319 0
-3360 2336 3344 2320 -2319 0
-2352 2319 0
-2320 2352 0
-2416 2352 2384 2320 -2319 0
-2480 2352 2448 2320 -2319 0
-2864 2352 2832 2320 -2319 0
-3376 2352 3344 2320 -2319 0
-2319 2383 0
-2384 2319 0
-2320 2384 0
-2512 2384 2448 2320 -2319 0
-2896 2384 2832 2320 -2319 0
-3408 2384 3344 2320 -2319 0
-2319 2447 0
-2320 2448 0
-2960 2448 2832 2320 -2319 0
-3472 2448 3344 2320 -2319 0
-2319 2831 0
-2832 2319 0
-2320 2832 0
-3856 2832 3344 2320 -2319 0
-2319 3343 0
-2320 3344 0
-2323 2327 0
-2328 2323 0
-2336 2328 2332 2324 -2323 0
-2360 2328 2356 2324 -2323 0
-2391 2327 2387 2323 -2322 0
-2392 2328 2388 2324 -2323 0
-2456 2328 2452 2324 -2323 0
-2840 2328 2836 2324 -2323 0
-3352 2328 3348 2324 -2323 0
-2323 2331 0
-2332 2323 0
-2364 2332 2356 2324 -2323 0
-2395 2331 2387 2323 -2322 0
-2396 2332 2388 2324 -2323 0
-2460 2332 2452 2324 -2323 0
-2843 2331 2835 2323 -2322 0
-2844 2332 2836 2324 -2323 0
-3355 2331 3347 2323 -2322 0
-3356 2332 3348 2324 -2323 0
-2323 2355 0
-2356 2323 0
-2419 2355 2387 2323 -2322 0
-2420 2356 2388 2324 -2323 0
-2484 2356 2452 2324 -2323 0
-2867 2355 2835 2323 -2322 0
-2868 2356 2836 2324 -2323 0
-3380 2356 3348 2324 -2323 0
-2323 2387 0
-2388 2323 0
-2516 2388 2452 2324 -2323 0
-2899 2387 2835 2323 -2322 0
-2900 2388 2836 2324 -2323 0
-3411 2387 3347 2323 -2322 0
-3412 2388 3348 2324 -2323 0
-2323 2451 0
-2452 2323 0
-2964 2452 2836 2324 -2323 0
-3476 2452 3348 2324 -2323 0
-2323 2835 0
-2836 2323 0
-3859 2835 3347 2323 -2322 0
-3860 2836 3348 2324 -2323 0
-2323 3347 0
-3348 2323 0
-2336 2327 0
-2328 2336 0
-2400 2336 2392 2328 -2327 0
-2464 2336 2456 2328 -2327 0
-2848 2336 2840 2328 -2327 0
-3360 2336 3352 2328 -2327 0
-2360 2327 0
-2328 2360 0
-2424 2360 2392 2328 -2327 0
-2488 2360 2456 2328 -2327 0
-2872 2360 2840 2328 -2327 0
-3384 2360 3352 2328 -2327 0
-2327 2391 0
-2392 2327 0
-2328 2392 0
-2520 2392 2456 2328 -2327 0
-2904 2392 2840 2328 -2327 0
-3416 2392 3352 2328 -2327 0
-2327 2455 0
-2456 2327 0
-2328 2456 0
-2968 2456 2840 2328 -2327 0
-3480 2456 3352 2328 -2327 0
-2327 2839 0
-2840 2327 0
-2328 2840 0
-3864 2840 3352 2328 -2327 0
-2327 3351 0
-3352 2327 0
-2328 3352 0
-2336 2331 0
-2332 2336 0
-2400 2336 2396 2332 -2331 0
-2464 2336 2460 2332 -2331 0
-2848 2336 2844 2332 -2331 0
-2364 2331 0
-2332 2364 0
-2428 2364 2396 2332 -2331 0
-2492 2364 2460 2332 -2331 0
-2876 2364 2844 2332 -2331 0
-3388 2364 3356 2332 -2331 0
-2331 2395 0
-2396 2331 0
-2332 2396 0
-2524 2396 2460 2332 -2331 0
-2908 2396 2844 2332 -2331 0
-3419 2395 3355 2331 -2330 0
-3420 2396 3356 2332 -2331 0
-2331 2459 0
-2332 2460 0
-2972 2460 2844 2332 -2331 0
-3484 2460 3356 2332 -2331 0
-2331 2843 0
-2844 2331 0
-2332 2844 0
-3868 2844 3356 2332 -2331 0
-2331 3355 0
-3356 2331 0
-2332 3356 0
-2336 2368 0
-2432 2368 2400 2336 -2335 0
-2496 2368 2464 2336 -2335 0
-2880 2368 2848 2336 -2335 0
-3392 2368 3360 2336 -2335 0
-2336 2400 0
-2528 2400 2464 2336 -2335 0
-2912 2400 2848 2336 -2335 0
-3424 2400 3360 2336 -2335 0
-2336 2464 0
-3488 2464 3360 2336 -2335 0
-2336 2848 0
-2336 3360 0
-2339 2343 0
-2344 2339 0
-2352 2344 2348 2340 -2339 0
-2360 2344 2356 2340 -2339 0
-2407 2343 2403 2339 -2338 0
-2408 2344 2404 2340 -2339 0
-2472 2344 2468 2340 -2339 0
-2855 2343 2851 2339 -2338 0
-2856 2344 2852 2340 -2339 0
-3367 2343 3363 2339 -2338 0
-3368 2344 3364 2340 -2339 0
-2339 2347 0
-2348 2339 0
-2364 2348 2356 2340 -2339 0
-2411 2347 2403 2339 -2338 0
-2412 2348 2404 2340 -2339 0
-2476 2348 2468 2340 -2339 0
-2859 2347 2851 2339 -2338 0
-2860 2348 2852 2340 -2339 0
-3372 2348 3364 2340 -2339 0
-2339 2355 0
-2356 2339 0
-2420 2356 2404 2340 -2339 0
-2484 2356 2468 2340 -2339 0
-2868 2356 2852 2340 -2339 0
-3380 2356 3364 2340 -2339 0
-2339 2403 0
-2404 2339 0
-2532 2404 2468 2340 -2339 0
-2916 2404 2852 2340 -2339 0
-3428 2404 3364 2340 -2339 0
-2339 2467 0
-2468 2339 0
-2979 2467 2851 2339 -2338 0
-2980 2468 2852 2340 -2339 0
-3492 2468 3364 2340 -2339 0
-2339 2851 0
-2852 2339 0
-3875 2851 3363 2339 -2338 0
-3876 2852 3364 2340 -2339 0
-2339 3363 0
-3364 2339 0
-2352 2343 0
-2344 2352 0
-2416 2352 2408 2344 -2343 0
-2480 2352 2472 2344 -2343 0
-2864 2352 2856 2344 -2343 0
-3376 2352 3368 2344 -2343 0
-2360 2343 0
-2344 2360 0
-2424 2360 2408 2344 -2343 0
-2488 2360 2472 2344 -2343 0
-2872 2360 2856 2344 -2343 0
-3384 2360 3368 2344 -2343 0
-2343 2407 0
-2408 2343 0
-2344 2408 0
-2536 2408 2472 2344 -2343 0
-2920 2408 2856 2344 -2343 0
-3432 2408 3368 2344 -2343 0
-2343 2471 0
-2472 2343 0
-2344 2472 0
-2984 2472 2856 2344 -2343 0
-3496 2472 3368 2344 -2343 0
-2343 2855 0
-2856 2343 0
-2344 2856 0
-3880 2856 3368 2344 -2343 0
-2343 3367 0
-3368 2343 0
-2344 3368 0
-2352 2347 0
-2348 2352 0
-2368 2352 2364 2348 -2347 0
-2416 2352 2412 2348 -2347 0
-2480 2352 2476 2348 -2347 0
-2864 2352 2860 2348 -2347 0
-3376 2352 3372 2348 -2347 0
-2364 2347 0
-2348 2364 0
-2428 2364 2412 2348 -2347 0
-2492 2364 2476 2348 -2347 0
-2876 2364 2860 2348 -2347 0
-3388 2364 3372 2348 -2347 0
-2347 2411 0
-2412 2347 0
-2348 2412 0
-2540 2412 2476 2348 -2347 0
-2924 2412 2860 2348 -2347 0
-3436 2412 3372 2348 -2347 0
-2347 2475 0
-2476 2347 0
-2348 2476 0
-2988 2476 2860 2348 -2347 0
-3500 2476 3372 2348 -2347 0
-2347 2859 0
-2860 2347 0
-2348 2860 0
-2347 3371 0
-3372 2347 0
-2348 3372 0
-2352 2368 0
-2432 2368 2416 2352 -2351 0
-2496 2368 2480 2352 -2351 0
-2880 2368 2864 2352 -2351 0
-3392 2368 3376 2352 -2351 0
-2352 2416 0
-2544 2416 2480 2352 -2351 0
-2928 2416 2864 2352 -2351 0
-3440 2416 3376 2352 -2351 0
-2352 2480 0
-3504 2480 3376 2352 -2351 0
-2352 2864 0
-2352 3376 0
-2360 2355 0
-2356 2360 0
-2424 2360 2420 2356 -2355 0
-2488 2360 2484 2356 -2355 0
-2872 2360 2868 2356 -2355 0
-3384 2360 3380 2356 -2355 0
-2364 2355 0
-2356 2364 0
-2428 2364 2420 2356 -2355 0
-2492 2364 2484 2356 -2355 0
-2876 2364 2868 2356 -2355 0
-3388 2364 3380 2356 -2355 0
-2355 2419 0
-2420 2355 0
-2356 2420 0
-2548 2420 2484 2356 -2355 0
-2932 2420 2868 2356 -2355 0
-3444 2420 3380 2356 -2355 0
-2355 2483 0
-2484 2355 0
-2356 2484 0
-2996 2484 2868 2356 -2355 0
-2356 2868 0
-2355 3379 0
-2356 3380 0
-2360 2368 0
-2432 2368 2424 2360 -2359 0
-2496 2368 2488 2360 -2359 0
-2880 2368 2872 2360 -2359 0
-2360 2424 0
-2552 2424 2488 2360 -2359 0
-3512 2488 3384 2360 -2359 0
-2360 2872 0
-3896 2872 3384 2360 -2359 0
-2360 3384 0
-2364 2368 0
-2432 2368 2428 2364 -2363 0
-2496 2368 2492 2364 -2363 0
-2880 2368 2876 2364 -2363 0
-3392 2368 3388 2364 -2363 0
-2364 2428 0
-2556 2428 2492 2364 -2363 0
-2940 2428 2876 2364 -2363 0
-3452 2428 3388 2364 -2363 0
-2364 2492 0
-3516 2492 3388 2364 -2363 0
-2364 2876 0
-2364 3388 0
-2368 2432 0
-2560 2432 2496 2368 -2367 0
-2944 2432 2880 2368 -2367 0
-3456 2432 3392 2368 -2367 0
-3008 2496 2880 2368 -2367 0
-3520 2496 3392 2368 -2367 0
-2368 2880 0
-3904 2880 3392 2368 -2367 0
-2368 3392 0
-2371 2375 0
-2376 2371 0
-2384 2376 2380 2372 -2371 0
-2391 2375 2387 2371 -2370 0
-2392 2376 2388 2372 -2371 0
-2407 2375 2403 2371 -2370 0
-2408 2376 2404 2372 -2371 0
-2503 2375 2499 2371 -2370 0
-2504 2376 2500 2372 -2371 0
-2888 2376 2884 2372 -2371 0
-3400 2376 3396 2372 -2371 0
-2371 2379 0
-2380 2371 0
-2395 2379 2387 2371 -2370 0
-2396 2380 2388 2372 -2371 0
-2411 2379 2403 2371 -2370 0
-2412 2380 2404 2372 -2371 0
-2507 2379 2499 2371 -2370 0
-2508 2380 2500 2372 -2371 0
-2891 2379 2883 2371 -2370 0
-2892 2380 2884 2372 -2371 0
-3404 2380 3396 2372 -2371 0
-2371 2387 0
-2388 2371 0
-2419 2387 2403 2371 -2370 0
-2420 2388 2404 2372 -2371 0
-2515 2387 2499 2371 -2370 0
-2516 2388 2500 2372 -2371 0
-2899 2387 2883 2371 -2370 0
-2900 2388 2884 2372 -2371 0
-3411 2387 3395 2371 -2370 0
-3412 2388 3396 2372 -2371 0
-2371 2403 0
-2404 2371 0
-2531 2403 2499 2371 -2370 0
-2532 2404 2500 2372 -2371 0
-2916 2404 2884 2372 -2371 0
-3427 2403 3395 2371 -2370 0
-3428 2404 3396 2372 -2371 0
-2371 2499 0
-2500 2371 0
-3011 2499 2883 2371 -2370 0
-3012 2500 2884 2372 -2371 0
-3523 2499 3395 2371 -2370 0
-3524 2500 3396 2372 -2371 0
-2371 2883 0
-2884 2371 0
-3908 2884 3396 2372 -2371 0
-2371 3395 0
-3396 2371 0
-2384 2375 0
-2376 2384 0
-2400 2384 2392 2376 -2375 0
-2416 2384 2408 2376 -2375 0
-2512 2384 2504 2376 -2375 0
-2896 2384 2888 2376 -2375 0
-3408 2384 3400 2376 -2375 0
-2392 2375 0
-2376 2392 0
-2424 2392 2408 2376 -2375 0
-2520 2392 2504 2376 -2375 0
-2904 2392 2888 2376 -2375 0
-3416 2392 3400 2376 -2375 0
-2375 2407 0
-2408 2375 0
-2376 2408 0
-2536 2408 2504 2376 -2375 0
-2920 2408 2888 2376 -2375 0
-3432 2408 3400 2376 -2375 0
-2375 2503 0
-2504 2375 0
-2376 2504 0
-3016 2504 2888 2376 -2375 0
-3528 2504 3400 2376 -2375 0
-2375 2887 0
-2376 2888 0
-3912 2888 3400 2376 -2375 0
-2375 3399 0
-3400 2375 0
-2376 3400 0
-2379 2383 0
-2384 2379 0
-2380 2384 0
-2400 2384 2396 2380 -2379 0
-2416 2384 2412 2380 -2379 0
-2512 2384 2508 2380 -2379 0
-2896 2384 2892 2380 -2379 0
-3407 2383 3403 2379 -2378 0
-2379 2395 0
-2396 2379 0
-2380 2396 0
-2428 2396 2412 2380 -2379 0
-2523 2395 2507 2379 -2378 0
-2524 2396 2508 2380 -2379 0
-2907 2395 2891 2379 -2378 0
-2908 2396 2892 2380 -2379 0
-3419 2395 3403 2379 -2378 0
-3420 2396 3404 2380 -2379 0
-2379 2411 0
-2412 2379 0
-2380 2412 0
-2923 2411 2891 2379 -2378 0
-2924 2412 2892 2380 -2379 0
-3435 2411 3403 2379 -2378 0
-3436 2412 3404 2380 -2379 0
-2380 2508 0
-3020 2508 2892 2380 -2379 0
-3532 2508 3404 2380 -2379 0
-2379 2891 0
-2892 2379 0
-2380 2892 0
-3916 2892 3404 2380 -2379 0
-2379 3403 0
-3404 2379 0
-2380 3404 0
-2384 2400 0
-2528 2400 2512 2384 -2383 0
-3424 2400 3408 2384 -2383 0
-2928 2416 2896 2384 -2383 0
-3440 2416 3408 2384 -2383 0
-2384 2512 0
-3024 2512 2896 2384 -2383 0
-3536 2512 3408 2384 -2383 0
-2384 2896 0
-3920 2896 3408 2384 -2383 0
-2384 3408 0
-2387 2391 0
-2392 2387 0
-2388 2392 0
-2400 2392 2396 2388 -2387 0
-2424 2392 2420 2388 -2387 0
-2519 2391 2515 2387 -2386 0
-2520 2392 2516 2388 -2387 0
-2904 2392 2900 2388 -2387 0
-3416 2392 3412 2388 -2387 0
-2387 2395 0
-2396 2387 0
-2388 2396 0
-2428 2396 2420 2388 -2387 0
-2524 2396 2516 2388 -2387 0
-2907 2395 2899 2387 -2386 0
-2908 2396 2900 2388 -2387 0
-3420 2396 3412 2388 -2387 0
-2387 2419 0
-2420 2387 0
-2388 2420 0
-2547 2419 2515 2387 -2386 0
-2548 2420 2516 2388 -2387 0
-2932 2420 2900 2388 -2387 0
-3444 2420 3412 2388 -2387 0
-2387 2515 0
-2516 2387 0
-2388 2516 0
-3027 2515 2899 2387 -2386 0
-3028 2516 2900 2388 -2387 0
-3540 2516 3412 2388 -2387 0
-2387 2899 0
-2900 2387 0
-2388 2900 0
-3924 2900 3412 2388 -2387 0
-2387 3411 0
-3412 2387 0
-2388 3412 0
-2400 2391 0
-2392 2400 0
-2912 2400 2904 2392 -2391 0
-3424 2400 3416 2392 -2391 0
-2424 2391 0
-2392 2424 0
-2552 2424 2520 2392 -2391 0
-3448 2424 3416 2392 -2391 0
-2520 2391 0
-2392 2520 0
-3032 2520 2904 2392 -2391 0
-2392 2904 0
-3928 2904 3416 2392 -2391 0
-3416 2391 0
-2392 3416 0
-2396 2400 0
-2528 2400 2524 2396 -2395 0
-2912 2400 2908 2396 -2395 0
-3424 2400 3420 2396 -2395 0
-2428 2395 0
-2396 2428 0
-3452 2428 3420 2396 -2395 0
-2396 2524 0
-2908 2395 0
-2396 2908 0
-3932 2908 3420 2396 -2395 0
-3420 2395 0
-2396 3420 0
-2400 2432 0
-2944 2432 2912 2400 -2399 0
-3456 2432 3424 2400 -2399 0
-2400 2912 0
-2400 3424 0
-2403 2407 0
-2408 2403 0
-2404 2408 0
-2416 2408 2412 2404 -2403 0
-2424 2408 2420 2404 -2403 0
-2536 2408 2532 2404 -2403 0
-3431 2407 3427 2403 -2402 0
-3432 2408 3428 2404 -2403 0
-2412 2403 0
-2404 2412 0
-2540 2412 2532 2404 -2403 0
-2924 2412 2916 2404 -2403 0
-3436 2412 3428 2404 -2403 0
-2420 2403 0
-2404 2420 0
-2548 2420 2532 2404 -2403 0
-2932 2420 2916 2404 -2403 0
-3444 2420 3428 2404 -2403 0
-2403 2531 0
-2532 2403 0
-2404 2532 0
-3044 2532 2916 2404 -2403 0
-3556 2532 3428 2404 -2403 0
-2403 2915 0
-2404 2916 0
-3940 2916 3428 2404 -2403 0
-2403 3427 0
-2404 3428 0
-2408 2416 0
-2432 2416 2424 2408 -2407 0
-2928 2416 2920 2408 -2407 0
-3440 2416 3432 2408 -2407 0
-2424 2407 0
-2408 2424 0
-2552 2424 2536 2408 -2407 0
-3448 2424 3432 2408 -2407 0
-2408 2536 0
-3048 2536 2920 2408 -2407 0
-3560 2536 3432 2408 -2407 0
-2408 2920 0
-3432 2407 0
-2408 3432 0
-2416 2411 0
-2412 2416 0
-2928 2416 2924 2412 -2411 0
-3440 2416 3436 2412 -2411 0
-2428 2411 0
-2412 2428 0
-2556 2428 2540 2412 -2411 0
-2412 2540 0
-3052 2540 2924 2412 -2411 0
-3564 2540 3436 2412 -2411 0
-2924 2411 0
-2412 2924 0
-2412 3436 0
-2416 2432 0
-2560 2432 2544 2416 -2415 0
-2944 2432 2928 2416 -2415 0
-3456 2432 3440 2416 -2415 0
-2416 2544 0
-2416 2928 0
-2416 3440 0
-2424 2419 0
-2420 2424 0
-2552 2424 2548 2420 -2419 0
-3448 2424 3444 2420 -2419 0
-2428 2419 0
-2420 2428 0
-3452 2428 3444 2420 -2419 0
-2420 2548 0
-3060 2548 2932 2420 -2419 0
-3572 2548 3444 2420 -2419 0
-2420 2932 0
-3956 2932 3444 2420 -2419 0
-2420 3444 0
-2424 2432 0
-2560 2432 2552 2424 -2423 0
-3456 2432 3448 2424 -2423 0
-2424 2552 0
-2424 2936 0
-2424 3448 0
-2428 2432 0
-2560 2432 2556 2428 -2427 0
-2944 2432 2940 2428 -2427 0
-2428 3452 0
-2435 2439 0
-2440 2435 0
-2447 2439 2443 2435 -2434 0
-2448 2440 2444 2436 -2435 0
-2455 2439 2451 2435 -2434 0
-2456 2440 2452 2436 -2435 0
-2471 2439 2467 2435 -2434 0
-2472 2440 2468 2436 -2435 0
-2503 2439 2499 2435 -2434 0
-2504 2440 2500 2436 -2435 0
-2952 2440 2948 2436 -2435 0
-3463 2439 3459 2435 -2434 0
-3464 2440 3460 2436 -2435 0
-2435 2443 0
-2444 2435 0
-2459 2443 2451 2435 -2434 0
-2460 2444 2452 2436 -2435 0
-2475 2443 2467 2435 -2434 0
-2476 2444 2468 2436 -2435 0
-2507 2443 2499 2435 -2434 0
-2508 2444 2500 2436 -2435 0
-2955 2443 2947 2435 -2434 0
-2956 2444 2948 2436 -2435 0
-3467 2443 3459 2435 -2434 0
-3468 2444 3460 2436 -2435 0
-2435 2451 0
-2452 2435 0
-2483 2451 2467 2435 -2434 0
-2484 2452 2468 2436 -2435 0
-2515 2451 2499 2435 -2434 0
-2516 2452 2500 2436 -2435 0
-2963 2451 2947 2435 -2434 0
-2964 2452 2948 2436 -2435 0
-3475 2451 3459 2435 -2434 0
-3476 2452 3460 2436 -2435 0
-2435 2467 0
-2468 2435 0
-2531 2467 2499 2435 -2434 0
-2532 2468 2500 2436 -2435 0
-2979 2467 2947 2435 -2434 0
-2980 2468 2948 2436 -2435 0
-3492 2468 3460 2436 -2435 0
-2435 2499 0
-2500 2435 0
-3011 2499 2947 2435 -2434 0
-3012 2500 2948 2436 -2435 0
-3523 2499 3459 2435 -2434 0
-3524 2500 3460 2436 -2435 0
-2435 2947 0
-2948 2435 0
-3971 2947 3459 2435 -2434 0
-3972 2948 3460 2436 -2435 0
-2435 3459 0
-3460 2435 0
-2440 2448 0
-2464 2448 2456 2440 -2439 0
-2512 2448 2504 2440 -2439 0
-2959 2447 2951 2439 -2438 0
-2960 2448 2952 2440 -2439 0
-3472 2448 3464 2440 -2439 0
-2456 2439 0
-2440 2456 0
-2520 2456 2504 2440 -2439 0
-3480 2456 3464 2440 -2439 0
-2472 2439 0
-2440 2472 0
-2536 2472 2504 2440 -2439 0
-2984 2472 2952 2440 -2439 0
-3496 2472 3464 2440 -2439 0
-2440 2504 0
-3016 2504 2952 2440 -2439 0
-3528 2504 3464 2440 -2439 0
-2439 2951 0
-2440 2952 0
-3976 2952 3464 2440 -2439 0
-2439 3463 0
-2440 3464 0
-2448 2443 0
-2444 2448 0
-2480 2448 2476 2444 -2443 0
-2512 2448 2508 2444 -2443 0
-2959 2447 2955 2443 -2442 0
-2960 2448 2956 2444 -2443 0
-3472 2448 3468 2444 -2443 0
-2443 2459 0
-2460 2443 0
-2444 2460 0
-2492 2460 2476 2444 -2443 0
-2524 2460 2508 2444 -2443 0
-2971 2459 2955 2443 -2442 0
-3484 2460 3468 2444 -2443 0
-2443 2475 0
-2476 2443 0
-2444 2476 0
-2540 2476 2508 2444 -2443 0
-2987 2475 2955 2443 -2442 0
-2988 2476 2956 2444 -2443 0
-3500 2476 3468 2444 -2443 0
-2508 2443 0
-2444 2508 0
-3020 2508 2956 2444 -2443 0
-3532 2508 3468 2444 -2443 0
-2443 2955 0
-2956 2443 0
-2444 2956 0
-3980 2956 3468 2444 -2443 0
-2443 3467 0
-3468 2443 0
-2444 3468 0
-2448 2464 0
-2976 2464 2960 2448 -2447 0
-2480 2447 0
-2992 2480 2960 2448 -2447 0
-2448 2512 0
-3024 2512 2960 2448 -2447 0
-3536 2512 3472 2448 -2447 0
-2960 2447 0
-2448 2960 0
-3984 2960 3472 2448 -2447 0
-2448 3472 0
-2456 2451 0
-2452 2456 0
-2520 2456 2516 2452 -2451 0
-3480 2456 3476 2452 -2451 0
-2451 2459 0
-2460 2451 0
-2452 2460 0
-2524 2460 2516 2452 -2451 0
-3483 2459 3475 2451 -2450 0
-3484 2460 3476 2452 -2451 0
-2451 2483 0
-2484 2451 0
-2452 2484 0
-2548 2484 2516 2452 -2451 0
-2996 2484 2964 2452 -2451 0
-3508 2484 3476 2452 -2451 0
-2452 2516 0
-3028 2516 2964 2452 -2451 0
-3540 2516 3476 2452 -2451 0
-2451 2963 0
-2964 2451 0
-2452 2964 0
-3988 2964 3476 2452 -2451 0
-2451 3475 0
-2452 3476 0
-2464 2455 0
-2528 2464 2520 2456 -2455 0
-2456 2488 0
-2456 2520 0
-3032 2520 2968 2456 -2455 0
-3544 2520 3480 2456 -2455 0
-2456 2968 0
-3992 2968 3480 2456 -2455 0
-2456 3480 0
-2464 2459 0
-2492 2459 0
-2460 2492 0
-2556 2492 2524 2460 -2459 0
-3516 2492 3484 2460 -2459 0
-2460 2524 0
-3036 2524 2972 2460 -2459 0
-3548 2524 3484 2460 -2459 0
-2460 2972 0
-3484 2459 0
-2460 3484 0
-2464 2496 0
-2560 2496 2528 2464 -2463 0
-3008 2496 2976 2464 -2463 0
-2464 2976 0
-2464 3488 0
-2467 2471 0
-2472 2467 0
-2468 2472 0
-2480 2472 2476 2468 -2467 0
-2536 2472 2532 2468 -2467 0
-2984 2472 2980 2468 -2467 0
-2467 2475 0
-2476 2467 0
-2468 2476 0
-2540 2476 2532 2468 -2467 0
-2988 2476 2980 2468 -2467 0
-3500 2476 3492 2468 -2467 0
-2484 2467 0
-2468 2484 0
-2548 2484 2532 2468 -2467 0
-3508 2484 3492 2468 -2467 0
-2468 2532 0
-3044 2532 2980 2468 -2467 0
-3556 2532 3492 2468 -2467 0
-2468 2980 0
-4004 2980 3492 2468 -2467 0
-2467 3491 0
-2468 3492 0
-2536 2471 0
-2472 2536 0
-3560 2536 3496 2472 -2471 0
-2472 2984 0
-4008 2984 3496 2472 -2471 0
-2472 3496 0
-2480 2475 0
-2476 2480 0
-3504 2480 3500 2476 -2475 0
-2492 2475 0
-2476 2492 0
-2556 2492 2540 2476 -2475 0
-2540 2475 0
-2476 2540 0
-3052 2540 2988 2476 -2475 0
-3564 2540 3500 2476 -2475 0
-2476 2988 0
-4012 2988 3500 2476 -2475 0
-2476 3500 0
-2480 2496 0
-2480 2544 0
-2480 2992 0
-2488 2483 0
-2484 2488 0
-2492 2483 0
-2484 2492 0
-2556 2492 2548 2484 -2483 0
-3516 2492 3508 2484 -2483 0
-2548 2483 0
-2484 2548 0
-3060 2548 2996 2484 -2483 0
-2484 2996 0
-4020 2996 3508 2484 -2483 0
-2484 3508 0
-2560 2496 2552 2488 -2487 0
-3008 2496 3000 2488 -2487 0
-2492 2496 0
-2560 2496 2556 2492 -2491 0
-2492 2556 0
-2492 3516 0
-2504 2499 0
-2500 2504 0
-2512 2504 2508 2500 -2499 0
-2520 2504 2516 2500 -2499 0
-2536 2504 2532 2500 -2499 0
-3016 2504 3012 2500 -2499 0
-3528 2504 3524 2500 -2499 0
-2508 2499 0
-2500 2508 0
-2524 2508 2516 2500 -2499 0
-2540 2508 2532 2500 -2499 0
-3020 2508 3012 2500 -2499 0
-3532 2508 3524 2500 -2499 0
-2516 2499 0
-2500 2516 0
-2548 2516 2532 2500 -2499 0
-3028 2516 3012 2500 -2499 0
-3540 2516 3524 2500 -2499 0
-2532 2499 0
-2500 2532 0
-3044 2532 3012 2500 -2499 0
-3556 2532 3524 2500 -2499 0
-2499 3011 0
-3012 2499 0
-2500 3012 0
-4035 3011 3523 2499 -2498 0
-4036 3012 3524 2500 -2499 0
-2499 3523 0
-3524 2499 0
-2500 3524 0
-2512 2503 0
-2504 2512 0
-3024 2512 3016 2504 -2503 0
-3536 2512 3528 2504 -2503 0
-2520 2503 0
-2504 2520 0
-3032 2520 3016 2504 -2503 0
-2504 2536 0
-3560 2536 3528 2504 -2503 0
-2504 3016 0
-4040 3016 3528 2504 -2503 0
-2504 3528 0
-2544 2512 2540 2508 -2507 0
-3024 2512 3020 2508 -2507 0
-3536 2512 3532 2508 -2507 0
-2524 2507 0
-2508 2524 0
-2508 2540 0
-3052 2540 3020 2508 -2507 0
-3564 2540 3532 2508 -2507 0
-3020 2507 0
-2508 3020 0
-4044 3020 3532 2508 -2507 0
-2508 3532 0
-2512 3024 0
-4048 3024 3536 2512 -2511 0
-2512 3536 0
-2520 2515 0
-2516 2520 0
-3032 2520 3028 2516 -2515 0
-3544 2520 3540 2516 -2515 0
-2524 2515 0
-2516 2548 0
-3060 2548 3028 2516 -2515 0
-2516 3028 0
-4052 3028 3540 2516 -2515 0
-2516 3540 0
-2520 3032 0
-4056 3032 3544 2520 -2519 0
-2520 3544 0
-2524 2556 0
-2524 3036 0
-4060 3036 3548 2524 -2523 0
-2536 2531 0
-2532 2536 0
-2544 2536 2540 2532 -2531 0
-3048 2536 3044 2532 -2531 0
-3560 2536 3556 2532 -2531 0
-2540 2531 0
-2532 2540 0
-2556 2540 2548 2532 -2531 0
-3052 2540 3044 2532 -2531 0
-3564 2540 3556 2532 -2531 0
-2532 2548 0
-3060 2548 3044 2532 -2531 0
-3572 2548 3556 2532 -2531 0
-2532 3044 0
-4068 3044 3556 2532 -2531 0
-2532 3556 0
-2536 3048 0
-4072 3048 3560 2536 -2535 0
-2536 3560 0
-3056 2544 3052 2540 -2539 0
-2540 3052 0
-4076 3052 3564 2540 -2539 0
-2540 3564 0
-2548 3060 0
-4084 3060 3572 2548 -2547 0
-2548 3572 0
-2567 2562 0
-2583 2567 2579 2563 -2562 0
-2599 2567 2595 2563 -2562 0
-2631 2567 2627 2563 -2562 0
-2695 2567 2691 2563 -2562 0
-3591 2567 3587 2563 -2562 0
-2571 2562 0
-2587 2571 2579 2563 -2562 0
-2603 2571 2595 2563 -2562 0
-2635 2571 2627 2563 -2562 0
-2699 2571 2691 2563 -2562 0
-2827 2571 2819 2563 -2562 0
-3595 2571 3587 2563 -2562 0
-2579 2562 0
-2611 2579 2595 2563 -2562 0
-2643 2579 2627 2563 -2562 0
-2707 2579 2691 2563 -2562 0
-2835 2579 2819 2563 -2562 0
-2595 2562 0
-2659 2595 2627 2563 -2562 0
-2723 2595 2691 2563 -2562 0
-2851 2595 2819 2563 -2562 0
-3619 2595 3587 2563 -2562 0
-2627 2562 0
-2755 2627 2691 2563 -2562 0
-2883 2627 2819 2563 -2562 0
-3651 2627 3587 2563 -2562 0
-2691 2562 0
-2947 2691 2819 2563 -2562 0
-3715 2691 3587 2563 -2562 0
-2819 2562 0
-3843 2819 3587 2563 -2562 0
-3587 2562 0
-2567 2575 0
-2576 2567 0
-2592 2576 2584 2568 -2567 0
-2608 2576 2600 2568 -2567 0
-2640 2576 2632 2568 -2567 0
-2703 2575 2695 2567 -2566 0
-2704 2576 2696 2568 -2567 0
-2832 2576 2824 2568 -2567 0
-3600 2576 3592 2568 -2567 0
-2567 2583 0
-2584 2567 0
-2616 2584 2600 2568 -2567 0
-2648 2584 2632 2568 -2567 0
-2712 2584 2696 2568 -2567 0
-2840 2584 2824 2568 -2567 0
-3607 2583 3591 2567 -2566 0
-3608 2584 3592 2568 -2567 0
-2567 2599 0
-2600 2567 0
-2663 2599 2631 2567 -2566 0
-2664 2600 2632 2568 -2567 0
-2728 2600 2696 2568 -2567 0
-2855 2599 2823 2567 -2566 0
-2856 2600 2824 2568 -2567 0
-3624 2600 3592 2568 -2567 0
-2567 2631 0
-2632 2567 0
-2760 2632 2696 2568 -2567 0
-2888 2632 2824 2568 -2567 0
-3656 2632 3592 2568 -2567 0
-2567 2695 0
-2696 2567 0
-2952 2696 2824 2568 -2567 0
-3720 2696 3592 2568 -2567 0
-2567 2823 0
-2824 2567 0
-3847 2823 3591 2567 -2566 0
-3848 2824 3592 2568 -2567 0
-2567 3591 0
-3592 2567 0
-2571 2575 0
-2576 2571 0
-2592 2576 2588 2572 -2571 0
-2608 2576 2604 2572 -2571 0
-2639 2575 2635 2571 -2570 0
-2640 2576 2636 2572 -2571 0
-2703 2575 2699 2571 -2570 0
-2704 2576 2700 2572 -2571 0
-2832 2576 2828 2572 -2571 0
-3600 2576 3596 2572 -2571 0
-2571 2587 0
-2588 2571 0
-2620 2588 2604 2572 -2571 0
-2651 2587 2635 2571 -2570 0
-2652 2588 2636 2572 -2571 0
-2716 2588 2700 2572 -2571 0
-2844 2588 2828 2572 -2571 0
-3611 2587 3595 2571 -2570 0
-3612 2588 3596 2572 -2571 0
-2571 2603 0
-2604 2571 0
-2668 2604 2636 2572 -2571 0
-2732 2604 2700 2572 -2571 0
-2860 2604 2828 2572 -2571 0
-3628 2604 3596 2572 -2571 0
-2571 2635 0
-2636 2571 0
-2764 2636 2700 2572 -2571 0
-2891 2635 2827 2571 -2570 0
-2892 2636 2828 2572 -2571 0
-3660 2636 3596 2572 -2571 0
-2571 2699 0
-2700 2571 0
-2956 2700 2828 2572 -2571 0
-3723 2699 3595 2571 -2570 0
-3724 2700 3596 2572 -2571 0
-2571 2827 0
-2828 2571 0
-3852 2828 3596 2572 -2571 0
-2571 3595 0
-3596 2571 0
-2592 2575 0
-2576 2592 0
-2656 2592 2640 2576 -2575 0
-2720 2592 2704 2576 -2575 0
-2848 2592 2832 2576 -2575 0
-3616 2592 3600 2576 -2575 0
-2608 2575 0
-2576 2608 0
-2672 2608 2640 2576 -2575 0
-3632 2608 3600 2576 -2575 0
-2575 2639 0
-2640 2575 0
-2576 2640 0
-2767 2639 2703 2575 -2574 0
-2768 2640 2704 2576 -2575 0
-2896 2640 2832 2576 -2575 0
-3664 2640 3600 2576 -2575 0
-2575 2703 0
-2576 2704 0
-2960 2704 2832 2576 -2575 0
-3728 2704 3600 2576 -2575 0
-2575 2831 0
-2832 2575 0
-2576 2832 0
-3856 2832 3600 2576 -2575 0
-2575 3599 0
-3600 2575 0
-2576 3600 0
-2579 2583 0
-2584 2579 0
-2592 2584 2588 2580 -2579 0
-2616 2584 2612 2580 -2579 0
-2648 2584 2644 2580 -2579 0
-2712 2584 2708 2580 -2579 0
-2840 2584 2836 2580 -2579 0
-3608 2584 3604 2580 -2579 0
-2579 2587 0
-2588 2579 0
-2620 2588 2612 2580 -2579 0
-2651 2587 2643 2579 -2578 0
-2652 2588 2644 2580 -2579 0
-2716 2588 2708 2580 -2579 0
-2843 2587 2835 2579 -2578 0
-2844 2588 2836 2580 -2579 0
-3611 2587 3603 2579 -2578 0
-3612 2588 3604 2580 -2579 0
-2579 2611 0
-2612 2579 0
-2675 2611 2643 2579 -2578 0
-2676 2612 2644 2580 -2579 0
-2740 2612 2708 2580 -2579 0
-2867 2611 2835 2579 -2578 0
-2868 2612 2836 2580 -2579 0
-3636 2612 3604 2580 -2579 0
-2579 2643 0
-2644 2579 0
-2771 2643 2707 2579 -2578 0
-2772 2644 2708 2580 -2579 0
-2899 2643 2835 2579 -2578 0
-2900 2644 2836 2580 -2579 0
-3667 2643 3603 2579 -2578 0
-3668 2644 3604 2580 -2579 0
-2579 2707 0
-2708 2579 0
-2963 2707 2835 2579 -2578 0
-2964 2708 2836 2580 -2579 0
-3732 2708 3604 2580 -2579 0
-2579 2835 0
-2836 2579 0
-3859 2835 3603 2579 -2578 0
-3860 2836 3604 2580 -2579 0
-2579 3603 0
-3604 2579 0
-2592 2583 0
-2584 2592 0
-2656 2592 2648 2584 -2583 0
-2720 2592 2712 2584 -2583 0
-2848 2592 2840 2584 -2583 0
-3616 2592 3608 2584 -2583 0
-2584 2616 0
-2680 2616 2648 2584 -2583 0
-2872 2616 2840 2584 -2583 0
-3640 2616 3608 2584 -2583 0
-2584 2648 0
-2904 2648 2840 2584 -2583 0
-3671 2647 3607 2583 -2582 0
-3672 2648 3608 2584 -2583 0
-2583 2711 0
-2712 2583 0
-2584 2712 0
-2968 2712 2840 2584 -2583 0
-3736 2712 3608 2584 -2583 0
-2584 2840 0
-3864 2840 3608 2584 -2583 0
-2583 3607 0
-3608 2583 0
-2584 3608 0
-2592 2587 0
-2588 2592 0
-2656 2592 2652 2588 -2587 0
-2720 2592 2716 2588 -2587 0
-2848 2592 2844 2588 -2587 0
-3616 2592 3612 2588 -2587 0
-2620 2587 0
-2588 2620 0
-2684 2620 2652 2588 -2587 0
-2748 2620 2716 2588 -2587 0
-2876 2620 2844 2588 -2587 0
-3644 2620 3612 2588 -2587 0
-2587 2651 0
-2652 2587 0
-2588 2652 0
-2780 2652 2716 2588 -2587 0
-2908 2652 2844 2588 -2587 0
-3676 2652 3612 2588 -2587 0
-2587 2715 0
-2716 2587 0
-2588 2716 0
-2972 2716 2844 2588 -2587 0
-3740 2716 3612 2588 -2587 0
-2587 2843 0
-2844 2587 0
-2588 2844 0
-3868 2844 3612 2588 -2587 0
-2587 3611 0
-3612 2587 0
-2588 3612 0
-2592 2624 0
-2688 2624 2656 2592 -2591 0
-2752 2624 2720 2592 -2591 0
-2880 2624 2848 2592 -2591 0
-3648 2624 3616 2592 -2591 0
-2592 2656 0
-2912 2656 2848 2592 -2591 0
-3680 2656 3616 2592 -2591 0
-2592 2720 0
-2976 2720 2848 2592 -2591 0
-3744 2720 3616 2592 -2591 0
-2592 2848 0
-3872 2848 3616 2592 -2591 0
-2592 3616 0
-2595 2599 0
-2600 2595 0
-2608 2600 2604 2596 -2595 0
-2616 2600 2612 2596 -2595 0
-2663 2599 2659 2595 -2594 0
-2664 2600 2660 2596 -2595 0
-2727 2599 2723 2595 -2594 0
-2728 2600 2724 2596 -2595 0
-2855 2599 2851 2595 -2594 0
-2856 2600 2852 2596 -2595 0
-3624 2600 3620 2596 -2595 0
-2595 2603 0
-2604 2595 0
-2620 2604 2612 2596 -2595 0
-2667 2603 2659 2595 -2594 0
-2668 2604 2660 2596 -2595 0
-2731 2603 2723 2595 -2594 0
-2732 2604 2724 2596 -2595 0
-2860 2604 2852 2596 -2595 0
-3627 2603 3619 2595 -2594 0
-3628 2604 3620 2596 -2595 0
-2595 2611 0
-2612 2595 0
-2676 2612 2660 2596 -2595 0
-2740 2612 2724 2596 -2595 0
-2867 2611 2851 2595 -2594 0
-2868 2612 2852 2596 -2595 0
-3636 2612 3620 2596 -2595 0
-2595 2659 0
-2660 2595 0
-2788 2660 2724 2596 -2595 0
-2916 2660 2852 2596 -2595 0
-3684 2660 3620 2596 -2595 0
-2595 2723 0
-2724 2595 0
-2980 2724 2852 2596 -2595 0
-3747 2723 3619 2595 -2594 0
-3748 2724 3620 2596 -2595 0
-2595 2851 0
-2852 2595 0
-3876 2852 3620 2596 -2595 0
-2595 3619 0
-3620 2595 0
-2608 2599 0
-2600 2608 0
-2672 2608 2664 2600 -2599 0
-2736 2608 2728 2600 -2599 0
-2864 2608 2856 2600 -2599 0
-3632 2608 3624 2600 -2599 0
-2616 2599 0
-2600 2616 0
-2680 2616 2664 2600 -2599 0
-2872 2616 2856 2600 -2599 0
-3640 2616 3624 2600 -2599 0
-2599 2663 0
-2664 2599 0
-2600 2664 0
-2792 2664 2728 2600 -2599 0
-2920 2664 2856 2600 -2599 0
-3688 2664 3624 2600 -2599 0
-2728 2599 0
-2600 2728 0
-2984 2728 2856 2600 -2599 0
-3752 2728 3624 2600 -2599 0
-2599 2855 0
-2600 2856 0
-2599 3623 0
-3624 2599 0
-2600 3624 0
-2608 2603 0
-2604 2608 0
-2672 2608 2668 2604 -2603 0
-2864 2608 2860 2604 -2603 0
-3632 2608 3628 2604 -2603 0
-2620 2603 0
-2604 2620 0
-2748 2620 2732 2604 -2603 0
-2876 2620 2860 2604 -2603 0
-3644 2620 3628 2604 -2603 0
-2604 2668 0
-2796 2668 2732 2604 -2603 0
-2924 2668 2860 2604 -2603 0
-2603 2731 0
-2732 2603 0
-2604 2732 0
-3756 2732 3628 2604 -2603 0
-2603 2859 0
-2604 2860 0
-3884 2860 3628 2604 -2603 0
-2603 3627 0
-3628 2603 0
-2604 3628 0
-2608 2624 0
-2688 2624 2672 2608 -2607 0
-2752 2624 2736 2608 -2607 0
-2880 2624 2864 2608 -2607 0
-3648 2624 3632 2608 -2607 0
-2608 2672 0
-2800 2672 2736 2608 -2607 0
-2928 2672 2864 2608 -2607 0
-2608 2736 0
-2992 2736 2864 2608 -2607 0
-3760 2736 3632 2608 -2607 0
-2608 2864 0
-3888 2864 3632 2608 -2607 0
-2608 3632 0
-2616 2611 0
-2612 2616 0
-2680 2616 2676 2612 -2611 0
-2744 2616 2740 2612 -2611 0
-2872 2616 2868 2612 -2611 0
-3640 2616 3636 2612 -2611 0
-2620 2611 0
-2612 2620 0
-2684 2620 2676 2612 -2611 0
-2748 2620 2740 2612 -2611 0
-2876 2620 2868 2612 -2611 0
-3644 2620 3636 2612 -2611 0
-2611 2675 0
-2676 2611 0
-2612 2676 0
-2804 2676 2740 2612 -2611 0
-2932 2676 2868 2612 -2611 0
-3699 2675 3635 2611 -2610 0
-2740 2611 0
-2612 2740 0
-2996 2740 2868 2612 -2611 0
-2611 2867 0
-2612 2868 0
-3892 2868 3636 2612 -2611 0
-2611 3635 0
-3636 2611 0
-2612 3636 0
-2616 2624 0
-2688 2624 2680 2616 -2615 0
-2752 2624 2744 2616 -2615 0
-2880 2624 2872 2616 -2615 0
-2616 2680 0
-2808 2680 2744 2616 -2615 0
-2936 2680 2872 2616 -2615 0
-3704 2680 3640 2616 -2615 0
-2616 2744 0
-3000 2744 2872 2616 -2615 0
-2616 2872 0
-3896 2872 3640 2616 -2615 0
-2616 3640 0
-2620 2624 0
-2688 2624 2684 2620 -2619 0
-2880 2624 2876 2620 -2619 0
-3648 2624 3644 2620 -2619 0
-2620 2684 0
-2940 2684 2876 2620 -2619 0
-2620 2748 0
-3004 2748 2876 2620 -2619 0
-3772 2748 3644 2620 -2619 0
-2620 2876 0
-2620 3644 0
-2624 2688 0
-2816 2688 2752 2624 -2623 0
-2944 2688 2880 2624 -2623 0
-3712 2688 3648 2624 -2623 0
-2624 2752 0
-3008 2752 2880 2624 -2623 0
-3776 2752 3648 2624 -2623 0
-2624 2880 0
-3904 2880 3648 2624 -2623 0
-2624 3648 0
-2627 2631 0
-2632 2627 0
-2640 2632 2636 2628 -2627 0
-2647 2631 2643 2627 -2626 0
-2648 2632 2644 2628 -2627 0
-2663 2631 2659 2627 -2626 0
-2664 2632 2660 2628 -2627 0
-2759 2631 2755 2627 -2626 0
-2760 2632 2756 2628 -2627 0
-2887 2631 2883 2627 -2626 0
-2888 2632 2884 2628 -2627 0
-3656 2632 3652 2628 -2627 0
-2627 2635 0
-2636 2627 0
-2652 2636 2644 2628 -2627 0
-2667 2635 2659 2627 -2626 0
-2668 2636 2660 2628 -2627 0
-2763 2635 2755 2627 -2626 0
-2764 2636 2756 2628 -2627 0
-2891 2635 2883 2627 -2626 0
-2892 2636 2884 2628 -2627 0
-3660 2636 3652 2628 -2627 0
-2627 2643 0
-2644 2627 0
-2676 2644 2660 2628 -2627 0
-2771 2643 2755 2627 -2626 0
-2772 2644 2756 2628 -2627 0
-2899 2643 2883 2627 -2626 0
-2900 2644 2884 2628 -2627 0
-3667 2643 3651 2627 -2626 0
-3668 2644 3652 2628 -2627 0
-2627 2659 0
-2660 2627 0
-2787 2659 2755 2627 -2626 0
-2788 2660 2756 2628 -2627 0
-2915 2659 2883 2627 -2626 0
-2916 2660 2884 2628 -2627 0
-3683 2659 3651 2627 -2626 0
-3684 2660 3652 2628 -2627 0
-2627 2755 0
-2756 2627 0
-3012 2756 2884 2628 -2627 0
-3780 2756 3652 2628 -2627 0
-2627 2883 0
-2884 2627 0
-3908 2884 3652 2628 -2627 0
-2627 3651 0
-3652 2627 0
-2632 2640 0
-2672 2640 2664 2632 -2631 0
-2768 2640 2760 2632 -2631 0
-2896 2640 2888 2632 -2631 0
-3664 2640 3656 2632 -2631 0
-2631 2647 0
-2648 2631 0
-2632 2648 0
-2680 2648 2664 2632 -2631 0
-2904 2648 2888 2632 -2631 0
-2664 2631 0
-2632 2664 0
-2792 2664 2760 2632 -2631 0
-2920 2664 2888 2632 -2631 0
-3688 2664 3656 2632 -2631 0
-2760 2631 0
-2632 2760 0
-3016 2760 2888 2632 -2631 0
-3784 2760 3656 2632 -2631 0
-2631 2887 0
-2888 2631 0
-2632 2888 0
-3912 2888 3656 2632 -2631 0
-2631 3655 0
-3656 2631 0
-2632 3656 0
-2640 2635 0
-2636 2640 0
-2656 2640 2652 2636 -2635 0
-2768 2640 2764 2636 -2635 0
-2896 2640 2892 2636 -2635 0
-3664 2640 3660 2636 -2635 0
-2635 2651 0
-2652 2635 0
-2636 2652 0
-2780 2652 2764 2636 -2635 0
-2908 2652 2892 2636 -2635 0
-3676 2652 3660 2636 -2635 0
-2668 2635 0
-2636 2668 0
-2796 2668 2764 2636 -2635 0
-2924 2668 2892 2636 -2635 0
-2764 2635 0
-2636 2764 0
-3020 2764 2892 2636 -2635 0
-3788 2764 3660 2636 -2635 0
-2635 2891 0
-2636 2892 0
-3916 2892 3660 2636 -2635 0
-2635 3659 0
-2636 3660 0
-2784 2656 2768 2640 -2639 0
-2912 2656 2896 2640 -2639 0
-3680 2656 3664 2640 -2639 0
-2672 2639 0
-2640 2672 0
-2928 2672 2896 2640 -2639 0
-2640 2768 0
-3792 2768 3664 2640 -2639 0
-2896 2639 0
-2640 3664 0
-2643 2647 0
-2648 2643 0
-2644 2648 0
-2656 2648 2652 2644 -2643 0
-2680 2648 2676 2644 -2643 0
-2776 2648 2772 2644 -2643 0
-2904 2648 2900 2644 -2643 0
-2643 2651 0
-2652 2643 0
-2644 2652 0
-2684 2652 2676 2644 -2643 0
-2780 2652 2772 2644 -2643 0
-2908 2652 2900 2644 -2643 0
-3675 2651 3667 2643 -2642 0
-3676 2652 3668 2644 -2643 0
-2643 2675 0
-2676 2643 0
-2644 2676 0
-2804 2676 2772 2644 -2643 0
-2932 2676 2900 2644 -2643 0
-3699 2675 3667 2643 -2642 0
-2643 2771 0
-2772 2643 0
-2644 2772 0
-3028 2772 2900 2644 -2643 0
-3796 2772 3668 2644 -2643 0
-2900 2643 0
-2644 2900 0
-3924 2900 3668 2644 -2643 0
-2643 3667 0
-3668 2643 0
-2644 3668 0
-2784 2656 2776 2648 -2647 0
-2912 2656 2904 2648 -2647 0
-3680 2656 3672 2648 -2647 0
-2680 2647 0
-2936 2680 2904 2648 -2647 0
-2648 2776 0
-2648 2904 0
-2656 2651 0
-2652 2656 0
-2784 2656 2780 2652 -2651 0
-2912 2656 2908 2652 -2651 0
-3680 2656 3676 2652 -2651 0
-2684 2651 0
-2652 2684 0
-2780 2651 0
-2652 2780 0
-3804 2780 3676 2652 -2651 0
-2652 2908 0
-3676 2651 0
-2652 3676 0
-2656 2688 0
-2816 2688 2784 2656 -2655 0
-2944 2688 2912 2656 -2655 0
-3712 2688 3680 2656 -2655 0
-2656 2784 0
-2656 2912 0
-2656 3680 0
-2659 2663 0
-2664 2659 0
-2660 2664 0
-2672 2664 2668 2660 -2659 0
-2680 2664 2676 2660 -2659 0
-2792 2664 2788 2660 -2659 0
-2920 2664 2916 2660 -2659 0
-3688 2664 3684 2660 -2659 0
-2668 2659 0
-2660 2668 0
-2684 2668 2676 2660 -2659 0
-2796 2668 2788 2660 -2659 0
-2923 2667 2915 2659 -2658 0
-2924 2668 2916 2660 -2659 0
-3691 2667 3683 2659 -2658 0
-3692 2668 3684 2660 -2659 0
-2676 2659 0
-2660 2676 0
-2804 2676 2788 2660 -2659 0
-2932 2676 2916 2660 -2659 0
-3699 2675 3683 2659 -2658 0
-3700 2676 3684 2660 -2659 0
-2659 2787 0
-2788 2659 0
-2660 2788 0
-3044 2788 2916 2660 -2659 0
-3812 2788 3684 2660 -2659 0
-2659 2915 0
-2916 2659 0
-2660 2916 0
-3940 2916 3684 2660 -2659 0
-2659 3683 0
-2660 3684 0
-2672 2663 0
-2928 2672 2920 2664 -2663 0
-2664 2680 0
-2936 2680 2920 2664 -2663 0
-2664 2792 0
-3048 2792 2920 2664 -2663 0
-2664 2920 0
-2664 3688 0
-2672 2667 0
-2668 2684 0
-2940 2684 2924 2668 -2667 0
-2668 2796 0
-3052 2796 2924 2668 -2667 0
-3820 2796 3692 2668 -2667 0
-2668 2924 0
-3948 2924 3692 2668 -2667 0
-2668 3692 0
-2672 2688 0
-2816 2688 2800 2672 -2671 0
-2944 2688 2928 2672 -2671 0
-2672 2928 0
-2672 3696 0
-2680 2675 0
-2676 2680 0
-2936 2680 2932 2676 -2675 0
-2676 2684 0
-2812 2684 2804 2676 -2675 0
-2940 2684 2932 2676 -2675 0
-2804 2675 0
-2676 2804 0
-3060 2804 2932 2676 -2675 0
-3828 2804 3700 2676 -2675 0
-2676 2932 0
-3956 2932 3700 2676 -2675 0
-2676 3700 0
-2680 2688 0
-2944 2688 2936 2680 -2679 0
-2680 2808 0
-2680 2936 0
-2680 3704 0
-2684 2688 0
-2944 2688 2940 2684 -2683 0
-2684 3708 0
-2691 2695 0
-2696 2691 0
-2703 2695 2699 2691 -2690 0
-2704 2696 2700 2692 -2691 0
-2711 2695 2707 2691 -2690 0
-2712 2696 2708 2692 -2691 0
-2728 2696 2724 2692 -2691 0
-2759 2695 2755 2691 -2690 0
-2760 2696 2756 2692 -2691 0
-2951 2695 2947 2691 -2690 0
-2952 2696 2948 2692 -2691 0
-3720 2696 3716 2692 -2691 0
-2691 2699 0
-2700 2691 0
-2715 2699 2707 2691 -2690 0
-2716 2700 2708 2692 -2691 0
-2732 2700 2724 2692 -2691 0
-2763 2699 2755 2691 -2690 0
-2764 2700 2756 2692 -2691 0
-2955 2699 2947 2691 -2690 0
-2956 2700 2948 2692 -2691 0
-3723 2699 3715 2691 -2690 0
-3724 2700 3716 2692 -2691 0
-2691 2707 0
-2708 2691 0
-2740 2708 2724 2692 -2691 0
-2771 2707 2755 2691 -2690 0
-2772 2708 2756 2692 -2691 0
-2963 2707 2947 2691 -2690 0
-2964 2708 2948 2692 -2691 0
-3732 2708 3716 2692 -2691 0
-2691 2723 0
-2724 2691 0
-2787 2723 2755 2691 -2690 0
-2788 2724 2756 2692 -2691 0
-2980 2724 2948 2692 -2691 0
-3748 2724 3716 2692 -2691 0
-2691 2755 0
-2756 2691 0
-3011 2755 2947 2691 -2690 0
-3012 2756 2948 2692 -2691 0
-3779 2755 3715 2691 -2690 0
-3780 2756 3716 2692 -2691 0
-2691 2947 0
-2948 2691 0
-3972 2948 3716 2692 -2691 0
-2691 3715 0
-3716 2691 0
-2695 2703 0
-2704 2695 0
-2696 2704 0
-2768 2704 2760 2696 -2695 0
-2960 2704 2952 2696 -2695 0
-3728 2704 3720 2696 -2695 0
-2712 2695 0
-2696 2712 0
-2744 2712 2728 2696 -2695 0
-2776 2712 2760 2696 -2695 0
-2968 2712 2952 2696 -2695 0
-3736 2712 3720 2696 -2695 0
-2728 2695 0
-2696 2728 0
-2792 2728 2760 2696 -2695 0
-2984 2728 2952 2696 -2695 0
-3752 2728 3720 2696 -2695 0
-2760 2695 0
-2696 2760 0
-3016 2760 2952 2696 -2695 0
-3784 2760 3720 2696 -2695 0
-2695 2951 0
-2696 2952 0
-3976 2952 3720 2696 -2695 0
-2695 3719 0
-3720 2695 0
-2696 3720 0
-2699 2703 0
-2704 2699 0
-2700 2704 0
-2736 2704 2732 2700 -2699 0
-2768 2704 2764 2700 -2699 0
-3728 2704 3724 2700 -2699 0
-2716 2699 0
-2700 2716 0
-2780 2716 2764 2700 -2699 0
-2972 2716 2956 2700 -2699 0
-3740 2716 3724 2700 -2699 0
-2699 2731 0
-2732 2699 0
-2700 2732 0
-2796 2732 2764 2700 -2699 0
-2988 2732 2956 2700 -2699 0
-3756 2732 3724 2700 -2699 0
-2764 2699 0
-2700 2764 0
-3020 2764 2956 2700 -2699 0
-3788 2764 3724 2700 -2699 0
-2699 2955 0
-2956 2699 0
-2700 2956 0
-3980 2956 3724 2700 -2699 0
-3724 2699 0
-2700 3724 0
-2720 2703 0
-2704 2720 0
-2784 2720 2768 2704 -2703 0
-2976 2720 2960 2704 -2703 0
-3744 2720 3728 2704 -2703 0
-2736 2703 0
-2704 2768 0
-2960 2703 0
-2704 2960 0
-3984 2960 3728 2704 -2703 0
-3728 2703 0
-2704 3728 0
-2712 2707 0
-2708 2712 0
-2720 2712 2716 2708 -2707 0
-2744 2712 2740 2708 -2707 0
-2776 2712 2772 2708 -2707 0
-2968 2712 2964 2708 -2707 0
-3736 2712 3732 2708 -2707 0
-2716 2707 0
-2708 2716 0
-2748 2716 2740 2708 -2707 0
-2780 2716 2772 2708 -2707 0
-2972 2716 2964 2708 -2707 0
-3740 2716 3732 2708 -2707 0
-2740 2707 0
-2708 2740 0
-2804 2740 2772 2708 -2707 0
-2996 2740 2964 2708 -2707 0
-2772 2707 0
-2708 2772 0
-3028 2772 2964 2708 -2707 0
-3796 2772 3732 2708 -2707 0
-2964 2707 0
-2708 2964 0
-3988 2964 3732 2708 -2707 0
-3732 2707 0
-2708 3732 0
-2720 2711 0
-2712 2720 0
-2784 2720 2776 2712 -2711 0
-2976 2720 2968 2712 -2711 0
-3744 2720 3736 2712 -2711 0
-2744 2711 0
-2712 2744 0
-2712 2776 0
-3032 2776 2968 2712 -2711 0
-3800 2776 3736 2712 -2711 0
-2712 2968 0
-3736 2711 0
-2712 3736 0
-2720 2715 0
-2716 2720 0
-3744 2720 3740 2716 -2715 0
-2716 2780 0
-3036 2780 2972 2716 -2715 0
-2716 2972 0
-3996 2972 3740 2716 -2715 0
-3740 2715 0
-2716 3740 0
-2720 2752 0
-3008 2752 2976 2720 -2719 0
-2720 2784 0
-2720 2976 0
-2720 3744 0
-2728 2723 0
-2724 2728 0
-2744 2728 2740 2724 -2723 0
-2792 2728 2788 2724 -2723 0
-2984 2728 2980 2724 -2723 0
-3752 2728 3748 2724 -2723 0
-2724 2732 0
-2748 2732 2740 2724 -2723 0
-2796 2732 2788 2724 -2723 0
-2988 2732 2980 2724 -2723 0
-3756 2732 3748 2724 -2723 0
-2740 2723 0
-2724 2740 0
-2804 2740 2788 2724 -2723 0
-2996 2740 2980 2724 -2723 0
-3764 2740 3748 2724 -2723 0
-2724 2788 0
-3044 2788 2980 2724 -2723 0
-3812 2788 3748 2724 -2723 0
-2724 2980 0
-4004 2980 3748 2724 -2723 0
-2723 3747 0
-3748 2723 0
-2724 3748 0
-2736 2727 0
-2992 2736 2984 2728 -2727 0
-2728 2792 0
-2728 2984 0
-4008 2984 3752 2728 -2727 0
-2728 3752 0
-2736 2731 0
-2800 2736 2796 2732 -2731 0
-2748 2731 0
-2732 2748 0
-3004 2748 2988 2732 -2731 0
-3772 2748 3756 2732 -2731 0
-2732 2796 0
-3052 2796 2988 2732 -2731 0
-3820 2796 3756 2732 -2731 0
-2732 2988 0
-4012 2988 3756 2732 -2731 0
-3756 2731 0
-2732 3756 0
-2736 2752 0
-2816 2752 2800 2736 -2735 0
-3008 2752 2992 2736 -2735 0
-2736 2800 0
-2736 2992 0
-2744 2739 0
-2740 2744 0
-3000 2744 2996 2740 -2739 0
-2748 2739 0
-2740 2748 0
-2812 2748 2804 2740 -2739 0
-3004 2748 2996 2740 -2739 0
-2804 2739 0
-2740 2804 0
-3060 2804 2996 2740 -2739 0
-2740 2996 0
-2740 3764 0
-2744 2752 0
-2816 2752 2808 2744 -2743 0
-3008 2752 3000 2744 -2743 0
-2744 3000 0
-2748 2752 0
-2816 2752 2812 2748 -2747 0
-3008 2752 3004 2748 -2747 0
-2748 2812 0
-2748 3004 0
-2760 2755 0
-2756 2760 0
-2768 2760 2764 2756 -2755 0
-2776 2760 2772 2756 -2755 0
-2792 2760 2788 2756 -2755 0
-3016 2760 3012 2756 -2755 0
-2764 2755 0
-2756 2764 0
-2780 2764 2772 2756 -2755 0
-2796 2764 2788 2756 -2755 0
-3020 2764 3012 2756 -2755 0
-3788 2764 3780 2756 -2755 0
-2772 2755 0
-2756 2772 0
-2804 2772 2788 2756 -2755 0
-3028 2772 3012 2756 -2755 0
-3796 2772 3780 2756 -2755 0
-2788 2755 0
-2756 2788 0
-3044 2788 3012 2756 -2755 0
-3812 2788 3780 2756 -2755 0
-2755 3011 0
-2756 3012 0
-4035 3011 3779 2755 -2754 0
-4036 3012 3780 2756 -2755 0
-2755 3779 0
-3780 2755 0
-2756 3780 0
-2760 2768 0
-3024 2768 3016 2760 -2759 0
-3792 2768 3784 2760 -2759 0
-2776 2759 0
-2760 2776 0
-3032 2776 3016 2760 -2759 0
-2760 2792 0
-3048 2792 3016 2760 -2759 0
-2760 3016 0
-4040 3016 3784 2760 -2759 0
-2760 3784 0
-2764 2768 0
-2780 2763 0
-2764 2780 0
-2812 2780 2796 2764 -2763 0
-3036 2780 3020 2764 -2763 0
-3804 2780 3788 2764 -2763 0
-2764 2796 0
-3052 2796 3020 2764 -2763 0
-3820 2796 3788 2764 -2763 0
-2764 3020 0
-4044 3020 3788 2764 -2763 0
-2764 3788 0
-2768 3024 0
-4048 3024 3792 2768 -2767 0
-2776 2771 0
-2780 2771 0
-2812 2780 2804 2772 -2771 0
-3036 2780 3028 2772 -2771 0
-2804 2771 0
-2772 2804 0
-3060 2804 3028 2772 -2771 0
-2772 3028 0
-4052 3028 3796 2772 -2771 0
-2772 3796 0
-2776 3032 0
-4060 3036 3804 2780 -2779 0
-2780 3804 0
-2788 2792 0
-3048 2792 3044 2788 -2787 0
-3816 2792 3812 2788 -2787 0
-2788 2796 0
-2812 2796 2804 2788 -2787 0
-3052 2796 3044 2788 -2787 0
-3820 2796 3812 2788 -2787 0
-2804 2787 0
-2788 2804 0
-3060 2804 3044 2788 -2787 0
-3828 2804 3812 2788 -2787 0
-2788 3044 0
-4068 3044 3812 2788 -2787 0
-2788 3812 0
-2792 3048 0
-4072 3048 3816 2792 -2791 0
-2792 3816 0
-4076 3052 3820 2796 -2795 0
-2796 3820 0
-4084 3060 3828 2804 -2803 0
-2804 3828 0
-2819 2823 0
-2824 2819 0
-2832 2824 2828 2820 -2819 0
-2839 2823 2835 2819 -2818 0
-2840 2824 2836 2820 -2819 0
-2855 2823 2851 2819 -2818 0
-2856 2824 2852 2820 -2819 0
-2887 2823 2883 2819 -2818 0
-2888 2824 2884 2820 -2819 0
-2951 2823 2947 2819 -2818 0
-2952 2824 2948 2820 -2819 0
-3847 2823 3843 2819 -2818 0
-3848 2824 3844 2820 -2819 0
-2819 2827 0
-2828 2819 0
-2844 2828 2836 2820 -2819 0
-2860 2828 2852 2820 -2819 0
-2892 2828 2884 2820 -2819 0
-2956 2828 2948 2820 -2819 0
-3852 2828 3844 2820 -2819 0
-2819 2835 0
-2836 2819 0
-2867 2835 2851 2819 -2818 0
-2868 2836 2852 2820 -2819 0
-2900 2836 2884 2820 -2819 0
-2964 2836 2948 2820 -2819 0
-3859 2835 3843 2819 -2818 0
-3860 2836 3844 2820 -2819 0
-2819 2851 0
-2852 2819 0
-2915 2851 2883 2819 -2818 0
-2916 2852 2884 2820 -2819 0
-2979 2851 2947 2819 -2818 0
-2980 2852 2948 2820 -2819 0
-3875 2851 3843 2819 -2818 0
-3876 2852 3844 2820 -2819 0
-2819 2883 0
-2884 2819 0
-3011 2883 2947 2819 -2818 0
-3012 2884 2948 2820 -2819 0
-3907 2883 3843 2819 -2818 0
-3908 2884 3844 2820 -2819 0
-2819 2947 0
-2948 2819 0
-3972 2948 3844 2820 -2819 0
-2819 3843 0
-3844 2819 0
-2823 2831 0
-2824 2832 0
-2848 2832 2840 2824 -2823 0
-2864 2832 2856 2824 -2823 0
-2896 2832 2888 2824 -2823 0
-2960 2832 2952 2824 -2823 0
-3856 2832 3848 2824 -2823 0
-2823 2839 0
-2840 2823 0
-2824 2840 0
-2872 2840 2856 2824 -2823 0
-2904 2840 2888 2824 -2823 0
-2968 2840 2952 2824 -2823 0
-3864 2840 3848 2824 -2823 0
-2823 2855 0
-2856 2823 0
-2824 2856 0
-2920 2856 2888 2824 -2823 0
-2984 2856 2952 2824 -2823 0
-3880 2856 3848 2824 -2823 0
-2823 2887 0
-2888 2823 0
-2824 2888 0
-3016 2888 2952 2824 -2823 0
-3912 2888 3848 2824 -2823 0
-2823 2951 0
-2952 2823 0
-2824 2952 0
-3976 2952 3848 2824 -2823 0
-2823 3847 0
-3848 2823 0
-2824 3848 0
-2827 2831 0
-2832 2827 0
-2828 2832 0
-2896 2832 2892 2828 -2827 0
-2960 2832 2956 2828 -2827 0
-3856 2832 3852 2828 -2827 0
-2827 2843 0
-2844 2827 0
-2828 2844 0
-2876 2844 2860 2828 -2827 0
-2908 2844 2892 2828 -2827 0
-2972 2844 2956 2828 -2827 0
-3868 2844 3852 2828 -2827 0
-2827 2859 0
-2860 2827 0
-2828 2860 0
-2988 2860 2956 2828 -2827 0
-3884 2860 3852 2828 -2827 0
-2827 2891 0
-2828 2892 0
-3020 2892 2956 2828 -2827 0
-3916 2892 3852 2828 -2827 0
-2828 2956 0
-3980 2956 3852 2828 -2827 0
-2827 3851 0
-2828 3852 0
-2848 2831 0
-2832 2848 0
-2976 2848 2960 2832 -2831 0
-2832 2864 0
-2928 2864 2896 2832 -2831 0
-3888 2864 3856 2832 -2831 0
-2832 2896 0
-3024 2896 2960 2832 -2831 0
-3920 2896 3856 2832 -2831 0
-2832 2960 0
-2832 3856 0
-2840 2835 0
-2836 2840 0
-2848 2840 2844 2836 -2835 0
-2872 2840 2868 2836 -2835 0
-2904 2840 2900 2836 -2835 0
-2967 2839 2963 2835 -2834 0
-2968 2840 2964 2836 -2835 0
-3864 2840 3860 2836 -2835 0
-2835 2843 0
-2844 2835 0
-2836 2844 0
-2971 2843 2963 2835 -2834 0
-2972 2844 2964 2836 -2835 0
-3868 2844 3860 2836 -2835 0
-2835 2867 0
-2868 2835 0
-2836 2868 0
-2932 2868 2900 2836 -2835 0
-2995 2867 2963 2835 -2834 0
-2996 2868 2964 2836 -2835 0
-3892 2868 3860 2836 -2835 0
-2835 2899 0
-2900 2835 0
-2836 2900 0
-3028 2900 2964 2836 -2835 0
-3924 2900 3860 2836 -2835 0
-2835 2963 0
-2964 2835 0
-2836 2964 0
-3988 2964 3860 2836 -2835 0
-2835 3859 0
-3860 2835 0
-2836 3860 0
-3872 2848 3864 2840 -2839 0
-2872 2839 0
-2840 2872 0
-2936 2872 2904 2840 -2839 0
-3000 2872 2968 2840 -2839 0
-3896 2872 3864 2840 -2839 0
-2840 2904 0
-3032 2904 2968 2840 -2839 0
-3928 2904 3864 2840 -2839 0
-2968 2839 0
-2840 2968 0
-3992 2968 3864 2840 -2839 0
-2840 3864 0
-2848 2843 0
-2844 2848 0
-2912 2848 2908 2844 -2843 0
-2876 2843 0
-2844 2876 0
-2940 2876 2908 2844 -2843 0
-3900 2876 3868 2844 -2843 0
-2844 2908 0
-3036 2908 2972 2844 -2843 0
-3932 2908 3868 2844 -2843 0
-2844 2972 0
-3996 2972 3868 2844 -2843 0
-3868 2843 0
-2844 3868 0
-2848 2880 0
-2944 2880 2912 2848 -2847 0
-2848 3872 0
-2851 2855 0
-2856 2851 0
-2852 2856 0
-2864 2856 2860 2852 -2851 0
-2872 2856 2868 2852 -2851 0
-2920 2856 2916 2852 -2851 0
-2983 2855 2979 2851 -2850 0
-2984 2856 2980 2852 -2851 0
-3880 2856 3876 2852 -2851 0
-2851 2859 0
-2852 2860 0
-2876 2860 2868 2852 -2851 0
-2924 2860 2916 2852 -2851 0
-2987 2859 2979 2851 -2850 0
-2988 2860 2980 2852 -2851 0
-3884 2860 3876 2852 -2851 0
-2868 2851 0
-2852 2868 0
-2932 2868 2916 2852 -2851 0
-2996 2868 2980 2852 -2851 0
-3892 2868 3876 2852 -2851 0
-2851 2915 0
-2916 2851 0
-2852 2916 0
-3044 2916 2980 2852 -2851 0
-3940 2916 3876 2852 -2851 0
-2851 2979 0
-2980 2851 0
-2852 2980 0
-4004 2980 3876 2852 -2851 0
-2851 3875 0
-3876 2851 0
-2852 3876 0
-2864 2855 0
-2856 2864 0
-2928 2864 2920 2856 -2855 0
-2992 2864 2984 2856 -2855 0
-3888 2864 3880 2856 -2855 0
-2872 2855 0
-2856 2872 0
-2936 2872 2920 2856 -2855 0
-3000 2872 2984 2856 -2855 0
-3896 2872 3880 2856 -2855 0
-2856 2920 0
-3048 2920 2984 2856 -2855 0
-3944 2920 3880 2856 -2855 0
-2984 2855 0
-2856 2984 0
-4008 2984 3880 2856 -2855 0
-3880 2855 0
-2856 3880 0
-2864 2859 0
-2860 2864 0
-2928 2864 2924 2860 -2859 0
-2992 2864 2988 2860 -2859 0
-3888 2864 3884 2860 -2859 0
-2876 2859 0
-2940 2876 2924 2860 -2859 0
-2860 2924 0
-3052 2924 2988 2860 -2859 0
-3948 2924 3884 2860 -2859 0
-2860 2988 0
-4012 2988 3884 2860 -2859 0
-2860 3884 0
-2864 2880 0
-2944 2880 2928 2864 -2863 0
-2864 2992 0
-2864 3888 0
-2872 2867 0
-2868 2872 0
-2936 2872 2932 2868 -2867 0
-3000 2872 2996 2868 -2867 0
-2876 2867 0
-2868 2876 0
-3004 2876 2996 2868 -2867 0
-3900 2876 3892 2868 -2867 0
-2868 2932 0
-2868 2996 0
-4020 2996 3892 2868 -2867 0
-2868 3892 0
-2872 2880 0
-2944 2880 2936 2872 -2871 0
-3008 2880 3000 2872 -2871 0
-2872 2936 0
-2872 3000 0
-2872 3896 0
-2876 2880 0
-2944 2880 2940 2876 -2875 0
-3008 2880 3004 2876 -2875 0
-2876 2940 0
-2876 3004 0
-2883 2887 0
-2888 2883 0
-2884 2888 0
-2896 2888 2892 2884 -2883 0
-2904 2888 2900 2884 -2883 0
-2920 2888 2916 2884 -2883 0
-3016 2888 3012 2884 -2883 0
-3912 2888 3908 2884 -2883 0
-2892 2883 0
-2884 2892 0
-2908 2892 2900 2884 -2883 0
-2924 2892 2916 2884 -2883 0
-3020 2892 3012 2884 -2883 0
-3916 2892 3908 2884 -2883 0
-2900 2883 0
-2884 2900 0
-2932 2900 2916 2884 -2883 0
-3028 2900 3012 2884 -2883 0
-3924 2900 3908 2884 -2883 0
-2916 2883 0
-2884 2916 0
-3044 2916 3012 2884 -2883 0
-3940 2916 3908 2884 -2883 0
-2883 3011 0
-2884 3012 0
-4035 3011 3907 2883 -2882 0
-4036 3012 3908 2884 -2883 0
-2883 3907 0
-3908 2883 0
-2884 3908 0
-2928 2896 2920 2888 -2887 0
-3024 2896 3016 2888 -2887 0
-3920 2896 3912 2888 -2887 0
-2888 2904 0
-2936 2904 2920 2888 -2887 0
-3032 2904 3016 2888 -2887 0
-3928 2904 3912 2888 -2887 0
-2920 2887 0
-2888 2920 0
-3944 2920 3912 2888 -2887 0
-2888 3016 0
-4040 3016 3912 2888 -2887 0
-2888 3912 0
-3024 2896 3020 2892 -2891 0
-3920 2896 3916 2892 -2891 0
-2892 2908 0
-3036 2908 3020 2892 -2891 0
-3052 2924 3020 2892 -2891 0
-3948 2924 3916 2892 -2891 0
-2892 3020 0
-4044 3020 3916 2892 -2891 0
-2892 3916 0
-3056 2928 3024 2896 -2895 0
-2896 3024 0
-4048 3024 3920 2896 -2895 0
-2896 3920 0
-2900 2904 0
-3032 2904 3028 2900 -2899 0
-3928 2904 3924 2900 -2899 0
-2908 2899 0
-2900 2908 0
-3932 2908 3924 2900 -2899 0
-3956 2932 3924 2900 -2899 0
-2900 3028 0
-4052 3028 3924 2900 -2899 0
-2900 3924 0
-2904 3032 0
-4056 3032 3928 2904 -2903 0
-2904 3928 0
-4060 3036 3932 2908 -2907 0
-2908 3932 0
-2920 2915 0
-2916 2920 0
-2928 2920 2924 2916 -2915 0
-2936 2920 2932 2916 -2915 0
-3048 2920 3044 2916 -2915 0
-3944 2920 3940 2916 -2915 0
-2924 2915 0
-2916 2924 0
-3052 2924 3044 2916 -2915 0
-3948 2924 3940 2916 -2915 0
-3060 2932 3044 2916 -2915 0
-3956 2932 3940 2916 -2915 0
-2916 3044 0
-4068 3044 3940 2916 -2915 0
-2916 3940 0
-3952 2928 3944 2920 -2919 0
-2920 3048 0
-4072 3048 3944 2920 -2919 0
-2920 3944 0
-2924 3052 0
-4076 3052 3948 2924 -2923 0
-2924 3948 0
-4084 3060 3956 2932 -2931 0
-2932 3956 0
-2952 2947 0
-2948 2952 0
-2960 2952 2956 2948 -2947 0
-2968 2952 2964 2948 -2947 0
-2984 2952 2980 2948 -2947 0
-3016 2952 3012 2948 -2947 0
-2956 2947 0
-2948 2956 0
-2988 2956 2980 2948 -2947 0
-3020 2956 3012 2948 -2947 0
-3979 2955 3971 2947 -2946 0
-3980 2956 3972 2948 -2947 0
-2964 2947 0
-2948 2964 0
-2996 2964 2980 2948 -2947 0
-3028 2964 3012 2948 -2947 0
-3988 2964 3972 2948 -2947 0
-2980 2947 0
-2948 2980 0
-3044 2980 3012 2948 -2947 0
-4004 2980 3972 2948 -2947 0
-2947 3011 0
-2948 3012 0
-4035 3011 3971 2947 -2946 0
-4036 3012 3972 2948 -2947 0
-2947 3971 0
-3972 2947 0
-2948 3972 0
-2960 2951 0
-2952 2960 0
-2992 2960 2984 2952 -2951 0
-3024 2960 3016 2952 -2951 0
-3984 2960 3976 2952 -2951 0
-2952 2968 0
-3032 2968 3016 2952 -2951 0
-3992 2968 3976 2952 -2951 0
-2984 2951 0
-2952 2984 0
-4008 2984 3976 2952 -2951 0
-2952 3016 0
-4040 3016 3976 2952 -2951 0
-2952 3976 0
-2960 2955 0
-2956 2960 0
-2992 2960 2988 2956 -2955 0
-3024 2960 3020 2956 -2955 0
-3984 2960 3980 2956 -2955 0
-3036 2972 3020 2956 -2955 0
-3052 2988 3020 2956 -2955 0
-4012 2988 3980 2956 -2955 0
-2956 3020 0
-4044 3020 3980 2956 -2955 0
-2956 3980 0
-3040 2976 3024 2960 -2959 0
-4000 2976 3984 2960 -2959 0
-4016 2992 3984 2960 -2959 0
-2960 3024 0
-4048 3024 3984 2960 -2959 0
-2960 3984 0
-2964 2968 0
-3000 2968 2996 2964 -2963 0
-3032 2968 3028 2964 -2963 0
-3036 2972 3028 2964 -2963 0
-3996 2972 3988 2964 -2963 0
-2996 2963 0
-2964 2996 0
-4020 2996 3988 2964 -2963 0
-2964 3028 0
-4052 3028 3988 2964 -2963 0
-2968 3032 0
-4056 3032 3992 2968 -2967 0
-2968 3992 0
-4060 3036 3996 2972 -2971 0
-2972 3996 0
-2984 2979 0
-2980 2984 0
-3048 2984 3044 2980 -2979 0
-4008 2984 4004 2980 -2979 0
-2988 2979 0
-2980 2988 0
-3052 2988 3044 2980 -2979 0
-4012 2988 4004 2980 -2979 0
-2980 2996 0
-4020 2996 4004 2980 -2979 0
-2980 3044 0
-4068 3044 4004 2980 -2979 0
-2980 4004 0
-2984 3048 0
-4072 3048 4008 2984 -2983 0
-2984 4008 0
-2988 3052 0
-4076 3052 4012 2988 -2987 0
-2988 4012 0
-4084 3060 4020 2996 -2995 0
-2996 4020 0
-3016 3011 0
-3012 3016 0
-3024 3016 3020 3012 -3011 0
-3032 3016 3028 3012 -3011 0
-3048 3016 3044 3012 -3011 0
-3020 3011 0
-3012 3020 0
-3052 3020 3044 3012 -3011 0
-4044 3020 4036 3012 -3011 0
-3028 3011 0
-3012 3028 0
-3060 3028 3044 3012 -3011 0
-4052 3028 4036 3012 -3011 0
-3044 3011 0
-3012 3044 0
-4068 3044 4036 3012 -3011 0
-4036 3011 0
-3012 4036 0
-4048 3024 4040 3016 -3015 0
-3016 3032 0
-4056 3032 4040 3016 -3015 0
-4072 3048 4040 3016 -3015 0
-3016 4040 0
-4048 3024 4044 3020 -3019 0
-3020 3036 0
-4060 3036 4044 3020 -3019 0
-3020 3052 0
-4076 3052 4044 3020 -3019 0
-3020 4044 0
-3028 3032 0
-4056 3032 4052 3028 -3027 0
-3028 3036 0
-4060 3036 4052 3028 -3027 0
-3028 3060 0
-4084 3060 4052 3028 -3027 0
-3028 4052 0
-3044 3048 0
-4072 3048 4068 3044 -3043 0
-3044 3052 0
-4076 3052 4068 3044 -3043 0
-4084 3060 4068 3044 -3043 0
-3044 4068 0
-3079 3074 0
-3087 3079 3083 3075 -3074 0
-3095 3079 3091 3075 -3074 0
-3111 3079 3107 3075 -3074 0
-3143 3079 3139 3075 -3074 0
-3207 3079 3203 3075 -3074 0
-3335 3079 3331 3075 -3074 0
-3591 3079 3587 3075 -3074 0
-3083 3074 0
-3099 3083 3091 3075 -3074 0
-3115 3083 3107 3075 -3074 0
-3147 3083 3139 3075 -3074 0
-3211 3083 3203 3075 -3074 0
-3339 3083 3331 3075 -3074 0
-3595 3083 3587 3075 -3074 0
-3091 3074 0
-3123 3091 3107 3075 -3074 0
-3155 3091 3139 3075 -3074 0
-3219 3091 3203 3075 -3074 0
-3347 3091 3331 3075 -3074 0
-3107 3074 0
-3171 3107 3139 3075 -3074 0
-3363 3107 3331 3075 -3074 0
-3619 3107 3587 3075 -3074 0
-3139 3074 0
-3267 3139 3203 3075 -3074 0
-3395 3139 3331 3075 -3074 0
-3651 3139 3587 3075 -3074 0
-3203 3074 0
-3459 3203 3331 3075 -3074 0
-3715 3203 3587 3075 -3074 0
-3331 3074 0
-3843 3331 3587 3075 -3074 0
-3587 3074 0
-3079 3087 0
-3088 3079 0
-3104 3088 3096 3080 -3079 0
-3120 3088 3112 3080 -3079 0
-3152 3088 3144 3080 -3079 0
-3215 3087 3207 3079 -3078 0
-3216 3088 3208 3080 -3079 0
-3343 3087 3335 3079 -3078 0
-3344 3088 3336 3080 -3079 0
-3600 3088 3592 3080 -3079 0
-3079 3095 0
-3096 3079 0
-3128 3096 3112 3080 -3079 0
-3159 3095 3143 3079 -3078 0
-3160 3096 3144 3080 -3079 0
-3223 3095 3207 3079 -3078 0
-3224 3096 3208 3080 -3079 0
-3351 3095 3335 3079 -3078 0
-3352 3096 3336 3080 -3079 0
-3607 3095 3591 3079 -3078 0
-3608 3096 3592 3080 -3079 0
-3079 3111 0
-3112 3079 0
-3176 3112 3144 3080 -3079 0
-3239 3111 3207 3079 -3078 0
-3240 3112 3208 3080 -3079 0
-3368 3112 3336 3080 -3079 0
-3623 3111 3591 3079 -3078 0
-3624 3112 3592 3080 -3079 0
-3079 3143 0
-3144 3079 0
-3272 3144 3208 3080 -3079 0
-3399 3143 3335 3079 -3078 0
-3400 3144 3336 3080 -3079 0
-3655 3143 3591 3079 -3078 0
-3656 3144 3592 3080 -3079 0
-3079 3207 0
-3208 3079 0
-3463 3207 3335 3079 -3078 0
-3464 3208 3336 3080 -3079 0
-3720 3208 3592 3080 -3079 0
-3079 3335 0
-3336 3079 0
-3848 3336 3592 3080 -3079 0
-3079 3591 0
-3592 3079 0
-3083 3087 0
-3088 3083 0
-3104 3088 3100 3084 -3083 0
-3120 3088 3116 3084 -3083 0
-3152 3088 3148 3084 -3083 0
-3216 3088 3212 3084 -3083 0
-3344 3088 3340 3084 -3083 0
-3600 3088 3596 3084 -3083 0
-3083 3099 0
-3100 3083 0
-3132 3100 3116 3084 -3083 0
-3164 3100 3148 3084 -3083 0
-3227 3099 3211 3083 -3082 0
-3228 3100 3212 3084 -3083 0
-3356 3100 3340 3084 -3083 0
-3612 3100 3596 3084 -3083 0
-3083 3115 0
-3116 3083 0
-3179 3115 3147 3083 -3082 0
-3180 3116 3148 3084 -3083 0
-3243 3115 3211 3083 -3082 0
-3244 3116 3212 3084 -3083 0
-3372 3116 3340 3084 -3083 0
-3627 3115 3595 3083 -3082 0
-3628 3116 3596 3084 -3083 0
-3083 3147 0
-3148 3083 0
-3276 3148 3212 3084 -3083 0
-3404 3148 3340 3084 -3083 0
-3659 3147 3595 3083 -3082 0
-3660 3148 3596 3084 -3083 0
-3083 3211 0
-3212 3083 0
-3467 3211 3339 3083 -3082 0
-3468 3212 3340 3084 -3083 0
-3723 3211 3595 3083 -3082 0
-3724 3212 3596 3084 -3083 0
-3083 3339 0
-3340 3083 0
-3851 3339 3595 3083 -3082 0
-3852 3340 3596 3084 -3083 0
-3083 3595 0
-3596 3083 0
-3104 3087 0
-3088 3104 0
-3168 3104 3152 3088 -3087 0
-3232 3104 3216 3088 -3087 0
-3360 3104 3344 3088 -3087 0
-3616 3104 3600 3088 -3087 0
-3120 3087 0
-3088 3120 0
-3184 3120 3152 3088 -3087 0
-3248 3120 3216 3088 -3087 0
-3376 3120 3344 3088 -3087 0
-3632 3120 3600 3088 -3087 0
-3152 3087 0
-3088 3152 0
-3280 3152 3216 3088 -3087 0
-3408 3152 3344 3088 -3087 0
-3664 3152 3600 3088 -3087 0
-3087 3215 0
-3216 3087 0
-3088 3216 0
-3472 3216 3344 3088 -3087 0
-3728 3216 3600 3088 -3087 0
-3087 3343 0
-3344 3087 0
-3088 3344 0
-3856 3344 3600 3088 -3087 0
-3087 3599 0
-3088 3600 0
-3091 3095 0
-3096 3091 0
-3104 3096 3100 3092 -3091 0
-3128 3096 3124 3092 -3091 0
-3159 3095 3155 3091 -3090 0
-3160 3096 3156 3092 -3091 0
-3223 3095 3219 3091 -3090 0
-3224 3096 3220 3092 -3091 0
-3351 3095 3347 3091 -3090 0
-3352 3096 3348 3092 -3091 0
-3608 3096 3604 3092 -3091 0
-3091 3099 0
-3100 3091 0
-3132 3100 3124 3092 -3091 0
-3163 3099 3155 3091 -3090 0
-3164 3100 3156 3092 -3091 0
-3227 3099 3219 3091 -3090 0
-3228 3100 3220 3092 -3091 0
-3356 3100 3348 3092 -3091 0
-3611 3099 3603 3091 -3090 0
-3612 3100 3604 3092 -3091 0
-3091 3123 0
-3124 3091 0
-3188 3124 3156 3092 -3091 0
-3252 3124 3220 3092 -3091 0
-3380 3124 3348 3092 -3091 0
-3635 3123 3603 3091 -3090 0
-3636 3124 3604 3092 -3091 0
-3091 3155 0
-3156 3091 0
-3283 3155 3219 3091 -3090 0
-3284 3156 3220 3092 -3091 0
-3411 3155 3347 3091 -3090 0
-3412 3156 3348 3092 -3091 0
-3668 3156 3604 3092 -3091 0
-3091 3219 0
-3220 3091 0
-3475 3219 3347 3091 -3090 0
-3476 3220 3348 3092 -3091 0
-3732 3220 3604 3092 -3091 0
-3091 3347 0
-3348 3091 0
-3859 3347 3603 3091 -3090 0
-3860 3348 3604 3092 -3091 0
-3091 3603 0
-3604 3091 0
-3104 3095 0
-3096 3104 0
-3168 3104 3160 3096 -3095 0
-3232 3104 3224 3096 -3095 0
-3360 3104 3352 3096 -3095 0
-3616 3104 3608 3096 -3095 0
-3128 3095 0
-3096 3128 0
-3192 3128 3160 3096 -3095 0
-3256 3128 3224 3096 -3095 0
-3384 3128 3352 3096 -3095 0
-3640 3128 3608 3096 -3095 0
-3095 3159 0
-3160 3095 0
-3096 3160 0
-3288 3160 3224 3096 -3095 0
-3416 3160 3352 3096 -3095 0
-3672 3160 3608 3096 -3095 0
-3224 3095 0
-3096 3224 0
-3480 3224 3352 3096 -3095 0
-3095 3351 0
-3352 3095 0
-3096 3352 0
-3864 3352 3608 3096 -3095 0
-3095 3607 0
-3608 3095 0
-3096 3608 0
-3104 3099 0
-3100 3104 0
-3168 3104 3164 3100 -3099 0
-3232 3104 3228 3100 -3099 0
-3360 3104 3356 3100 -3099 0
-3616 3104 3612 3100 -3099 0
-3132 3099 0
-3100 3132 0
-3196 3132 3164 3100 -3099 0
-3260 3132 3228 3100 -3099 0
-3388 3132 3356 3100 -3099 0
-3644 3132 3612 3100 -3099 0
-3099 3163 0
-3100 3164 0
-3292 3164 3228 3100 -3099 0
-3420 3164 3356 3100 -3099 0
-3676 3164 3612 3100 -3099 0
-3099 3227 0
-3228 3099 0
-3100 3228 0
-3484 3228 3356 3100 -3099 0
-3740 3228 3612 3100 -3099 0
-3099 3355 0
-3356 3099 0
-3100 3356 0
-3868 3356 3612 3100 -3099 0
-3612 3099 0
-3100 3612 0
-3104 3136 0
-3200 3136 3168 3104 -3103 0
-3264 3136 3232 3104 -3103 0
-3392 3136 3360 3104 -3103 0
-3648 3136 3616 3104 -3103 0
-3104 3168 0
-3424 3168 3360 3104 -3103 0
-3680 3168 3616 3104 -3103 0
-3104 3232 0
-3488 3232 3360 3104 -3103 0
-3104 3360 0
-3104 3616 0
-3107 3111 0
-3112 3107 0
-3120 3112 3116 3108 -3107 0
-3128 3112 3124 3108 -3107 0
-3176 3112 3172 3108 -3107 0
-3239 3111 3235 3107 -3106 0
-3240 3112 3236 3108 -3107 0
-3368 3112 3364 3108 -3107 0
-3624 3112 3620 3108 -3107 0
-3107 3115 0
-3116 3107 0
-3132 3116 3124 3108 -3107 0
-3179 3115 3171 3107 -3106 0
-3180 3116 3172 3108 -3107 0
-3243 3115 3235 3107 -3106 0
-3244 3116 3236 3108 -3107 0
-3372 3116 3364 3108 -3107 0
-3627 3115 3619 3107 -3106 0
-3628 3116 3620 3108 -3107 0
-3107 3123 0
-3124 3107 0
-3187 3123 3171 3107 -3106 0
-3188 3124 3172 3108 -3107 0
-3251 3123 3235 3107 -3106 0
-3252 3124 3236 3108 -3107 0
-3380 3124 3364 3108 -3107 0
-3635 3123 3619 3107 -3106 0
-3636 3124 3620 3108 -3107 0
-3107 3171 0
-3172 3107 0
-3299 3171 3235 3107 -3106 0
-3300 3172 3236 3108 -3107 0
-3428 3172 3364 3108 -3107 0
-3684 3172 3620 3108 -3107 0
-3107 3235 0
-3236 3107 0
-3491 3235 3363 3107 -3106 0
-3492 3236 3364 3108 -3107 0
-3748 3236 3620 3108 -3107 0
-3107 3363 0
-3364 3107 0
-3875 3363 3619 3107 -3106 0
-3876 3364 3620 3108 -3107 0
-3107 3619 0
-3620 3107 0
-3120 3111 0
-3112 3120 0
-3184 3120 3176 3112 -3111 0
-3248 3120 3240 3112 -3111 0
-3376 3120 3368 3112 -3111 0
-3632 3120 3624 3112 -3111 0
-3112 3128 0
-3192 3128 3176 3112 -3111 0
-3256 3128 3240 3112 -3111 0
-3384 3128 3368 3112 -3111 0
-3640 3128 3624 3112 -3111 0
-3111 3175 0
-3112 3176 0
-3304 3176 3240 3112 -3111 0
-3432 3176 3368 3112 -3111 0
-3688 3176 3624 3112 -3111 0
-3112 3240 0
-3496 3240 3368 3112 -3111 0
-3111 3367 0
-3112 3368 0
-3880 3368 3624 3112 -3111 0
-3111 3623 0
-3112 3624 0
-3120 3115 0
-3116 3120 0
-3184 3120 3180 3116 -3115 0
-3248 3120 3244 3116 -3115 0
-3376 3120 3372 3116 -3115 0
-3632 3120 3628 3116 -3115 0
-3132 3115 0
-3116 3132 0
-3196 3132 3180 3116 -3115 0
-3260 3132 3244 3116 -3115 0
-3388 3132 3372 3116 -3115 0
-3644 3132 3628 3116 -3115 0
-3115 3179 0
-3180 3115 0
-3116 3180 0
-3307 3179 3243 3115 -3114 0
-3308 3180 3244 3116 -3115 0
-3436 3180 3372 3116 -3115 0
-3691 3179 3627 3115 -3114 0
-3692 3180 3628 3116 -3115 0
-3115 3243 0
-3244 3115 0
-3116 3244 0
-3500 3244 3372 3116 -3115 0
-3756 3244 3628 3116 -3115 0
-3115 3371 0
-3372 3115 0
-3116 3372 0
-3884 3372 3628 3116 -3115 0
-3115 3627 0
-3628 3115 0
-3116 3628 0
-3120 3136 0
-3200 3136 3184 3120 -3119 0
-3264 3136 3248 3120 -3119 0
-3392 3136 3376 3120 -3119 0
-3648 3136 3632 3120 -3119 0
-3120 3184 0
-3312 3184 3248 3120 -3119 0
-3440 3184 3376 3120 -3119 0
-3696 3184 3632 3120 -3119 0
-3120 3248 0
-3504 3248 3376 3120 -3119 0
-3760 3248 3632 3120 -3119 0
-3120 3376 0
-3888 3376 3632 3120 -3119 0
-3120 3632 0
-3128 3123 0
-3124 3128 0
-3192 3128 3188 3124 -3123 0
-3256 3128 3252 3124 -3123 0
-3384 3128 3380 3124 -3123 0
-3640 3128 3636 3124 -3123 0
-3132 3123 0
-3124 3132 0
-3196 3132 3188 3124 -3123 0
-3260 3132 3252 3124 -3123 0
-3388 3132 3380 3124 -3123 0
-3644 3132 3636 3124 -3123 0
-3123 3187 0
-3188 3123 0
-3124 3188 0
-3316 3188 3252 3124 -3123 0
-3444 3188 3380 3124 -3123 0
-3699 3187 3635 3123 -3122 0
-3123 3251 0
-3124 3252 0
-3508 3252 3380 3124 -3123 0
-3380 3123 0
-3124 3380 0
-3892 3380 3636 3124 -3123 0
-3123 3635 0
-3124 3636 0
-3128 3136 0
-3200 3136 3192 3128 -3127 0
-3264 3136 3256 3128 -3127 0
-3392 3136 3384 3128 -3127 0
-3648 3136 3640 3128 -3127 0
-3128 3192 0
-3320 3192 3256 3128 -3127 0
-3448 3192 3384 3128 -3127 0
-3704 3192 3640 3128 -3127 0
-3128 3256 0
-3512 3256 3384 3128 -3127 0
-3768 3256 3640 3128 -3127 0
-3128 3384 0
-3896 3384 3640 3128 -3127 0
-3128 3640 0
-3132 3136 0
-3200 3136 3196 3132 -3131 0
-3264 3136 3260 3132 -3131 0
-3392 3136 3388 3132 -3131 0
-3648 3136 3644 3132 -3131 0
-3132 3196 0
-3324 3196 3260 3132 -3131 0
-3708 3196 3644 3132 -3131 0
-3132 3260 0
-3772 3260 3644 3132 -3131 0
-3132 3388 0
-3900 3388 3644 3132 -3131 0
-3132 3644 0
-3328 3200 3264 3136 -3135 0
-3456 3200 3392 3136 -3135 0
-3712 3200 3648 3136 -3135 0
-3136 3264 0
-3520 3264 3392 3136 -3135 0
-3776 3264 3648 3136 -3135 0
-3904 3392 3648 3136 -3135 0
-3139 3143 0
-3144 3139 0
-3151 3143 3147 3139 -3138 0
-3152 3144 3148 3140 -3139 0
-3159 3143 3155 3139 -3138 0
-3160 3144 3156 3140 -3139 0
-3175 3143 3171 3139 -3138 0
-3176 3144 3172 3140 -3139 0
-3272 3144 3268 3140 -3139 0
-3399 3143 3395 3139 -3138 0
-3400 3144 3396 3140 -3139 0
-3656 3144 3652 3140 -3139 0
-3139 3147 0
-3148 3139 0
-3163 3147 3155 3139 -3138 0
-3164 3148 3156 3140 -3139 0
-3179 3147 3171 3139 -3138 0
-3180 3148 3172 3140 -3139 0
-3275 3147 3267 3139 -3138 0
-3276 3148 3268 3140 -3139 0
-3403 3147 3395 3139 -3138 0
-3404 3148 3396 3140 -3139 0
-3659 3147 3651 3139 -3138 0
-3660 3148 3652 3140 -3139 0
-3139 3155 0
-3156 3139 0
-3187 3155 3171 3139 -3138 0
-3188 3156 3172 3140 -3139 0
-3283 3155 3267 3139 -3138 0
-3284 3156 3268 3140 -3139 0
-3411 3155 3395 3139 -3138 0
-3412 3156 3396 3140 -3139 0
-3667 3155 3651 3139 -3138 0
-3668 3156 3652 3140 -3139 0
-3139 3171 0
-3172 3139 0
-3299 3171 3267 3139 -3138 0
-3300 3172 3268 3140 -3139 0
-3427 3171 3395 3139 -3138 0
-3428 3172 3396 3140 -3139 0
-3683 3171 3651 3139 -3138 0
-3684 3172 3652 3140 -3139 0
-3139 3267 0
-3268 3139 0
-3524 3268 3396 3140 -3139 0
-3780 3268 3652 3140 -3139 0
-3139 3395 0
-3396 3139 0
-3908 3396 3652 3140 -3139 0
-3652 3139 0
-3143 3151 0
-3152 3143 0
-3144 3152 0
-3168 3152 3160 3144 -3143 0
-3280 3152 3272 3144 -3143 0
-3408 3152 3400 3144 -3143 0
-3664 3152 3656 3144 -3143 0
-3143 3159 0
-3160 3143 0
-3144 3160 0
-3192 3160 3176 3144 -3143 0
-3287 3159 3271 3143 -3142 0
-3288 3160 3272 3144 -3143 0
-3416 3160 3400 3144 -3143 0
-3672 3160 3656 3144 -3143 0
-3143 3175 0
-3176 3143 0
-3144 3176 0
-3432 3176 3400 3144 -3143 0
-3143 3271 0
-3272 3143 0
-3144 3272 0
-3528 3272 3400 3144 -3143 0
-3784 3272 3656 3144 -3143 0
-3143 3399 0
-3144 3400 0
-3912 3400 3656 3144 -3143 0
-3143 3655 0
-3144 3656 0
-3152 3147 0
-3148 3152 0
-3280 3152 3276 3148 -3147 0
-3408 3152 3404 3148 -3147 0
-3164 3147 0
-3148 3164 0
-3196 3164 3180 3148 -3147 0
-3292 3164 3276 3148 -3147 0
-3420 3164 3404 3148 -3147 0
-3676 3164 3660 3148 -3147 0
-3147 3179 0
-3180 3147 0
-3148 3180 0
-3307 3179 3275 3147 -3146 0
-3308 3180 3276 3148 -3147 0
-3692 3180 3660 3148 -3147 0
-3147 3275 0
-3148 3276 0
-3532 3276 3404 3148 -3147 0
-3788 3276 3660 3148 -3147 0
-3148 3404 0
-3916 3404 3660 3148 -3147 0
-3147 3659 0
-3148 3660 0
-3168 3151 0
-3152 3168 0
-3296 3168 3280 3152 -3151 0
-3424 3168 3408 3152 -3151 0
-3680 3168 3664 3152 -3151 0
-3152 3184 0
-3312 3184 3280 3152 -3151 0
-3440 3184 3408 3152 -3151 0
-3152 3280 0
-3792 3280 3664 3152 -3151 0
-3152 3408 0
-3152 3664 0
-3155 3159 0
-3160 3155 0
-3156 3160 0
-3168 3160 3164 3156 -3155 0
-3192 3160 3188 3156 -3155 0
-3287 3159 3283 3155 -3154 0
-3416 3160 3412 3156 -3155 0
-3155 3163 0
-3164 3155 0
-3156 3164 0
-3196 3164 3188 3156 -3155 0
-3291 3163 3283 3155 -3154 0
-3292 3164 3284 3156 -3155 0
-3419 3163 3411 3155 -3154 0
-3420 3164 3412 3156 -3155 0
-3676 3164 3668 3156 -3155 0
-3188 3155 0
-3156 3188 0
-3444 3188 3412 3156 -3155 0
-3700 3188 3668 3156 -3155 0
-3155 3283 0
-3156 3284 0
-3540 3284 3412 3156 -3155 0
-3796 3284 3668 3156 -3155 0
-3155 3411 0
-3412 3155 0
-3156 3412 0
-3924 3412 3668 3156 -3155 0
-3155 3667 0
-3156 3668 0
-3160 3168 0
-3296 3168 3288 3160 -3159 0
-3424 3168 3416 3160 -3159 0
-3680 3168 3672 3160 -3159 0
-3192 3159 0
-3160 3192 0
-3448 3192 3416 3160 -3159 0
-3160 3288 0
-3800 3288 3672 3160 -3159 0
-3416 3159 0
-3160 3416 0
-3160 3672 0
-3168 3163 0
-3296 3168 3292 3164 -3163 0
-3424 3168 3420 3164 -3163 0
-3680 3168 3676 3164 -3163 0
-3196 3163 0
-3164 3196 0
-3324 3196 3292 3164 -3163 0
-3452 3196 3420 3164 -3163 0
-3164 3292 0
-3548 3292 3420 3164 -3163 0
-3420 3163 0
-3164 3420 0
-3932 3420 3676 3164 -3163 0
-3164 3676 0
-3168 3200 0
-3328 3200 3296 3168 -3167 0
-3456 3200 3424 3168 -3167 0
-3712 3200 3680 3168 -3167 0
-3168 3296 0
-3168 3424 0
-3168 3680 0
-3171 3175 0
-3176 3171 0
-3172 3176 0
-3184 3176 3180 3172 -3171 0
-3192 3176 3188 3172 -3171 0
-3304 3176 3300 3172 -3171 0
-3688 3176 3684 3172 -3171 0
-3180 3171 0
-3172 3180 0
-3196 3180 3188 3172 -3171 0
-3308 3180 3300 3172 -3171 0
-3436 3180 3428 3172 -3171 0
-3692 3180 3684 3172 -3171 0
-3188 3171 0
-3172 3188 0
-3316 3188 3300 3172 -3171 0
-3444 3188 3428 3172 -3171 0
-3700 3188 3684 3172 -3171 0
-3171 3299 0
-3300 3171 0
-3172 3300 0
-3556 3300 3428 3172 -3171 0
-3812 3300 3684 3172 -3171 0
-3171 3427 0
-3428 3171 0
-3172 3428 0
-3940 3428 3684 3172 -3171 0
-3171 3683 0
-3684 3171 0
-3172 3684 0
-3176 3184 0
-3312 3184 3304 3176 -3175 0
-3440 3184 3432 3176 -3175 0
-3696 3184 3688 3176 -3175 0
-3192 3175 0
-3176 3192 0
-3320 3192 3304 3176 -3175 0
-3448 3192 3432 3176 -3175 0
-3704 3192 3688 3176 -3175 0
-3176 3304 0
-3816 3304 3688 3176 -3175 0
-3432 3175 0
-3176 3432 0
-3176 3688 0
-3180 3184 0
-3440 3184 3436 3180 -3179 0
-3696 3184 3692 3180 -3179 0
-3196 3179 0
-3180 3196 0
-3324 3196 3308 3180 -3179 0
-3452 3196 3436 3180 -3179 0
-3708 3196 3692 3180 -3179 0
-3180 3308 0
-3564 3308 3436 3180 -3179 0
-3820 3308 3692 3180 -3179 0
-3180 3436 0
-3948 3436 3692 3180 -3179 0
-3180 3692 0
-3184 3200 0
-3328 3200 3312 3184 -3183 0
-3456 3200 3440 3184 -3183 0
-3712 3200 3696 3184 -3183 0
-3184 3440 0
-3192 3187 0
-3188 3192 0
-3320 3192 3316 3188 -3187 0
-3448 3192 3444 3188 -3187 0
-3704 3192 3700 3188 -3187 0
-3188 3196 0
-3324 3196 3316 3188 -3187 0
-3452 3196 3444 3188 -3187 0
-3708 3196 3700 3188 -3187 0
-3188 3316 0
-3572 3316 3444 3188 -3187 0
-3828 3316 3700 3188 -3187 0
-3188 3444 0
-3192 3200 0
-3328 3200 3320 3192 -3191 0
-3456 3200 3448 3192 -3191 0
-3712 3200 3704 3192 -3191 0
-3192 3320 0
-3192 3448 0
-3192 3704 0
-3196 3200 0
-3328 3200 3324 3196 -3195 0
-3456 3200 3452 3196 -3195 0
-3712 3200 3708 3196 -3195 0
-3196 3324 0
-3196 3452 0
-3203 3207 0
-3208 3203 0
-3215 3207 3211 3203 -3202 0
-3216 3208 3212 3204 -3203 0
-3223 3207 3219 3203 -3202 0
-3224 3208 3220 3204 -3203 0
-3239 3207 3235 3203 -3202 0
-3240 3208 3236 3204 -3203 0
-3271 3207 3267 3203 -3202 0
-3272 3208 3268 3204 -3203 0
-3463 3207 3459 3203 -3202 0
-3464 3208 3460 3204 -3203 0
-3719 3207 3715 3203 -3202 0
-3720 3208 3716 3204 -3203 0
-3203 3211 0
-3212 3203 0
-3227 3211 3219 3203 -3202 0
-3228 3212 3220 3204 -3203 0
-3243 3211 3235 3203 -3202 0
-3244 3212 3236 3204 -3203 0
-3275 3211 3267 3203 -3202 0
-3276 3212 3268 3204 -3203 0
-3467 3211 3459 3203 -3202 0
-3468 3212 3460 3204 -3203 0
-3723 3211 3715 3203 -3202 0
-3724 3212 3716 3204 -3203 0
-3203 3219 0
-3220 3203 0
-3251 3219 3235 3203 -3202 0
-3252 3220 3236 3204 -3203 0
-3283 3219 3267 3203 -3202 0
-3284 3220 3268 3204 -3203 0
-3475 3219 3459 3203 -3202 0
-3476 3220 3460 3204 -3203 0
-3731 3219 3715 3203 -3202 0
-3732 3220 3716 3204 -3203 0
-3203 3235 0
-3236 3203 0
-3299 3235 3267 3203 -3202 0
-3300 3236 3268 3204 -3203 0
-3491 3235 3459 3203 -3202 0
-3492 3236 3460 3204 -3203 0
-3747 3235 3715 3203 -3202 0
-3748 3236 3716 3204 -3203 0
-3203 3267 0
-3268 3203 0
-3523 3267 3459 3203 -3202 0
-3524 3268 3460 3204 -3203 0
-3780 3268 3716 3204 -3203 0
-3203 3459 0
-3460 3203 0
-3971 3459 3715 3203 -3202 0
-3972 3460 3716 3204 -3203 0
-3203 3715 0
-3716 3203 0
-3216 3207 0
-3208 3216 0
-3248 3216 3240 3208 -3207 0
-3280 3216 3272 3208 -3207 0
-3471 3215 3463 3207 -3206 0
-3472 3216 3464 3208 -3207 0
-3728 3216 3720 3208 -3207 0
-3224 3207 0
-3208 3224 0
-3288 3224 3272 3208 -3207 0
-3480 3224 3464 3208 -3207 0
-3735 3223 3719 3207 -3206 0
-3736 3224 3720 3208 -3207 0
-3207 3239 0
-3240 3207 0
-3208 3240 0
-3304 3240 3272 3208 -3207 0
-3496 3240 3464 3208 -3207 0
-3752 3240 3720 3208 -3207 0
-3207 3271 0
-3208 3272 0
-3528 3272 3464 3208 -3207 0
-3784 3272 3720 3208 -3207 0
-3207 3463 0
-3208 3464 0
-3207 3719 0
-3208 3720 0
-3212 3216 0
-3232 3216 3228 3212 -3211 0
-3280 3216 3276 3212 -3211 0
-3728 3216 3724 3212 -3211 0
-3228 3211 0
-3212 3228 0
-3291 3227 3275 3211 -3210 0
-3292 3228 3276 3212 -3211 0
-3483 3227 3467 3211 -3210 0
-3484 3228 3468 3212 -3211 0
-3740 3228 3724 3212 -3211 0
-3244 3211 0
-3212 3244 0
-3500 3244 3468 3212 -3211 0
-3756 3244 3724 3212 -3211 0
-3211 3275 0
-3276 3211 0
-3212 3276 0
-3532 3276 3468 3212 -3211 0
-3788 3276 3724 3212 -3211 0
-3211 3467 0
-3212 3468 0
-3980 3468 3724 3212 -3211 0
-3211 3723 0
-3724 3211 0
-3212 3724 0
-3232 3215 0
-3216 3232 0
-3488 3232 3472 3216 -3215 0
-3248 3215 0
-3216 3248 0
-3504 3248 3472 3216 -3215 0
-3216 3280 0
-3536 3280 3472 3216 -3215 0
-3216 3472 0
-3984 3472 3728 3216 -3215 0
-3216 3728 0
-3224 3219 0
-3220 3224 0
-3288 3224 3284 3220 -3219 0
-3480 3224 3476 3220 -3219 0
-3228 3219 0
-3220 3228 0
-3292 3228 3284 3220 -3219 0
-3483 3227 3475 3219 -3218 0
-3484 3228 3476 3220 -3219 0
-3740 3228 3732 3220 -3219 0
-3220 3252 0
-3508 3252 3476 3220 -3219 0
-3764 3252 3732 3220 -3219 0
-3220 3284 0
-3540 3284 3476 3220 -3219 0
-3796 3284 3732 3220 -3219 0
-3219 3475 0
-3220 3476 0
-3988 3476 3732 3220 -3219 0
-3732 3219 0
-3220 3732 0
-3256 3223 0
-3224 3256 0
-3512 3256 3480 3224 -3223 0
-3224 3480 0
-3224 3736 0
-3232 3227 0
-3228 3232 0
-3260 3227 0
-3228 3260 0
-3228 3292 0
-3804 3292 3740 3228 -3227 0
-3228 3484 0
-3996 3484 3740 3228 -3227 0
-3740 3227 0
-3228 3740 0
-3232 3264 0
-3520 3264 3488 3232 -3231 0
-3232 3296 0
-3232 3488 0
-3232 3744 0
-3240 3235 0
-3236 3240 0
-3256 3240 3252 3236 -3235 0
-3303 3239 3299 3235 -3234 0
-3304 3240 3300 3236 -3235 0
-3496 3240 3492 3236 -3235 0
-3752 3240 3748 3236 -3235 0
-3244 3235 0
-3236 3244 0
-3307 3243 3299 3235 -3234 0
-3308 3244 3300 3236 -3235 0
-3500 3244 3492 3236 -3235 0
-3755 3243 3747 3235 -3234 0
-3756 3244 3748 3236 -3235 0
-3252 3235 0
-3236 3252 0
-3315 3251 3299 3235 -3234 0
-3316 3252 3300 3236 -3235 0
-3508 3252 3492 3236 -3235 0
-3764 3252 3748 3236 -3235 0
-3235 3299 0
-3300 3235 0
-3236 3300 0
-3556 3300 3492 3236 -3235 0
-3812 3300 3748 3236 -3235 0
-3235 3491 0
-3492 3235 0
-3236 3492 0
-4004 3492 3748 3236 -3235 0
-3235 3747 0
-3748 3235 0
-3236 3748 0
-3240 3248 0
-3504 3248 3496 3240 -3239 0
-3760 3248 3752 3240 -3239 0
-3256 3239 0
-3240 3256 0
-3512 3256 3496 3240 -3239 0
-3304 3239 0
-3240 3304 0
-3816 3304 3752 3240 -3239 0
-3240 3496 0
-3240 3752 0
-3244 3248 0
-3504 3248 3500 3244 -3243 0
-3260 3243 0
-3244 3260 0
-3516 3260 3500 3244 -3243 0
-3244 3308 0
-3820 3308 3756 3244 -3243 0
-3244 3500 0
-4012 3500 3756 3244 -3243 0
-3244 3756 0
-3520 3264 3504 3248 -3247 0
-3248 3312 0
-3248 3760 0
-3256 3251 0
-3512 3256 3508 3252 -3251 0
-3260 3251 0
-3252 3260 0
-3516 3260 3508 3252 -3251 0
-3772 3260 3764 3252 -3251 0
-3316 3251 0
-3252 3316 0
-3572 3316 3508 3252 -3251 0
-3828 3316 3764 3252 -3251 0
-3252 3508 0
-3252 3764 0
-3256 3264 0
-3328 3264 3320 3256 -3255 0
-3520 3264 3512 3256 -3255 0
-3776 3264 3768 3256 -3255 0
-3256 3320 0
-3256 3512 0
-3520 3264 3516 3260 -3259 0
-3260 3324 0
-3260 3772 0
-3272 3267 0
-3268 3272 0
-3280 3272 3276 3268 -3267 0
-3288 3272 3284 3268 -3267 0
-3304 3272 3300 3268 -3267 0
-3528 3272 3524 3268 -3267 0
-3784 3272 3780 3268 -3267 0
-3276 3267 0
-3268 3276 0
-3292 3276 3284 3268 -3267 0
-3308 3276 3300 3268 -3267 0
-3532 3276 3524 3268 -3267 0
-3788 3276 3780 3268 -3267 0
-3284 3267 0
-3268 3284 0
-3316 3284 3300 3268 -3267 0
-3540 3284 3524 3268 -3267 0
-3796 3284 3780 3268 -3267 0
-3268 3300 0
-3556 3300 3524 3268 -3267 0
-3812 3300 3780 3268 -3267 0
-3267 3523 0
-3268 3524 0
-4035 3523 3779 3267 -3266 0
-4036 3524 3780 3268 -3267 0
-3267 3779 0
-3780 3267 0
-3268 3780 0
-3272 3280 0
-3536 3280 3528 3272 -3271 0
-3320 3288 3304 3272 -3271 0
-3544 3288 3528 3272 -3271 0
-3272 3304 0
-3816 3304 3784 3272 -3271 0
-4040 3528 3784 3272 -3271 0
-3272 3784 0
-3276 3280 0
-3296 3280 3292 3276 -3275 0
-3792 3280 3788 3276 -3275 0
-3292 3275 0
-3548 3292 3532 3276 -3275 0
-3276 3308 0
-3564 3308 3532 3276 -3275 0
-3820 3308 3788 3276 -3275 0
-3276 3532 0
-4044 3532 3788 3276 -3275 0
-3276 3788 0
-4048 3536 3792 3280 -3279 0
-3280 3792 0
-3288 3283 0
-3800 3288 3796 3284 -3283 0
-3292 3283 0
-3284 3292 0
-3548 3292 3540 3284 -3283 0
-3804 3292 3796 3284 -3283 0
-3284 3316 0
-3828 3316 3796 3284 -3283 0
-3284 3540 0
-4052 3540 3796 3284 -3283 0
-3284 3796 0
-3292 3548 0
-3304 3299 0
-3300 3304 0
-3560 3304 3556 3300 -3299 0
-3816 3304 3812 3300 -3299 0
-3308 3299 0
-3300 3308 0
-3564 3308 3556 3300 -3299 0
-3820 3308 3812 3300 -3299 0
-3316 3299 0
-3300 3316 0
-3572 3316 3556 3300 -3299 0
-3828 3316 3812 3300 -3299 0
-3300 3556 0
-4068 3556 3812 3300 -3299 0
-3304 3560 0
-4072 3560 3816 3304 -3303 0
-3568 3312 3564 3308 -3307 0
-3580 3324 3564 3308 -3307 0
-3308 3564 0
-4076 3564 3820 3308 -3307 0
-3308 3820 0
-3316 3324 0
-3316 3572 0
-4084 3572 3828 3316 -3315 0
-3331 3335 0
-3336 3331 0
-3343 3335 3339 3331 -3330 0
-3344 3336 3340 3332 -3331 0
-3351 3335 3347 3331 -3330 0
-3352 3336 3348 3332 -3331 0
-3367 3335 3363 3331 -3330 0
-3368 3336 3364 3332 -3331 0
-3399 3335 3395 3331 -3330 0
-3400 3336 3396 3332 -3331 0
-3463 3335 3459 3331 -3330 0
-3464 3336 3460 3332 -3331 0
-3847 3335 3843 3331 -3330 0
-3848 3336 3844 3332 -3331 0
-3331 3339 0
-3340 3331 0
-3355 3339 3347 3331 -3330 0
-3356 3340 3348 3332 -3331 0
-3371 3339 3363 3331 -3330 0
-3372 3340 3364 3332 -3331 0
-3403 3339 3395 3331 -3330 0
-3404 3340 3396 3332 -3331 0
-3467 3339 3459 3331 -3330 0
-3468 3340 3460 3332 -3331 0
-3851 3339 3843 3331 -3330 0
-3852 3340 3844 3332 -3331 0
-3331 3347 0
-3348 3331 0
-3379 3347 3363 3331 -3330 0
-3380 3348 3364 3332 -3331 0
-3412 3348 3396 3332 -3331 0
-3475 3347 3459 3331 -3330 0
-3476 3348 3460 3332 -3331 0
-3859 3347 3843 3331 -3330 0
-3860 3348 3844 3332 -3331 0
-3331 3363 0
-3364 3331 0
-3427 3363 3395 3331 -3330 0
-3428 3364 3396 3332 -3331 0
-3491 3363 3459 3331 -3330 0
-3492 3364 3460 3332 -3331 0
-3875 3363 3843 3331 -3330 0
-3876 3364 3844 3332 -3331 0
-3331 3395 0
-3396 3331 0
-3524 3396 3460 3332 -3331 0
-3907 3395 3843 3331 -3330 0
-3908 3396 3844 3332 -3331 0
-3331 3459 0
-3460 3331 0
-3971 3459 3843 3331 -3330 0
-3972 3460 3844 3332 -3331 0
-3331 3843 0
-3844 3331 0
-3335 3343 0
-3344 3335 0
-3336 3344 0
-3360 3344 3352 3336 -3335 0
-3376 3344 3368 3336 -3335 0
-3408 3344 3400 3336 -3335 0
-3472 3344 3464 3336 -3335 0
-3856 3344 3848 3336 -3335 0
-3335 3351 0
-3352 3335 0
-3336 3352 0
-3384 3352 3368 3336 -3335 0
-3416 3352 3400 3336 -3335 0
-3480 3352 3464 3336 -3335 0
-3864 3352 3848 3336 -3335 0
-3335 3367 0
-3368 3335 0
-3336 3368 0
-3432 3368 3400 3336 -3335 0
-3496 3368 3464 3336 -3335 0
-3880 3368 3848 3336 -3335 0
-3336 3400 0
-3528 3400 3464 3336 -3335 0
-3912 3400 3848 3336 -3335 0
-3335 3463 0
-3464 3335 0
-3336 3464 0
-3976 3464 3848 3336 -3335 0
-3335 3847 0
-3848 3335 0
-3336 3848 0
-3339 3343 0
-3344 3339 0
-3340 3344 0
-3408 3344 3404 3340 -3339 0
-3472 3344 3468 3340 -3339 0
-3856 3344 3852 3340 -3339 0
-3339 3355 0
-3356 3339 0
-3340 3356 0
-3419 3355 3403 3339 -3338 0
-3420 3356 3404 3340 -3339 0
-3484 3356 3468 3340 -3339 0
-3868 3356 3852 3340 -3339 0
-3339 3371 0
-3372 3339 0
-3340 3372 0
-3436 3372 3404 3340 -3339 0
-3500 3372 3468 3340 -3339 0
-3884 3372 3852 3340 -3339 0
-3339 3403 0
-3340 3404 0
-3532 3404 3468 3340 -3339 0
-3916 3404 3852 3340 -3339 0
-3339 3467 0
-3468 3339 0
-3340 3468 0
-3980 3468 3852 3340 -3339 0
-3339 3851 0
-3852 3339 0
-3340 3852 0
-3360 3343 0
-3344 3360 0
-3488 3360 3472 3344 -3343 0
-3872 3360 3856 3344 -3343 0
-3376 3343 0
-3344 3376 0
-3440 3376 3408 3344 -3343 0
-3504 3376 3472 3344 -3343 0
-3888 3376 3856 3344 -3343 0
-3408 3343 0
-3344 3408 0
-3920 3408 3856 3344 -3343 0
-3472 3343 0
-3344 3472 0
-3984 3472 3856 3344 -3343 0
-3856 3343 0
-3344 3856 0
-3347 3351 0
-3352 3347 0
-3348 3352 0
-3360 3352 3356 3348 -3347 0
-3384 3352 3380 3348 -3347 0
-3416 3352 3412 3348 -3347 0
-3479 3351 3475 3347 -3346 0
-3480 3352 3476 3348 -3347 0
-3863 3351 3859 3347 -3346 0
-3864 3352 3860 3348 -3347 0
-3347 3355 0
-3356 3347 0
-3348 3356 0
-3388 3356 3380 3348 -3347 0
-3420 3356 3412 3348 -3347 0
-3484 3356 3476 3348 -3347 0
-3867 3355 3859 3347 -3346 0
-3868 3356 3860 3348 -3347 0
-3347 3379 0
-3380 3347 0
-3348 3380 0
-3444 3380 3412 3348 -3347 0
-3508 3380 3476 3348 -3347 0
-3892 3380 3860 3348 -3347 0
-3347 3411 0
-3412 3347 0
-3348 3412 0
-3540 3412 3476 3348 -3347 0
-3924 3412 3860 3348 -3347 0
-3347 3475 0
-3476 3347 0
-3348 3476 0
-3988 3476 3860 3348 -3347 0
-3347 3859 0
-3860 3347 0
-3348 3860 0
-3352 3360 0
-3424 3360 3416 3352 -3351 0
-3488 3360 3480 3352 -3351 0
-3872 3360 3864 3352 -3351 0
-3384 3351 0
-3352 3384 0
-3448 3384 3416 3352 -3351 0
-3512 3384 3480 3352 -3351 0
-3896 3384 3864 3352 -3351 0
-3416 3351 0
-3352 3416 0
-3544 3416 3480 3352 -3351 0
-3928 3416 3864 3352 -3351 0
-3352 3480 0
-3992 3480 3864 3352 -3351 0
-3864 3351 0
-3352 3864 0
-3360 3355 0
-3356 3360 0
-3424 3360 3420 3356 -3355 0
-3488 3360 3484 3356 -3355 0
-3872 3360 3868 3356 -3355 0
-3388 3355 0
-3356 3388 0
-3452 3388 3420 3356 -3355 0
-3516 3388 3484 3356 -3355 0
-3900 3388 3868 3356 -3355 0
-3420 3355 0
-3356 3420 0
-3548 3420 3484 3356 -3355 0
-3932 3420 3868 3356 -3355 0
-3356 3484 0
-3996 3484 3868 3356 -3355 0
-3868 3355 0
-3356 3868 0
-3360 3392 0
-3456 3392 3424 3360 -3359 0
-3520 3392 3488 3360 -3359 0
-3360 3424 0
-3360 3488 0
-3360 3872 0
-3368 3363 0
-3364 3368 0
-3431 3367 3427 3363 -3362 0
-3432 3368 3428 3364 -3363 0
-3495 3367 3491 3363 -3362 0
-3496 3368 3492 3364 -3363 0
-3879 3367 3875 3363 -3362 0
-3880 3368 3876 3364 -3363 0
-3372 3363 0
-3364 3372 0
-3436 3372 3428 3364 -3363 0
-3500 3372 3492 3364 -3363 0
-3884 3372 3876 3364 -3363 0
-3380 3363 0
-3364 3380 0
-3444 3380 3428 3364 -3363 0
-3508 3380 3492 3364 -3363 0
-3892 3380 3876 3364 -3363 0
-3363 3427 0
-3428 3363 0
-3364 3428 0
-3556 3428 3492 3364 -3363 0
-3940 3428 3876 3364 -3363 0
-3363 3491 0
-3364 3492 0
-4004 3492 3876 3364 -3363 0
-3363 3875 0
-3876 3363 0
-3364 3876 0
-3376 3367 0
-3368 3376 0
-3440 3376 3432 3368 -3367 0
-3504 3376 3496 3368 -3367 0
-3384 3367 0
-3368 3384 0
-3448 3384 3432 3368 -3367 0
-3512 3384 3496 3368 -3367 0
-3432 3367 0
-3368 3432 0
-3560 3432 3496 3368 -3367 0
-3944 3432 3880 3368 -3367 0
-3368 3496 0
-3368 3880 0
-3376 3371 0
-3372 3376 0
-3440 3376 3436 3372 -3371 0
-3504 3376 3500 3372 -3371 0
-3888 3376 3884 3372 -3371 0
-3388 3371 0
-3372 3388 0
-3452 3388 3436 3372 -3371 0
-3516 3388 3500 3372 -3371 0
-3900 3388 3884 3372 -3371 0
-3372 3436 0
-3564 3436 3500 3372 -3371 0
-3948 3436 3884 3372 -3371 0
-3500 3371 0
-3372 3500 0
-3372 3884 0
-3376 3392 0
-3456 3392 3440 3376 -3375 0
-3520 3392 3504 3376 -3375 0
-3376 3440 0
-3376 3888 0
-3384 3379 0
-3380 3384 0
-3512 3384 3508 3380 -3379 0
-3388 3379 0
-3452 3388 3444 3380 -3379 0
-3516 3388 3508 3380 -3379 0
-3380 3444 0
-3956 3444 3892 3380 -3379 0
-3380 3508 0
-4020 3508 3892 3380 -3379 0
-3892 3379 0
-3380 3892 0
-3384 3392 0
-3456 3392 3448 3384 -3383 0
-3520 3392 3512 3384 -3383 0
-3384 3448 0
-3384 3512 0
-3384 3896 0
-3388 3392 0
-3456 3392 3452 3388 -3387 0
-3520 3392 3516 3388 -3387 0
-3388 3452 0
-3388 3900 0
-3395 3399 0
-3400 3395 0
-3396 3400 0
-3408 3400 3404 3396 -3395 0
-3416 3400 3412 3396 -3395 0
-3432 3400 3428 3396 -3395 0
-3528 3400 3524 3396 -3395 0
-3912 3400 3908 3396 -3395 0
-3396 3404 0
-3420 3404 3412 3396 -3395 0
-3436 3404 3428 3396 -3395 0
-3532 3404 3524 3396 -3395 0
-3916 3404 3908 3396 -3395 0
-3412 3395 0
-3396 3412 0
-3444 3412 3428 3396 -3395 0
-3540 3412 3524 3396 -3395 0
-3924 3412 3908 3396 -3395 0
-3428 3395 0
-3396 3428 0
-3556 3428 3524 3396 -3395 0
-3940 3428 3908 3396 -3395 0
-3395 3523 0
-3396 3524 0
-4035 3523 3907 3395 -3394 0
-4036 3524 3908 3396 -3395 0
-3395 3907 0
-3396 3908 0
-3408 3399 0
-3440 3408 3432 3400 -3399 0
-3536 3408 3528 3400 -3399 0
-3920 3408 3912 3400 -3399 0
-3416 3399 0
-3400 3416 0
-3448 3416 3432 3400 -3399 0
-3544 3416 3528 3400 -3399 0
-3928 3416 3912 3400 -3399 0
-3432 3399 0
-3400 3432 0
-3944 3432 3912 3400 -3399 0
-3400 3528 0
-4040 3528 3912 3400 -3399 0
-3400 3912 0
-3408 3403 0
-3420 3403 0
-3404 3420 0
-3548 3420 3532 3404 -3403 0
-3564 3436 3532 3404 -3403 0
-3948 3436 3916 3404 -3403 0
-3404 3532 0
-4044 3532 3916 3404 -3403 0
-3404 3916 0
-4048 3536 3920 3408 -3407 0
-3408 3920 0
-3412 3416 0
-3424 3416 3420 3412 -3411 0
-3420 3411 0
-3412 3420 0
-3548 3420 3540 3412 -3411 0
-3932 3420 3924 3412 -3411 0
-3412 3444 0
-3572 3444 3540 3412 -3411 0
-3956 3444 3924 3412 -3411 0
-3412 3540 0
-4052 3540 3924 3412 -3411 0
-3412 3924 0
-3416 3544 0
-4056 3544 3928 3416 -3415 0
-3416 3928 0
-3420 3548 0
-4060 3548 3932 3420 -3419 0
-3420 3932 0
-3432 3427 0
-3428 3432 0
-3440 3432 3436 3428 -3427 0
-3560 3432 3556 3428 -3427 0
-3944 3432 3940 3428 -3427 0
-3436 3427 0
-3428 3436 0
-3564 3436 3556 3428 -3427 0
-3948 3436 3940 3428 -3427 0
-3444 3427 0
-3428 3444 0
-3572 3444 3556 3428 -3427 0
-3956 3444 3940 3428 -3427 0
-3428 3556 0
-4068 3556 3940 3428 -3427 0
-3428 3940 0
-3568 3440 3560 3432 -3431 0
-3432 3560 0
-4072 3560 3944 3432 -3431 0
-3432 3944 0
-3436 3564 0
-4076 3564 3948 3436 -3435 0
-4084 3572 3956 3444 -3443 0
-3444 3956 0
-3464 3459 0
-3460 3464 0
-3472 3464 3468 3460 -3459 0
-3480 3464 3476 3460 -3459 0
-3496 3464 3492 3460 -3459 0
-3528 3464 3524 3460 -3459 0
-3976 3464 3972 3460 -3459 0
-3468 3459 0
-3460 3468 0
-3500 3468 3492 3460 -3459 0
-3532 3468 3524 3460 -3459 0
-3980 3468 3972 3460 -3459 0
-3476 3459 0
-3460 3476 0
-3508 3476 3492 3460 -3459 0
-3540 3476 3524 3460 -3459 0
-3988 3476 3972 3460 -3459 0
-3492 3459 0
-3460 3492 0
-3556 3492 3524 3460 -3459 0
-4004 3492 3972 3460 -3459 0
-3459 3523 0
-3460 3524 0
-4035 3523 3971 3459 -3458 0
-4036 3524 3972 3460 -3459 0
-3459 3971 0
-3972 3459 0
-3460 3972 0
-3472 3463 0
-3464 3472 0
-3504 3472 3496 3464 -3463 0
-3536 3472 3528 3464 -3463 0
-3464 3480 0
-3512 3480 3496 3464 -3463 0
-3992 3480 3976 3464 -3463 0
-3496 3463 0
-3464 3496 0
-3464 3528 0
-4040 3528 3976 3464 -3463 0
-3464 3976 0
-3472 3467 0
-3468 3472 0
-3488 3472 3484 3468 -3467 0
-3504 3472 3500 3468 -3467 0
-3536 3472 3532 3468 -3467 0
-3984 3472 3980 3468 -3467 0
-3468 3484 0
-3516 3484 3500 3468 -3467 0
-3468 3500 0
-3564 3500 3532 3468 -3467 0
-4012 3500 3980 3468 -3467 0
-3468 3532 0
-4044 3532 3980 3468 -3467 0
-3468 3980 0
-4048 3536 3984 3472 -3471 0
-3472 3984 0
-3476 3480 0
-3484 3475 0
-3476 3484 0
-3548 3484 3540 3476 -3475 0
-3996 3484 3988 3476 -3475 0
-3476 3508 0
-4020 3508 3988 3476 -3475 0
-3476 3540 0
-4052 3540 3988 3476 -3475 0
-3476 3988 0
-3480 3544 0
-4056 3544 3992 3480 -3479 0
-3480 3992 0
-4000 3488 3996 3484 -3483 0
-3484 3548 0
-4060 3548 3996 3484 -3483 0
-3484 3996 0
-3496 3491 0
-3512 3496 3508 3492 -3491 0
-3560 3496 3556 3492 -3491 0
-4008 3496 4004 3492 -3491 0
-3500 3491 0
-3492 3500 0
-3564 3500 3556 3492 -3491 0
-4012 3500 4004 3492 -3491 0
-3492 3508 0
-3572 3508 3556 3492 -3491 0
-4020 3508 4004 3492 -3491 0
-3492 3556 0
-4068 3556 4004 3492 -3491 0
-3492 4004 0
-3568 3504 3560 3496 -3495 0
-3496 3512 0
-3576 3512 3560 3496 -3495 0
-3496 3560 0
-3500 3516 0
-3500 3564 0
-4076 3564 4012 3500 -3499 0
-3500 4012 0
-3508 3512 0
-3508 3572 0
-4084 3572 4020 3508 -3507 0
-3508 4020 0
-3524 3528 0
-3536 3528 3532 3524 -3523 0
-3544 3528 3540 3524 -3523 0
-3560 3528 3556 3524 -3523 0
-4040 3528 4036 3524 -3523 0
-3532 3523 0
-3524 3532 0
-3548 3532 3540 3524 -3523 0
-3564 3532 3556 3524 -3523 0
-4044 3532 4036 3524 -3523 0
-3524 3540 0
-3572 3540 3556 3524 -3523 0
-4052 3540 4036 3524 -3523 0
-3556 3523 0
-3524 3556 0
-4068 3556 4036 3524 -3523 0
-4048 3536 4040 3528 -3527 0
-4056 3544 4040 3528 -3527 0
-4072 3560 4040 3528 -3527 0
-3528 4040 0
-3532 3536 0
-4048 3536 4044 3532 -3531 0
-3532 3548 0
-4060 3548 4044 3532 -3531 0
-3532 3564 0
-4076 3564 4044 3532 -3531 0
-3532 4044 0
-3540 3548 0
-4060 3548 4052 3540 -3539 0
-4084 3572 4052 3540 -3539 0
-3540 4052 0
-4072 3560 4068 3556 -3555 0
-4076 3564 4068 3556 -3555 0
-4084 3572 4068 3556 -3555 0
-3556 4068 0
-3587 3591 0
-3592 3587 0
-3599 3591 3595 3587 -3586 0
-3600 3592 3596 3588 -3587 0
-3607 3591 3603 3587 -3586 0
-3608 3592 3604 3588 -3587 0
-3623 3591 3619 3587 -3586 0
-3624 3592 3620 3588 -3587 0
-3655 3591 3651 3587 -3586 0
-3656 3592 3652 3588 -3587 0
-3719 3591 3715 3587 -3586 0
-3720 3592 3716 3588 -3587 0
-3847 3591 3843 3587 -3586 0
-3848 3592 3844 3588 -3587 0
-3587 3595 0
-3596 3587 0
-3611 3595 3603 3587 -3586 0
-3612 3596 3604 3588 -3587 0
-3627 3595 3619 3587 -3586 0
-3628 3596 3620 3588 -3587 0
-3660 3596 3652 3588 -3587 0
-3724 3596 3716 3588 -3587 0
-3852 3596 3844 3588 -3587 0
-3587 3603 0
-3604 3587 0
-3635 3603 3619 3587 -3586 0
-3636 3604 3620 3588 -3587 0
-3668 3604 3652 3588 -3587 0
-3732 3604 3716 3588 -3587 0
-3860 3604 3844 3588 -3587 0
-3587 3619 0
-3620 3587 0
-3683 3619 3651 3587 -3586 0
-3684 3620 3652 3588 -3587 0
-3747 3619 3715 3587 -3586 0
-3748 3620 3716 3588 -3587 0
-3875 3619 3843 3587 -3586 0
-3876 3620 3844 3588 -3587 0
-3587 3651 0
-3652 3587 0
-3780 3652 3716 3588 -3587 0
-3907 3651 3843 3587 -3586 0
-3908 3652 3844 3588 -3587 0
-3587 3715 0
-3716 3587 0
-3971 3715 3843 3587 -3586 0
-3972 3716 3844 3588 -3587 0
-3587 3843 0
-3844 3587 0
-3591 3599 0
-3600 3591 0
-3592 3600 0
-3663 3599 3655 3591 -3590 0
-3664 3600 3656 3592 -3591 0
-3728 3600 3720 3592 -3591 0
-3856 3600 3848 3592 -3591 0
-3591 3607 0
-3592 3608 0
-3640 3608 3624 3592 -3591 0
-3672 3608 3656 3592 -3591 0
-3736 3608 3720 3592 -3591 0
-3864 3608 3848 3592 -3591 0
-3624 3591 0
-3592 3624 0
-3751 3623 3719 3591 -3590 0
-3752 3624 3720 3592 -3591 0
-3880 3624 3848 3592 -3591 0
-3591 3655 0
-3656 3591 0
-3592 3656 0
-3784 3656 3720 3592 -3591 0
-3912 3656 3848 3592 -3591 0
-3591 3719 0
-3592 3720 0
-3976 3720 3848 3592 -3591 0
-3591 3847 0
-3848 3591 0
-3592 3848 0
-3595 3599 0
-3600 3595 0
-3596 3600 0
-3632 3600 3628 3596 -3595 0
-3727 3599 3723 3595 -3594 0
-3856 3600 3852 3596 -3595 0
-3595 3611 0
-3612 3595 0
-3596 3612 0
-3676 3612 3660 3596 -3595 0
-3868 3612 3852 3596 -3595 0
-3595 3627 0
-3628 3595 0
-3596 3628 0
-3692 3628 3660 3596 -3595 0
-3756 3628 3724 3596 -3595 0
-3884 3628 3852 3596 -3595 0
-3660 3595 0
-3596 3660 0
-3788 3660 3724 3596 -3595 0
-3916 3660 3852 3596 -3595 0
-3595 3723 0
-3596 3724 0
-3980 3724 3852 3596 -3595 0
-3595 3851 0
-3852 3595 0
-3596 3852 0
-3616 3599 0
-3600 3616 0
-3680 3616 3664 3600 -3599 0
-3744 3616 3728 3600 -3599 0
-3872 3616 3856 3600 -3599 0
-3600 3632 0
-3696 3632 3664 3600 -3599 0
-3600 3664 0
-3792 3664 3728 3600 -3599 0
-3920 3664 3856 3600 -3599 0
-3728 3599 0
-3600 3728 0
-3984 3728 3856 3600 -3599 0
-3600 3856 0
-3603 3607 0
-3608 3603 0
-3604 3608 0
-3616 3608 3612 3604 -3603 0
-3671 3607 3667 3603 -3602 0
-3672 3608 3668 3604 -3603 0
-3735 3607 3731 3603 -3602 0
-3736 3608 3732 3604 -3603 0
-3864 3608 3860 3604 -3603 0
-3604 3612 0
-3644 3612 3636 3604 -3603 0
-3676 3612 3668 3604 -3603 0
-3740 3612 3732 3604 -3603 0
-3868 3612 3860 3604 -3603 0
-3603 3635 0
-3636 3603 0
-3604 3636 0
-3763 3635 3731 3603 -3602 0
-3891 3635 3859 3603 -3602 0
-3892 3636 3860 3604 -3603 0
-3603 3667 0
-3668 3603 0
-3604 3668 0
-3796 3668 3732 3604 -3603 0
-3924 3668 3860 3604 -3603 0
-3603 3731 0
-3604 3732 0
-3988 3732 3860 3604 -3603 0
-3603 3859 0
-3604 3860 0
-3608 3616 0
-3680 3616 3672 3608 -3607 0
-3744 3616 3736 3608 -3607 0
-3872 3616 3864 3608 -3607 0
-3640 3607 0
-3608 3640 0
-3896 3640 3864 3608 -3607 0
-3608 3672 0
-3800 3672 3736 3608 -3607 0
-3928 3672 3864 3608 -3607 0
-3736 3607 0
-3608 3736 0
-3992 3736 3864 3608 -3607 0
-3608 3864 0
-3680 3616 3676 3612 -3611 0
-3872 3616 3868 3612 -3611 0
-3644 3611 0
-3612 3644 0
-3900 3644 3868 3612 -3611 0
-3612 3676 0
-3932 3676 3868 3612 -3611 0
-3740 3611 0
-3612 3740 0
-3996 3740 3868 3612 -3611 0
-3612 3868 0
-3616 3648 0
-3712 3648 3680 3616 -3615 0
-3776 3648 3744 3616 -3615 0
-3904 3648 3872 3616 -3615 0
-3616 3744 0
-3619 3623 0
-3624 3619 0
-3620 3624 0
-3640 3624 3636 3620 -3619 0
-3688 3624 3684 3620 -3619 0
-3751 3623 3747 3619 -3618 0
-3752 3624 3748 3620 -3619 0
-3880 3624 3876 3620 -3619 0
-3619 3627 0
-3628 3619 0
-3620 3628 0
-3644 3628 3636 3620 -3619 0
-3691 3627 3683 3619 -3618 0
-3692 3628 3684 3620 -3619 0
-3756 3628 3748 3620 -3619 0
-3884 3628 3876 3620 -3619 0
-3619 3635 0
-3620 3636 0
-3700 3636 3684 3620 -3619 0
-3764 3636 3748 3620 -3619 0
-3892 3636 3876 3620 -3619 0
-3619 3683 0
-3684 3619 0
-3620 3684 0
-3812 3684 3748 3620 -3619 0
-3940 3684 3876 3620 -3619 0
-3619 3747 0
-3748 3619 0
-3620 3748 0
-4004 3748 3876 3620 -3619 0
-3619 3875 0
-3620 3876 0
-3624 3632 0
-3696 3632 3688 3624 -3623 0
-3760 3632 3752 3624 -3623 0
-3888 3632 3880 3624 -3623 0
-3624 3640 0
-3816 3688 3752 3624 -3623 0
-3624 3752 0
-3624 3880 0
-3644 3627 0
-3628 3644 0
-3708 3644 3692 3628 -3627 0
-3900 3644 3884 3628 -3627 0
-3692 3627 0
-3628 3692 0
-3948 3692 3884 3628 -3627 0
-3756 3627 0
-3628 3756 0
-4012 3756 3884 3628 -3627 0
-3884 3627 0
-3628 3884 0
-3632 3648 0
-3712 3648 3696 3632 -3631 0
-3776 3648 3760 3632 -3631 0
-3904 3648 3888 3632 -3631 0
-3632 3760 0
-3640 3635 0
-3636 3640 0
-3704 3640 3700 3636 -3635 0
-3768 3640 3764 3636 -3635 0
-3896 3640 3892 3636 -3635 0
-3644 3635 0
-3636 3644 0
-3708 3644 3700 3636 -3635 0
-3772 3644 3764 3636 -3635 0
-3700 3635 0
-3636 3700 0
-3828 3700 3764 3636 -3635 0
-3764 3635 0
-3636 3764 0
-3636 3892 0
-3640 3648 0
-3712 3648 3704 3640 -3639 0
-3904 3648 3896 3640 -3639 0
-3640 3704 0
-3640 3768 0
-3640 3896 0
-3644 3648 0
-3712 3648 3708 3644 -3643 0
-3776 3648 3772 3644 -3643 0
-3904 3648 3900 3644 -3643 0
-3644 3708 0
-3644 3772 0
-3644 3900 0
-3651 3655 0
-3656 3651 0
-3652 3656 0
-3664 3656 3660 3652 -3651 0
-3672 3656 3668 3652 -3651 0
-3688 3656 3684 3652 -3651 0
-3784 3656 3780 3652 -3651 0
-3912 3656 3908 3652 -3651 0
-3660 3651 0
-3652 3660 0
-3676 3660 3668 3652 -3651 0
-3692 3660 3684 3652 -3651 0
-3788 3660 3780 3652 -3651 0
-3652 3668 0
-3700 3668 3684 3652 -3651 0
-3796 3668 3780 3652 -3651 0
-3924 3668 3908 3652 -3651 0
-3684 3651 0
-3652 3684 0
-3812 3684 3780 3652 -3651 0
-3939 3683 3907 3651 -3650 0
-3651 3779 0
-3652 3780 0
-4036 3780 3908 3652 -3651 0
-3651 3907 0
-3652 3908 0
-3664 3655 0
-3656 3664 0
-3680 3664 3672 3656 -3655 0
-3696 3664 3688 3656 -3655 0
-3792 3664 3784 3656 -3655 0
-3920 3664 3912 3656 -3655 0
-3672 3655 0
-3688 3655 0
-3816 3688 3784 3656 -3655 0
-3944 3688 3912 3656 -3655 0
-3656 3784 0
-4040 3784 3912 3656 -3655 0
-3656 3912 0
-3664 3659 0
-3660 3664 0
-3660 3676 0
-3932 3676 3916 3660 -3659 0
-3820 3692 3788 3660 -3659 0
-3660 3788 0
-4044 3788 3916 3660 -3659 0
-3660 3916 0
-4048 3792 3920 3664 -3663 0
-3664 3920 0
-3800 3672 3796 3668 -3667 0
-3708 3676 3700 3668 -3667 0
-3804 3676 3796 3668 -3667 0
-3932 3676 3924 3668 -3667 0
-3668 3700 0
-3828 3700 3796 3668 -3667 0
-3956 3700 3924 3668 -3667 0
-3668 3796 0
-4052 3796 3924 3668 -3667 0
-3668 3924 0
-4060 3804 3932 3676 -3675 0
-3688 3683 0
-3684 3688 0
-3816 3688 3812 3684 -3683 0
-3944 3688 3940 3684 -3683 0
-3692 3683 0
-3820 3692 3812 3684 -3683 0
-3948 3692 3940 3684 -3683 0
-3700 3683 0
-3684 3700 0
-3828 3700 3812 3684 -3683 0
-3956 3700 3940 3684 -3683 0
-3684 3812 0
-4068 3812 3940 3684 -3683 0
-3684 3940 0
-4072 3816 3944 3688 -3687 0
-3700 3828 0
-4084 3828 3956 3700 -3699 0
-3700 3956 0
-3720 3715 0
-3716 3720 0
-3728 3720 3724 3716 -3715 0
-3736 3720 3732 3716 -3715 0
-3752 3720 3748 3716 -3715 0
-3784 3720 3780 3716 -3715 0
-3976 3720 3972 3716 -3715 0
-3724 3715 0
-3716 3724 0
-3740 3724 3732 3716 -3715 0
-3756 3724 3748 3716 -3715 0
-3788 3724 3780 3716 -3715 0
-3980 3724 3972 3716 -3715 0
-3732 3715 0
-3716 3732 0
-3764 3732 3748 3716 -3715 0
-3796 3732 3780 3716 -3715 0
-3988 3732 3972 3716 -3715 0
-3748 3715 0
-3716 3748 0
-3812 3748 3780 3716 -3715 0
-4004 3748 3972 3716 -3715 0
-3715 3779 0
-3716 3780 0
-4036 3780 3972 3716 -3715 0
-3715 3971 0
-3716 3972 0
-3720 3728 0
-3792 3728 3784 3720 -3719 0
-3736 3719 0
-3720 3736 0
-3800 3736 3784 3720 -3719 0
-3752 3719 0
-3720 3784 0
-4040 3784 3976 3720 -3719 0
-3720 3976 0
-3728 3723 0
-3744 3728 3740 3724 -3723 0
-3792 3728 3788 3724 -3723 0
-3724 3740 0
-3804 3740 3788 3724 -3723 0
-3996 3740 3980 3724 -3723 0
-3724 3756 0
-3820 3756 3788 3724 -3723 0
-4012 3756 3980 3724 -3723 0
-3724 3788 0
-4044 3788 3980 3724 -3723 0
-3724 3980 0
-4048 3792 3984 3728 -3727 0
-3736 3731 0
-3800 3736 3796 3732 -3731 0
-3732 3740 0
-3804 3740 3796 3732 -3731 0
-3996 3740 3988 3732 -3731 0
-3732 3764 0
-3828 3764 3796 3732 -3731 0
-3732 3796 0
-4052 3796 3988 3732 -3731 0
-3732 3988 0
-3736 3800 0
-4056 3800 3992 3736 -3735 0
-3736 3992 0
-4060 3804 3996 3740 -3739 0
-3740 3996 0
-3752 3747 0
-3816 3752 3812 3748 -3747 0
-4008 3752 4004 3748 -3747 0
-3756 3747 0
-3748 3756 0
-3820 3756 3812 3748 -3747 0
-4012 3756 4004 3748 -3747 0
-3748 3764 0
-3828 3764 3812 3748 -3747 0
-4020 3764 4004 3748 -3747 0
-3748 3812 0
-3748 4004 0
-3756 3820 0
-4076 3820 4012 3756 -3755 0
-3756 4012 0
-3764 3828 0
-3780 3784 0
-3792 3784 3788 3780 -3779 0
-3816 3784 3812 3780 -3779 0
-3820 3788 3812 3780 -3779 0
-4044 3788 4036 3780 -3779 0
-3828 3796 3812 3780 -3779 0
-4052 3796 4036 3780 -3779 0
-3780 3812 0
-4068 3812 4036 3780 -3779 0
-3784 3792 0
-4048 3792 4040 3784 -3783 0
-4072 3816 4040 3784 -3783 0
-3784 4040 0
-4048 3792 4044 3788 -3787 0
-4060 3804 4044 3788 -3787 0
-3788 3820 0
-4076 3820 4044 3788 -3787 0
-3788 4044 0
-3796 3804 0
-4060 3804 4052 3796 -3795 0
-3796 4052 0
-4072 3816 4068 3812 -3811 0
-4076 3820 4068 3812 -3811 0
-4084 3828 4068 3812 -3811 0
-3812 4068 0
-3843 3847 0
-3848 3843 0
-3844 3848 0
-3856 3848 3852 3844 -3843 0
-3864 3848 3860 3844 -3843 0
-3880 3848 3876 3844 -3843 0
-3912 3848 3908 3844 -3843 0
-3975 3847 3971 3843 -3842 0
-3976 3848 3972 3844 -3843 0
-3852 3843 0
-3844 3852 0
-3868 3852 3860 3844 -3843 0
-3884 3852 3876 3844 -3843 0
-3916 3852 3908 3844 -3843 0
-3980 3852 3972 3844 -3843 0
-3860 3843 0
-3844 3860 0
-3892 3860 3876 3844 -3843 0
-3924 3860 3908 3844 -3843 0
-3988 3860 3972 3844 -3843 0
-3876 3843 0
-3844 3876 0
-3940 3876 3908 3844 -3843 0
-4004 3876 3972 3844 -3843 0
-3843 3907 0
-3844 3908 0
-4036 3908 3972 3844 -3843 0
-3843 3971 0
-3844 3972 0
-3856 3847 0
-3848 3856 0
-3920 3856 3912 3848 -3847 0
-3984 3856 3976 3848 -3847 0
-3864 3847 0
-3848 3864 0
-3928 3864 3912 3848 -3847 0
-3992 3864 3976 3848 -3847 0
-3880 3847 0
-3848 3880 0
-3848 3912 0
-4040 3912 3976 3848 -3847 0
-3848 3976 0
-3852 3856 0
-3888 3856 3884 3852 -3851 0
-3920 3856 3916 3852 -3851 0
-3852 3868 0
-3852 3884 0
-3948 3884 3916 3852 -3851 0
-4012 3884 3980 3852 -3851 0
-3852 3916 0
-4044 3916 3980 3852 -3851 0
-3852 3980 0
-3856 3872 0
-4016 3888 3984 3856 -3855 0
-4048 3920 3984 3856 -3855 0
-3856 3984 0
-3860 3864 0
-3928 3864 3924 3860 -3859 0
-3992 3864 3988 3860 -3859 0
-3860 3868 0
-3932 3868 3924 3860 -3859 0
-3996 3868 3988 3860 -3859 0
-3860 3892 0
-3860 3924 0
-4052 3924 3988 3860 -3859 0
-3864 3928 0
-4056 3928 3992 3864 -3863 0
-3864 3992 0
-3868 3872 0
-4060 3932 3996 3868 -3867 0
-3868 3996 0
-3876 3880 0
-3888 3880 3884 3876 -3875 0
-3896 3880 3892 3876 -3875 0
-4008 3880 4004 3876 -3875 0
-3876 3884 0
-3948 3884 3940 3876 -3875 0
-4012 3884 4004 3876 -3875 0
-3956 3892 3940 3876 -3875 0
-4020 3892 4004 3876 -3875 0
-3876 3940 0
-4068 3940 4004 3876 -3875 0
-3876 4004 0
-3884 3888 0
-3884 3948 0
-4076 3948 4012 3884 -3883 0
-3884 4012 0
-3908 3912 0
-3920 3912 3916 3908 -3907 0
-3944 3912 3940 3908 -3907 0
-4040 3912 4036 3908 -3907 0
-3916 3907 0
-3948 3916 3940 3908 -3907 0
-4044 3916 4036 3908 -3907 0
-3924 3907 0
-3908 3924 0
-3956 3924 3940 3908 -3907 0
-4052 3924 4036 3908 -3907 0
-3908 3940 0
-4068 3940 4036 3908 -3907 0
-3908 4036 0
-3912 3920 0
-4048 3920 4040 3912 -3911 0
-3912 3928 0
-4056 3928 4040 3912 -3911 0
-3912 3944 0
-4072 3944 4040 3912 -3911 0
-3912 4040 0
-3916 3932 0
-4060 3932 4044 3916 -3915 0
-3916 3948 0
-4076 3948 4044 3916 -3915 0
-3916 4044 0
-3924 3928 0
-4056 3928 4052 3924 -3923 0
-3924 3932 0
-4060 3932 4052 3924 -3923 0
-4084 3956 4052 3924 -3923 0
-3924 4052 0
-3940 3944 0
-4072 3944 4068 3940 -3939 0
-3940 3948 0
-4076 3948 4068 3940 -3939 0
-4084 3956 4068 3940 -3939 0
-3940 4068 0
-3972 3976 0
-3984 3976 3980 3972 -3971 0
-4008 3976 4004 3972 -3971 0
-3980 3971 0
-3972 3980 0
-4012 3980 4004 3972 -3971 0
-4044 3980 4036 3972 -3971 0
-3988 3971 0
-3972 3988 0
-4020 3988 4004 3972 -3971 0
-4052 3988 4036 3972 -3971 0
-4004 3971 0
-3972 4004 0
-4068 4004 4036 3972 -3971 0
-3972 4036 0
-4048 3984 4040 3976 -3975 0
-4056 3992 4040 3976 -3975 0
-4072 4008 4040 3976 -3975 0
-3976 4040 0
-3980 3984 0
-4048 3984 4044 3980 -3979 0
-3980 3996 0
-4060 3996 4044 3980 -3979 0
-3980 4012 0
-4076 4012 4044 3980 -3979 0
-3980 4044 0
-4056 3992 4052 3988 -3987 0
-4060 3996 4052 3988 -3987 0
-4084 4020 4052 3988 -3987 0
-4076 4012 4068 4004 -4003 0
-4084 4020 4068 4004 -4003 0
-4004 4068 0
-4036 4040 0
-4048 4040 4044 4036 -4035 0
-4072 4040 4068 4036 -4035 0
-4076 4044 4068 4036 -4035 0
-4084 4052 4068 4036 -4035 0
-4036 4068 0
-63 0
127 0
191 0
319 0
575 0
1087 0
2111 0
-208 -220 -244 -692 -2612 -3620 -3844 -3336 -1296 -336 0
-208 -220 -244 -1204 -1588 -1828 -3844 -2824 -2320 -2128 0
-208 -220 -244 -1204 -3124 -3364 -3844 -2824 -784 -592 0
-208 -220 -244 -2228 -3124 -3364 -3844 -1800 -784 -592 0
-336 -348 -372 -1332 -1204 -1700 -3716 -2696 -2576 -2128 0
-336 -348 -372 -1332 -1588 -1700 -3716 -2696 -2192 -2128 0
-592 -604 -628 -692 -1204 -1444 -3460 -3336 -2320 -2128 0
-592 -604 -628 -692 -2228 -2468 -3460 -3336 -1296 -1104 0
-592 -604 -628 -2612 -2356 -2468 -3460 -1416 -1168 -1104 0
-1104 -1116 -1140 -1204 -436 -932 -2948 -2824 -2576 -2128 0
-1104 -1116 -1140 -1204 -436 -2468 -2948 -2824 -2576 -592 0
-1104 -1116 -1140 -1332 -820 -2852 -2948 -2696 -2192 -208 0
-1104 -1116 -1140 -1588 -2612 -2724 -2948 -2440 -400 -336 0
-1104 -1116 -1140 -3124 -2228 -2468 -2948 -904 -784 -592 0
-2128 -2140 -2164 -2228 -692 -932 -1924 -1800 -1296 -1104 0
-2128 -2140 -2164 -2228 -1204 -1444 -1924 -1800 -784 -592 0
-2128 -2140 -2164 -2356 -820 -932 -1924 -1672 -1168 -1104 0
-2128 -2140 -2164 -2356 -820 -1828 -1924 -1672 -1168 -208 0
-2128 -2140 -2164 -2356 -1332 -1444 -1924 -1672 -656 -592 0
-2128 -2140 -2164 -2612 -820 -1828 -1924 -1416 -1168 -208 0
-208 -220 -244 -1140 -1332 -1828 -3844 -2824 -2576 -2192 0
-208 -220 -244 -2164 -2356 -2852 -3844 -1800 -1552 -1168 0
-208 -220 -244 -2164 -2356 -3364 -3844 -1800 -1552 -656 0
-208 -220 -244 -2164 -3124 -3364 -3844 -1800 -784 -656 0
-400 -412 -436 -820 -628 -2660 -3652 -3144 -3088 -1168 0
-656 -668 -692 -820 -1332 -3364 -3396 -3144 -2128 -208 0
-1168 -1180 -1204 -1140 -372 -868 -2884 -2824 -2576 -2192 0
-1168 -1180 -1204 -1140 -628 -2660 -2884 -2824 -2320 -400 0
-1168 -1180 -1204 -1140 -2164 -2660 -2884 -2824 -784 -400 0
-1168 -1180 -1204 -1332 -372 -868 -2884 -2632 -2576 -2192 0
-1168 -1180 -1204 -3124 -2164 -2404 -2884 -840 -784 -656 0
-2192 -2204 -2228 -2164 -372 -868 -1860 -1800 -1552 -1168 0
-2192 -2204 -2228 -2164 -628 -868 -1860 -1800 -1296 -1168 0
-2192 -2204 -2228 -2164 -1140 -1380 -1860 -1800 -784 -656 0
-2192 -2204 -2228 -3124 -1140 -1380 -1860 -840 -784 -656 0
-2192 -2204 -2228 -3124 -1332 -1828 -1860 -840 -592 -208 0
-2192 -2204 -2228 -3124 -1588 -1828 -1860 -840 -336 -208 0
-784 -796 -820 -692 -244 -2276 -3268 -3144 -3088 -1296 0
-784 -796 -820 -692 -1204 -3236 -3268 -3144 -2128 -336 0
-784 -796 -820 -1588 -1140 -1252 -3268 -2248 -2192 -2320 0
-1296 -1308 -1332 -1140 -244 -2276 -2756 -2696 -2576 -784 0
-1296 -1308 -1332 -1204 -244 -2276 -2756 -2632 -2576 -784 0
-1296 -1308 -1332 -1588 -692 -2724 -2756 -2248 -2128 -336 0
-2320 -2332 -2356 -2164 -1140 -1252 -1732 -1672 -656 -784 0
-2320 -2332 -2356 -2228 -244 -740 -1732 -1608 -1552 -1296 0
-2320 -2332 -2356 -2612 -692 -1700 -1732 -1224 -1104 -336 0
-2320 -2332 -2356 -3124 -1140 -1252 -1732 -712 -656 -784 0
-656 -668 -692 -244 -1140 -3172 -3396 -3336 -2320 -784 0
-656 -668 -692 -436 -1332 -1380 -3396 -3144 -2128 -2576 0
-656 -668 -692 -2228 -2164 -2404 -3396 -1352 -1296 -1552 0
-1552 -1564 -1588 -1204 -244 -2276 -2500 -2376 -2320 -784 0
-1552 -1564 -1588 -3124 -2164 -2276 -2500 -456 -400 -784 0
-1552 -1564 -1588 -3124 -2356 -2468 -2500 -456 -208 -592 0
-2576 -2588 -2612 -2164 -244 -484 -1476 -1416 -1296 -1552 0
-2576 -2588 -2612 -2164 -372 -484 -1476 -1416 -1168 -1552 0
-2576 -2588 -2612 -2164 -1140 -1380 -1476 -1416 -400 -656 0
-2576 -2588 -2612 -2356 -436 -484 -1476 -1224 -1104 -1552 0
-2576 -2588 -2612 -2356 -1332 -1444 -1476 -1224 -208 -592 0
-2576 -2588 -2612 -3124 -1140 -1380 -1476 -456 -400 -656 0
-1104 -1116 -1140 -244 -436 -932 -2948 -2824 -2576 -3088 0
-1168 -1180 -1204 -244 -2164 -2660 -2884 -2824 -784 -1296 0
-1168 -1180 -1204 -436 -372 -868 -2884 -2632 -2576 -3088 0
-1168 -1180 -1204 -436 -372 -2404 -2884 -2632 -2576 -1552 0
-1168 -1180 -1204 -2228 -2164 -2404 -2884 -840 -784 -1552 0
-1296 -1308 -1332 -2356 -2164 -2276 -2756 -712 -656 -1552 0
-1552 -1564 -1588 -692 -244 -2276 -2500 -2376 -2320 -1296 0
-1552 -1564 -1588 -692 -436 -2468 -2500 -2376 -2128 -1104 0
-1552 -1564 -1588 -692 -2228 -2468 -2500 -2376 -336 -1104 0
-1552 -1564 -1588 -2612 -2164 -2404 -2500 -456 -400 -1168 0
-1552 -1564 -1588 -2612 -2228 -2276 -2500 -456 -336 -1296 0
-3088 -3100 -3124 -2228 -244 -484 -964 -840 -784 -1552 0
-3088 -3100 -3124 -2228 -436 -484 -964 -840 -592 -1552 0
-3088 -3100 -3124 -2356 -436 -484 -964 -712 -592 -1552 0
-3088 -3100 -3124 -2356 -436 -932 -964 -712 -592 -1104 0
-3088 -3100 -3124 -2612 -820 -868 -964 -456 -208 -1168 0
-3088 -3100 -3124 -2612 -820 -932 -964 -456 -208 -1104 0
-2128 -2140 -2164 -244 -1204 -1700 -1924 -1800 -784 -2320 0
-2128 -2140 -2164 -372 -820 -932 -1924 -1672 -1168 -3088 0
-2192 -2204 -2228 -244 -372 -868 -1860 -1800 -1552 -3088 0
-2192 -2204 -2228 -244 -372 -1380 -1860 -1800 -1552 -2576 0
-2192 -2204 -2228 -244 -1140 -1380 -1860 -1800 -784 -2576 0
-2192 -2204 -2228 -692 -1588 -1828 -1860 -1352 -336 -2128 0
-2192 -2204 -2228 -1204 -1332 -1380 -1860 -840 -592 -2576 0
-2320 -2332 -2356 -820 -692 -740 -1732 -1224 -1104 -3088 0
-2576 -2588 -2612 -1588 -1140 -1252 -1476 -456 -400 -2320 0
-2576 -2588 -2612 -1588 -1332 -1444 -1476 -456 -208 -2128 0
-3088 -3100 -3124 -1204 -436 -484 -964 -840 -592 -2576 0
-3088 -3100 -3124 -1204 -436 -932 -964 -840 -592 -2128 0
-3088 -3100 -3124 -1204 -692 -740 -964 -840 -336 -2320 0
-3088 -3100 -3124 -1204 -692 -932 -964 -840 -336 -2128 0
-3088 -3100 -3124 -1332 -372 -484 -964 -712 -656 -2576 0
-3088 -3100 -3124 -1332 -436 -484 -964 -712 -592 -2576 0
-3088 -3100 -3124 -1588 -628 -868 -964 -456 -400 -2192 0
-3088 -3100 -3124 -1588 -820 -868 -964 -456 -208 -2192 0
-208 -236 -244 -1204 -1588 -1812 -3844 -2824 -2320 -2128 0
-336 -364 -372 -820 -692 -1684 -3716 -3208 -3088 -2128 0
-336 -364 -372 -1332 -1204 -1684 -3716 -2696 -2576 -2128 0
-1104 -1132 -1140 -1204 -692 -916 -2948 -2824 -2320 -2128 0
-2128 -2156 -2164 -2228 -692 -916 -1924 -1800 -1296 -1104 0
-2128 -2156 -2164 -2356 -436 -916 -1924 -1672 -1552 -1104 0
-2128 -2156 -2164 -2612 -820 -1812 -1924 -1416 -1168 -208 0
-2128 -2156 -2164 -2612 -1588 -1684 -1924 -1416 -400 -336 0
-2128 -2156 -2164 -3124 -1332 -1428 -1924 -904 -656 -592 0
-2128 -2156 -2164 -3124 -1588 -1684 -1924 -904 -400 -336 0
-208 -236 -244 -1140 -1332 -1812 -3844 -2824 -2576 -2192 0
-208 -236 -244 -2164 -2356 -2836 -3844 -1800 -1552 -1168 0
-656 -684 -692 -628 -372 -2388 -3396 -3336 -3088 -1168 0
-656 -684 -692 -1588 -1332 -1364 -3396 -2376 -2128 -2192 0
-1168 -1196 -1204 -1332 -820 -2836 -2884 -2632 -2128 -208 0
-2192 -2220 -2228 -2164 -372 -852 -1860 -1800 -1552 -1168 0
-2192 -2220 -2228 -2164 -1140 -1364 -1860 -1800 -784 -656 0
-2192 -2220 -2228 -3124 -1332 -1812 -1860 -840 -592 -208 0
-2192 -2220 -2228 -3124 -1588 -1620 -1860 -840 -336 -400 0
-336 -364 -372 -2164 -3124 -3220 -3716 -1672 -656 -784 0
-1296 -1324 -1332 -1204 -2228 -2260 -2756 -2632 -592 -784 0
-2320 -2348 -2356 -2164 -628 -1620 -1732 -1672 -1168 -400 0
-2320 -2348 -2356 -2164 -1140 -1236 -1732 -1672 -656 -784 0
-2320 -2348 -2356 -3124 -1140 -1620 -1732 -712 -656 -400 0
-2320 -2348 -2356 -3124 -1588 -1684 -1732 -712 -208 -336 0
-592 -620 -628 -244 -1204 -1428 -3460 -3336 -2320 -2576 0
-592 -620 -628 -372 -2356 -3348 -3460 -3208 -1168 -656 0
-656 -684 -692 -1204 -1140 -1364 -3396 -2376 -2320 -2576 0
-656 -684 -692 -2228 -2164 -2388 -3396 -1352 -1296 -1552 0
-784 -812 -820 -1332 -3124 -3156 -3268 -2248 -208 -656 0
-2576 -2604 -2612 -2164 -372 -1364 -1476 -1416 -1168 -656 0
-2576 -2604 -2612 -3124 -1140 -1364 -1476 -456 -400 -656 0
-1104 -1132 -1140 -244 -692 -916 -2948 -2824 -2320 -3088 0
-1552 -1580 -1588 -628 -2164 -2260 -2500 -2440 -400 -1296 0
-3088 -3116 -3124 -2228 -436 -916 -964 -840 -592 -1104 0
-3088 -3116 -3124 -2356 -436 -468 -964 -712 -592 -1552 0
-2128 -2156 -2164 -372 -1332 -1812 -1924 -1672 -656 -2192 0
-2128 -2156 -2164 -628 -692 -1684 -1924 -1416 -1296 -2320 0
-2320 -2348 -2356 -1332 -1140 -1236 -1732 -712 -656 -2576 0
-2320 -2348 -2356 -1332 -1204 -1684 -1732 -712 -592 -2128 0
-2576 -2604 -2612 -820 -1332 -1428 -1476 -1224 -208 -2128 0
-3088 -3116 -3124 -1140 -244 -724 -964 -904 -784 -2320 0
-3088 -3116 -3124 -1140 -372 -468 -964 -904 -656 -2576 0
-3088 -3116 -3124 -1204 -692 -724 -964 -840 -336 -2320 0
-3088 -3116 -3124 -1332 -820 -852 -964 -712 -208 -2192 0
-216 -220 -236 -1196 -3116 -3620 -3844 -2824 -792 -344 0
-344 -348 -364 -1324 -1196 -1700 -3716 -2696 -2584 -2136 0
-600 -604 -620 -812 -428 -1444 -3460 -3208 -3096 -2136 0
-600 -604 -620 -1580 -1324 -3364 -3460 -2440 -2200 -216 0
-600 -604 -620 -1580 -3116 -3236 -3460 -2440 -408 -344 0
-1112 -1116 -1132 -1196 -684 -2724 -2948 -2824 -2328 -344 0
-1112 -1116 -1132 -1324 -428 -2468 -2948 -2696 -2584 -600 0
-1112 -1116 -1132 -1324 -2348 -2468 -2948 -2696 -664 -600 0
-1112 -1116 -1132 -1580 -684 -932 -2948 -2440 -2328 -2136 0
-1112 -1116 -1132 -1580 -812 -932 -2948 -2440 -2200 -2136 0
-2136 -2140 -2156 -2220 -428 -1444 -1924 -1800 -1560 -600 0
-2136 -2140 -2156 -2220 -1196 -1444 -1924 -1800 -792 -600 0
-2136 -2140 -2156 -2348 -812 -1828 -1924 -1672 -1176 -216 0
-2136 -2140 -2156 -2348 -1324 -1828 -1924 -1672 -664 -216 0
-2136 -2140 -2156 -2604 -812 -1828 -1924 -1416 -1176 -216 0
-2136 -2140 -2156 -2604 -1580 -1828 -1924 -1416 -408 -216 0
-2136 -2140 -2156 -3116 -1324 -1828 -1924 -904 -664 -216 0
-216 -220 -236 -364 -1324 -1828 -3844 -3592 -2584 -2200 0
-216 -220 -236 -620 -1580 -1828 -3844 -3336 -2328 -2200 0
-408 -412 -428 -1324 -3116 -3172 -3652 -2632 -600 -664 0
-408 -412 -428 -2348 -3116 -3172 -3652 -1608 -600 -664 0
-664 -668 -684 -1580 -1324 -1380 -3396 -2376 -2136 -2200 0
-664 -668 -684 -1580 -1324 -3364 -3396 -2376 -2136 -216 0
-664 -668 -684 -1580 -3116 -3172 -3396 -2376 -344 -408 0
-1176 -1180 -1196 -1132 -620 -868 -2884 -2824 -2328 -2200 0
-1176 -1180 -1196 -1132 -620 -2660 -2884 -2824 -2328 -408 0
-1176 -1180 -1196 -1132 -2156 -2660 -2884 -2824 -792 -408 0
-2200 -2204 -2220 -2156 -364 -868 -1860 -1800 -1560 -1176 0
-2200 -2204 -2220 -2156 -364 -1380 -1860 -1800 -1560 -664 0
-2200 -2204 -2220 -2156 -620 -868 -1860 -1800 -1304 -1176 0
-2200 -2204 -2220 -2156 -1132 -1380 -1860 -1800 -792 -664 0
-2200 -2204 -2220 -2348 -1324 -1828 -1860 -1608 -600 -216 0
-2200 -2204 -2220 -2604 -812 -1828 -1860 -1352 -1112 -216 0
-2200 -2204 -2220 -2604 -1580 -1828 -1860 -1352 -344 -216 0
-2200 -2204 -2220 -3116 -1132 -1380 -1860 -840 -792 -664 0
-2200 -2204 -2220 -3116 -1324 -1828 -1860 -840 -600 -216 0
-344 -348 -364 -236 -1196 -1700 -3716 -3592 -2584 -2328 0
-792 -796 -812 -620 -236 -2276 -3268 -3208 -3096 -1304 0
-792 -796 -812 -620 -2156 -2276 -3268 -3208 -1176 -1304 0
-792 -796 -812 -684 -236 -2276 -3268 -3144 -3096 -1304 0
-792 -796 -812 -684 -1196 -1252 -3268 -3144 -2136 -2328 0
-1304 -1308 -1324 -1132 -2156 -2276 -2756 -2696 -664 -792 0
-1304 -1308 -1324 -1196 -684 -740 -2756 -2632 -2136 -2328 0
-1304 -1308 -1324 -1196 -2220 -2276 -2756 -2632 -600 -792 0
-1304 -1308 -1324 -1580 -620 -740 -2756 -2248 -2200 -2328 0
-1304 -1308 -1324 -3116 -2156 -2660 -2756 -712 -664 -408 0
-1304 -1308 -1324 -3116 -2220 -2276 -2756 -712 -600 -792 0
-2328 -2332 -2348 -2156 -236 -740 -1732 -1672 -1560 -1304 0
-2328 -2332 -2348 -3116 -1132 -1252 -1732 -712 -664 -792 0
-2328 -2332 -2348 -3116 -1580 -1636 -1732 -712 -216 -408 0
-664 -668 -684 -236 -364 -2404 -3396 -3336 -3096 -1560 0
-664 -668 -684 -2220 -3116 -3364 -3396 -1352 -344 -600 0
-792 -796 -812 -2348 -3116 -3236 -3268 -1224 -216 -600 0
-1560 -1564 -1580 -1132 -2156 -2404 -2500 -2440 -408 -664 0
-1560 -1564 -1580 -1196 -236 -484 -2500 -2376 -2328 -2584 0
-1560 -1564 -1580 -1196 -428 -484 -2500 -2376 -2136 -2584 0
-1560 -1564 -1580 -1196 -2220 -2468 -2500 -2376 -344 -600 0
-1560 -1564 -1580 -1324 -2348 -2468 -2500 -2248 -216 -600 0
-1560 -1564 -1580 -3116 -2156 -2276 -2500 -456 -408 -792 0
-1560 -1564 -1580 -3116 -2348 -2468 -2500 -456 -216 -600 0
-2584 -2588 -2604 -2348 -1324 -1380 -1476 -1224 -216 -664 0
-2584 -2588 -2604 -2348 -1324 -1444 -1476 -1224 -216 -600 0
-2584 -2588 -2604 -3116 -1324 -1444 -1476 -456 -216 -600 0
-1176 -1180 -1196 -684 -2604 -2660 -2884 -2376 -344 -1304 0
-1176 -1180 -1196 -2220 -2156 -2404 -2884 -840 -792 -1560 0
-1304 -1308 -1324 -364 -236 -740 -2756 -2696 -2584 -3096 0
-1304 -1308 -1324 -812 -684 -2724 -2756 -2248 -2136 -1112 0
-1304 -1308 -1324 -2348 -2220 -2276 -2756 -712 -600 -1560 0
-1560 -1564 -1580 -684 -428 -484 -2500 -2376 -2136 -3096 0
-1560 -1564 -1580 -812 -2348 -2468 -2500 -2248 -216 -1112 0
-1560 -1564 -1580 -2604 -2220 -2276 -2500 -456 -344 -1304 0
-1560 -1564 -1580 -2604 -2220 -2468 -2500 -456 -344 -1112 0
-3096 -3100 -3116 -2220 -236 -484 -964 -840 -792 -1560 0
-3096 -3100 -3116 -2348 -364 -484 -964 -712 -664 -1560 0
-3096 -3100 -3116 -2604 -812 -868 -964 -456 -216 -1176 0
-3096 -3100 -3116 -2604 -812 -932 -964 -456 -216 -1112 0
-2136 -2140 -2156 -236 -684 -932 -1924 -1800 -1304 -3096 0
-2136 -2140 -2156 -364 -428 -1444 -1924 -1672 -1560 -2584 0
-2136 -2140 -2156 -364 -812 -1828 -1924 -1672 -1176 -2200 0
-2136 -2140 -2156 -364 -1324 -1828 -1924 -1672 -664 -2200 0
-2136 -2140 -2156 -620 -812 -1828 -1924 -1416 -1176 -2200 0
-2136 -2140 -2156 -1132 -1580 -1828 -1924 -904 -408 -2200 0
-2200 -2204 -2220 -236 -620 -1636 -1860 -1800 -1304 -2328 0
-2200 -2204 -2220 -428 -812 -1828 -1860 -1608 -1112 -2136 0
-2200 -2204 -2220 -684 -620 -1636 -1860 -1352 -1304 -2328 0
-2200 -2204 -2220 -684 -1580 -1636 -1860 -1352 -344 -2328 0
-2200 -2204 -2220 -1196 -1132 -1380 -1860 -840 -792 -2584 0
-2328 -2332 -2348 -428 -684 -1700 -1732 -1608 -1112 -2136 0
-2328 -2332 -2348 -1324 -1196 -1252 -1732 -712 -600 -2584 0
-2584 -2588 -2604 -684 -428 -484 -1476 -1352 -1112 -3096 0
-2584 -2588 -2604 -812 -428 -1444 -1476 -1224 -1112 -2136 0
-2584 -2588 -2604 -1580 -1132 -1252 -1476 -456 -408 -2328 0
-2584 -2588 -2604 -1580 -1132 -1380 -1476 -456 -408 -2200 0
-2584 -2588 -2604 -1580 -1196 -1252 -1476 -456 -344 -2328 0
-2584 -2588 -2604 -1580 -1324 -1444 -1476 -456 -216 -2136 0
-3096 -3100 -3116 -1132 -236 -484 -964 -904 -792 -2584 0
-3096 -3100 -3116 -1132 -236 -740 -964 -904 -792 -2328 0
-3096 -3100 -3116 -1132 -364 -484 -964 -904 -664 -2584 0
-3096 -3100 -3116 -1132 -364 -868 -964 -904 -664 -2200 0
-3096 -3100 -3116 -1196 -236 -484 -964 -840 -792 -2584 0
-3096 -3100 -3116 -1196 -236 -740 -964 -840 -792 -2328 0
-3096 -3100 -3116 -1324 -364 -484 -964 -712 -664 -2584 0
-3096 -3100 -3116 -1324 -428 -484 -964 -712 -600 -2584 0
-216 -244 -236 -428 -1324 -1804 -3844 -3592 -2584 -2136 0
-216 -244 -236 -2220 -2348 -2828 -3844 -1800 -1560 -1112 0
-344 -372 -364 -812 -1580 -3596 -3716 -3208 -2200 -216 0
-344 -372 -364 -2348 -2604 -3596 -3716 -1672 -1176 -216 0
-600 -628 -620 -684 -428 -2444 -3460 -3336 -3096 -1112 0
-600 -628 -620 -2604 -3116 -3212 -3460 -1416 -408 -344 0
-1112 -1140 -1132 -1196 -428 -908 -2948 -2824 -2584 -2136 0
-1112 -1140 -1132 -1196 -428 -2444 -2948 -2824 -2584 -600 0
-1112 -1140 -1132 -1196 -684 -908 -2948 -2824 -2328 -2136 0
-1112 -1140 -1132 -1324 -812 -2828 -2948 -2696 -2200 -216 0
-1112 -1140 -1132 -1580 -2604 -2828 -2948 -2440 -408 -216 0
-1112 -1140 -1132 -3116 -2348 -2828 -2948 -904 -664 -216 0
-2136 -2164 -2156 -2220 -428 -1420 -1924 -1800 -1560 -600 0
-2136 -2164 -2156 -2220 -684 -908 -1924 -1800 -1304 -1112 0
-2136 -2164 -2156 -2220 -1196 -1676 -1924 -1800 -792 -344 0
-2136 -2164 -2156 -2348 -428 -1420 -1924 -1672 -1560 -600 0
-2136 -2164 -2156 -3116 -1580 -1676 -1924 -904 -408 -344 0
-216 -244 -236 -1132 -1324 -1804 -3844 -2824 -2584 -2200 0
-216 -244 -236 -2156 -2348 -2828 -3844 -1800 -1560 -1176 0
-408 -436 -428 -1324 -3116 -3596 -3652 -2632 -600 -216 0
-408 -436 -428 -2348 -2604 -3596 -3652 -1608 -1112 -216 0
-664 -692 -684 -1580 -1324 -1356 -3396 -2376 -2136 -2200 0
-1176 -1204 -1196 -1324 -812 -2828 -2884 -2632 -2136 -216 0
-1176 -1204 -1196 -1580 -812 -2828 -2884 -2376 -2136 -216 0
-1176 -1204 -1196 -3116 -2604 -2636 -2884 -840 -344 -408 0
-2200 -2228 -2220 -2156 -1132 -1612 -1860 -1800 -792 -408 0
-2200 -2228 -2220 -3116 -1324 -1804 -1860 -840 -600 -216 0
-2200 -2228 -2220 -3116 -1580 -1804 -1860 -840 -344 -216 0
-408 -436 -428 -236 -2156 -3148 -3652 -3592 -1560 -792 0
-408 -436 -428 -2220 -2604 -2636 -3652 -1608 -1112 -1304 0
-792 -820 -812 -1580 -3116 -3148 -3268 -2248 -216 -408 0
-1304 -1332 -1324 -1196 -2220 -2700 -2756 -2632 -600 -344 0
-1304 -1332 -1324 -1580 -684 -716 -2756 -2248 -2136 -2328 0
-1304 -1332 -1324 -1580 -684 -2700 -2756 -2248 -2136 -344 0
-1304 -1332 -1324 -1580 -2604 -2636 -2756 -2248 -216 -408 0
-2328 -2356 -2348 -2604 -684 -1676 -1732 -1224 -1112 -344 0
-2328 -2356 -2348 -3116 -1580 -1676 -1732 -712 -216 -344 0
-600 -628 -620 -364 -1324 -3340 -3460 -3208 -2200 -664 0
-600 -628 -620 -1132 -1324 -1420 -3460 -2440 -2200 -2584 0
-600 -628 -620 -2156 -3116 -3340 -3460 -1416 -408 -664 0
-1560 -1588 -1580 -1196 -428 -460 -2500 -2376 -2136 -2584 0
-1560 -1588 -1580 -1324 -364 -460 -2500 -2248 -2200 -2584 0
-1560 -1588 -1580 -3116 -2156 -2252 -2500 -456 -408 -792 0
-2584 -2612 -2604 -2348 -1324 -1356 -1476 -1224 -216 -664 0
-2584 -2612 -2604 -3116 -1196 -1420 -1476 -456 -344 -600 0
-1112 -1140 -1132 -236 -684 -908 -2948 -2824 -2328 -3096 0
-1112 -1140 -1132 -236 -2220 -2700 -2948 -2824 -792 -1304 0
-1112 -1140 -1132 -364 -428 -2444 -2948 -2696 -2584 -1560 0
-1112 -1140 -1132 -364 -812 -2828 -2948 -2696 -2200 -1176 0
-1112 -1140 -1132 -620 -684 -2700 -2948 -2440 -2328 -1304 0
-1112 -1140 -1132 -620 -2604 -2700 -2948 -2440 -408 -1304 0
-1176 -1204 -1196 -236 -2156 -2380 -2884 -2824 -792 -1560 0
-1176 -1204 -1196 -428 -364 -844 -2884 -2632 -2584 -3096 0
-1176 -1204 -1196 -428 -812 -2828 -2884 -2632 -2136 -1112 0
-1304 -1332 -1324 -364 -236 -2252 -2756 -2696 -2584 -1560 0
-1304 -1332 -1324 -364 -2156 -2252 -2756 -2696 -664 -1560 0
-1304 -1332 -1324 -2348 -2156 -2636 -2756 -712 -664 -1176 0
-1560 -1588 -1580 -620 -236 -460 -2500 -2440 -2328 -3096 0
-1560 -1588 -1580 -812 -364 -460 -2500 -2248 -2200 -3096 0
-1560 -1588 -1580 -812 -428 -460 -2500 -2248 -2136 -3096 0
-1560 -1588 -1580 -2604 -2156 -2380 -2500 -456 -408 -1176 0
-1560 -1588 -1580 -2604 -2220 -2252 -2500 -456 -344 -1304 0
-3096 -3124 -3116 -2156 -620 -844 -964 -904 -408 -1176 0
-3096 -3124 -3116 -2220 -428 -908 -964 -840 -600 -1112 0
-3096 -3124 -3116 -2348 -428 -460 -964 -712 -600 -1560 0
-2136 -2164 -2156 -236 -684 -1676 -1924 -1800 -1304 -2328 0
-2136 -2164 -2156 -236 -1196 -1420 -1924 -1800 -792 -2584 0
-2136 -2164 -2156 -236 -1196 -1676 -1924 -1800 -792 -2328 0
-2136 -2164 -2156 -620 -812 -1804 -1924 -1416 -1176 -2200 0
-2136 -2164 -2156 -620 -1580 -1676 -1924 -1416 -408 -2328 0
-2136 -2164 -2156 -1132 -1580 -1676 -1924 -904 -408 -2328 0
-2136 -2164 -2156 -1132 -1580 -1804 -1924 -904 -408 -2200 0
-2200 -2228 -2220 -684 -1580 -1612 -1860 -1352 -344 -2328 0
-2200 -2228 -2220 -1196 -1324 -1804 -1860 -840 -600 -2136 0
-2200 -2228 -2220 -1196 -1580 -1612 -1860 -840 -344 -2328 0
-2328 -2356 -2348 -812 -620 -716 -1732 -1224 -1176 -3096 0
-2328 -2356 -2348 -1324 -1132 -1228 -1732 -712 -664 -2584 0
-2584 -2612 -2604 -812 -364 -1356 -1476 -1224 -1176 -2200 0
-3096 -3124 -3116 -1132 -364 -844 -964 -904 -664 -2200 0
-3096 -3124 -3116 -1196 -236 -460 -964 -840 -792 -2584 0
-360 -364 -348 -412 -2204 -3220 -3716 -3592 -1576 -616 0
-360 -364 -348 -796 -1564 -1684 -3716 -3208 -2216 -2152 0
-360 -364 -348 -1308 -1564 -1684 -3716 -2696 -2216 -2152 0
-616 -620 -604 -668 -412 -2452 -3460 -3336 -3112 -1128 0
-616 -620 -604 -668 -2204 -2452 -3460 -3336 -1320 -1128 0
-616 -620 -604 -796 -1308 -1428 -3460 -3208 -2216 -2152 0
-1128 -1132 -1116 -1180 -412 -916 -2948 -2824 -2600 -2152 0
-1128 -1132 -1116 -1180 -412 -2452 -2948 -2824 -2600 -616 0
-1128 -1132 -1116 -1308 -412 -916 -2948 -2696 -2600 -2152 0
-2152 -2156 -2140 -2332 -796 -1812 -1924 -1672 -1192 -232 0
-2152 -2156 -2140 -2588 -1564 -1812 -1924 -1416 -424 -232 0
-232 -236 -220 -348 -796 -1812 -3844 -3592 -3112 -2216 0
-232 -236 -220 -348 -2332 -2836 -3844 -3592 -1576 -1192 0
-232 -236 -220 -604 -1564 -1812 -3844 -3336 -2344 -2216 0
-232 -236 -220 -604 -2588 -3604 -3844 -3336 -1320 -424 0
-424 -428 -412 -348 -604 -1620 -3652 -3592 -3112 -2216 0
-680 -684 -668 -604 -348 -1364 -3396 -3336 -3112 -2216 0
-680 -684 -668 -604 -2140 -2388 -3396 -3336 -1320 -1192 0
-680 -684 -668 -1564 -1308 -1364 -3396 -2376 -2152 -2216 0
-1192 -1196 -1180 -1308 -2332 -2836 -2884 -2632 -616 -232 0
-1192 -1196 -1180 -1564 -796 -852 -2884 -2376 -2152 -2216 0
-2216 -2220 -2204 -3100 -1564 -1812 -1860 -840 -360 -232 0
-360 -364 -348 -1116 -1564 -3604 -3716 -2696 -2216 -424 0
-808 -812 -796 -604 -2140 -3156 -3268 -3208 -1192 -424 0
-808 -812 -796 -2588 -2140 -3156 -3268 -1224 -1192 -424 0
-1320 -1324 -1308 -3100 -2140 -2260 -2756 -712 -680 -808 0
-2344 -2348 -2332 -2588 -668 -724 -1732 -1224 -1128 -1320 0
-2344 -2348 -2332 -3100 -1564 -1684 -1732 -712 -232 -360 0
-616 -620 -604 -2140 -3100 -3220 -3460 -1416 -424 -808 0
-680 -684 -668 -412 -348 -1364 -3396 -3144 -3112 -2600 0
-680 -684 -668 -1180 -1116 -1364 -3396 -2376 -2344 -2600 0
-680 -684 -668 -1180 -3100 -3156 -3396 -2376 -360 -808 0
-680 -684 -668 -2204 -2140 -2388 -3396 -1352 -1320 -1576 0
-808 -812 -796 -348 -2140 -3156 -3268 -3208 -1192 -680 0
-1576 -1580 -1564 -1116 -220 -468 -2500 -2440 -2344 -2600 0
-1576 -1580 -1564 -1116 -2140 -2388 -2500 -2440 -424 -680 0
-1576 -1580 -1564 -1308 -348 -468 -2500 -2248 -2216 -2600 0
-1576 -1580 -1564 -1308 -2332 -2452 -2500 -2248 -232 -616 0
-1576 -1580 -1564 -3100 -2204 -2452 -2500 -456 -360 -616 0
-2600 -2604 -2588 -3100 -1180 -1428 -1476 -456 -360 -616 0
-2600 -2604 -2588 -3100 -1308 -1428 -1476 -456 -232 -616 0
-1320 -1324 -1308 -796 -668 -724 -2756 -2248 -2152 -3112 0
-1576 -1580 -1564 -604 -220 -468 -2500 -2440 -2344 -3112 0
-1576 -1580 -1564 -604 -348 -468 -2500 -2440 -2216 -3112 0
-1576 -1580 -1564 -668 -220 -468 -2500 -2376 -2344 -3112 0
-1576 -1580 -1564 -668 -412 -468 -2500 -2376 -2152 -3112 0
-1576 -1580 -1564 -2588 -2140 -2260 -2500 -456 -424 -1320 0
-1576 -1580 -1564 -2588 -2204 -2260 -2500 -456 -360 -1320 0
-3112 -3116 -3100 -2332 -412 -468 -964 -712 -616 -1576 0
-2152 -2156 -2140 -348 -796 -916 -1924 -1672 -1192 -3112 0
-2152 -2156 -2140 -348 -796 -1812 -1924 -1672 -1192 -2216 0
-2152 -2156 -2140 -604 -1564 -1812 -1924 -1416 -424 -2216 0
-2152 -2156 -2140 -1116 -1308 -1428 -1924 -904 -680 -2600 0
-2152 -2156 -2140 -1116 -1308 -1812 -1924 -904 -680 -2216 0
-2152 -2156 -2140 -1116 -1564 -1812 -1924 -904 -424 -2216 0
-2216 -2220 -2204 -220 -1116 -1364 -1860 -1800 -808 -2600 0
-2216 -2220 -2204 -412 -348 -1364 -1860 -1608 -1576 -2600 0
-2216 -2220 -2204 -1180 -1308 -1812 -1860 -840 -616 -2152 0
-2216 -2220 -2204 -1180 -1564 -1812 -1860 -840 -360 -2152 0
-2600 -2604 -2588 -604 -348 -1364 -1476 -1416 -1192 -2216 0
-2600 -2604 -2588 -604 -1116 -1364 -1476 -1416 -424 -2216 0
-2600 -2604 -2588 -1564 -1308 -1364 -1476 -456 -232 -2216 0
-3112 -3116 -3100 -1116 -348 -468 -964 -904 -680 -2600 0
-3112 -3116 -3100 -1308 -348 -468 -964 -712 -680 -2600 0
-3112 -3116 -3100 -1308 -412 -916 -964 -712 -616 -2152 0
-232 -244 -220 -412 -796 -2828 -3844 -3592 -3112 -1128 0
-232 -244 -220 -412 -2332 -3340 -3844 -3592 -1576 -616 0
-232 -244 -220 -668 -796 -1804 -3844 -3336 -3112 -2152 0
-232 -244 -220 -2204 -2588 -3596 -3844 -1800 -1320 -360 0
-360 -372 -348 -412 -668 -1676 -3716 -3592 -3112 -2152 0
-360 -372 -348 -412 -1180 -1676 -3716 -3592 -2600 -2152 0
-360 -372 -348 -412 -2204 -3212 -3716 -3592 -1576 -616 0
-360 -372 -348 -796 -668 -1676 -3716 -3208 -3112 -2152 0
-360 -372 -348 -1308 -1564 -3596 -3716 -2696 -2216 -232 0
-616 -628 -604 -1564 -1308 -3340 -3460 -2440 -2216 -232 0
-616 -628 -604 -2588 -2204 -2444 -3460 -1416 -1320 -1128 0
-1128 -1140 -1116 -1180 -668 -2700 -2948 -2824 -2344 -360 0
-1128 -1140 -1116 -1180 -2204 -2444 -2948 -2824 -808 -616 0
-1128 -1140 -1116 -1564 -796 -908 -2948 -2440 -2216 -2152 0
-1128 -1140 -1116 -3100 -2332 -2444 -2948 -904 -680 -616 0
-1128 -1140 -1116 -3100 -2588 -2700 -2948 -904 -424 -360 0
-2152 -2164 -2140 -2204 -668 -1676 -1924 -1800 -1320 -360 0
-2152 -2164 -2140 -2204 -1180 -1676 -1924 -1800 -808 -360 0
-2152 -2164 -2140 -2588 -796 -1804 -1924 -1416 -1192 -232 0
-2152 -2164 -2140 -2588 -1564 -1804 -1924 -1416 -424 -232 0
-2152 -2164 -2140 -3100 -1564 -1676 -1924 -904 -424 -360 0
-232 -244 -220 -348 -1308 -1804 -3844 -3592 -2600 -2216 0
-232 -244 -220 -1116 -1564 -3596 -3844 -2824 -2344 -424 0
-232 -244 -220 -2140 -3100 -3596 -3844 -1800 -808 -424 0
-424 -436 -412 -1308 -1564 -1612 -3652 -2632 -2152 -2216 0
-680 -692 -668 -604 -1116 -3148 -3396 -3336 -2344 -424 0
-2216 -2228 -2204 -2140 -1116 -1612 -1860 -1800 -808 -424 0
-2216 -2228 -2204 -2588 -1564 -1804 -1860 -1352 -360 -232 0
-2216 -2228 -2204 -3100 -1308 -1356 -1860 -840 -616 -680 0
-360 -372 -348 -1116 -1180 -1676 -3716 -2696 -2600 -2344 0
-424 -436 -412 -668 -1564 -1612 -3652 -3144 -2152 -2344 0
-424 -436 -412 -1180 -3100 -3596 -3652 -2632 -616 -360 0
-808 -820 -796 -604 -2140 -2252 -3268 -3208 -1192 -1320 0
-808 -820 -796 -604 -2140 -3148 -3268 -3208 -1192 -424 0
-808 -820 -796 -668 -220 -2252 -3268 -3144 -3112 -1320 0
-808 -820 -796 -1564 -1180 -1228 -3268 -2248 -2152 -2344 0
-808 -820 -796 -2588 -2140 -3148 -3268 -1224 -1192 -424 0
-808 -820 -796 -2588 -3100 -3212 -3268 -1224 -232 -360 0
-1320 -1332 -1308 -1116 -220 -2252 -2756 -2696 -2600 -808 0
-1320 -1332 -1308 -1116 -2140 -2252 -2756 -2696 -680 -808 0
-1320 -1332 -1308 -1180 -220 -2252 -2756 -2632 -2600 -808 0
-1320 -1332 -1308 -1564 -668 -716 -2756 -2248 -2152 -2344 0
-1320 -1332 -1308 -1564 -2588 -2700 -2756 -2248 -232 -360 0
-2344 -2356 -2332 -2204 -668 -716 -1732 -1608 -1128 -1320 0
-2344 -2356 -2332 -2204 -1180 -1676 -1732 -1608 -616 -360 0
-616 -628 -604 -348 -1308 -1420 -3460 -3208 -2216 -2600 0
-680 -692 -668 -220 -1116 -1356 -3396 -3336 -2344 -2600 0
-680 -692 -668 -412 -348 -2380 -3396 -3144 -3112 -1576 0
-680 -692 -668 -2204 -2140 -2380 -3396 -1352 -1320 -1576 0
-680 -692 -668 -2204 -2140 -3148 -3396 -1352 -1320 -808 0
-1576 -1588 -1564 -1116 -220 -460 -2500 -2440 -2344 -2600 0
-1576 -1588 -1564 -1308 -348 -460 -2500 -2248 -2216 -2600 0
-1576 -1588 -1564 -1308 -412 -2444 -2500 -2248 -2152 -616 0
-1576 -1588 -1564 -1308 -2332 -2444 -2500 -2248 -232 -616 0
-1576 -1588 -1564 -3100 -2204 -2252 -2500 -456 -360 -808 0
-2600 -2612 -2588 -2204 -220 -460 -1476 -1352 -1320 -1576 0
-2600 -2612 -2588 -2332 -1308 -1420 -1476 -1224 -232 -616 0
-1128 -1140 -1116 -348 -412 -2444 -2948 -2696 -2600 -1576 0
-1192 -1204 -1180 -412 -2332 -2380 -2884 -2632 -616 -1576 0
-1192 -1204 -1180 -2204 -2140 -2380 -2884 -840 -808 -1576 0
-1576 -1588 -1564 -604 -220 -460 -2500 -2440 -2344 -3112 0
-1576 -1588 -1564 -668 -220 -460 -2500 -2376 -2344 -3112 0
-1576 -1588 -1564 -796 -348 -460 -2500 -2248 -2216 -3112 0
-1576 -1588 -1564 -2588 -2140 -2252 -2500 -456 -424 -1320 0
-1576 -1588 -1564 -2588 -2204 -2252 -2500 -456 -360 -1320 0
-1576 -1588 -1564 -2588 -2204 -2444 -2500 -456 -360 -1128 0
-3112 -3124 -3100 -2204 -220 -460 -964 -840 -808 -1576 0
-3112 -3124 -3100 -2204 -412 -460 -964 -840 -616 -1576 0
-3112 -3124 -3100 -2588 -604 -716 -964 -456 -424 -1320 0
-3112 -3124 -3100 -2588 -796 -908 -964 -456 -232 -1128 0
-2152 -2164 -2140 -348 -796 -1804 -1924 -1672 -1192 -2216 0
-2152 -2164 -2140 -604 -796 -1804 -1924 -1416 -1192 -2216 0
-2152 -2164 -2140 -1116 -1180 -1420 -1924 -904 -808 -2600 0
-2152 -2164 -2140 -1116 -1180 -1676 -1924 -904 -808 -2344 0
-2152 -2164 -2140 -1116 -1564 -1804 -1924 -904 -424 -2216 0
-2216 -2228 -2204 -668 -604 -844 -1860 -1352 -1320 -3112 0
-2344 -2356 -2332 -1308 -1180 -1676 -1732 -712 -616 -2152 0
-2600 -2612 -2588 -604 -220 -460 -1476 -1416 -1320 -3112 0
-2600 -2612 -2588 -604 -1116 -1356 -1476 -1416 -424 -2216 0
-2600 -2612 -2588 -796 -1308 -1420 -1476 -1224 -232 -2152 0
-3112 -3124 -3100 -1180 -220 -460 -964 -840 -808 -2600 0
-3112 -3124 -3100 -1564 -604 -716 -964 -456 -424 -2344 0
-3112 -3124 -3100 -1564 -668 -908 -964 -456 -360 -2152 0
-2128 -2140 -2260 -2228 -692 -932 -1828 -1800 -1296 -1104 0
-2128 -2140 -2260 -2228 -692 -1700 -1828 -1800 -1296 -336 0
-2128 -2140 -3156 -3124 -1588 -1828 -932 -904 -400 -208 0
-208 -220 -724 -628 -2612 -2852 -3364 -3336 -1296 -1168 0
-656 -668 -724 -628 -2164 -2404 -3364 -3336 -1296 -1168 0
-656 -668 -724 -628 -2164 -3172 -3364 -3336 -1296 -400 0
-2192 -2204 -2260 -2164 -1140 -1380 -1828 -1800 -784 -656 0
-336 -348 -2388 -2164 -3124 -3236 -1700 -1672 -656 -784 0
-784 -796 -916 -692 -244 -2276 -3172 -3144 -3088 -1296 0
-592 -604 -852 -372 -1332 -3364 -3236 -3208 -2192 -656 0
-656 -668 -724 -244 -372 -2404 -3364 -3336 -3088 -1552 0
-1552 -1564 -3604 -3124 -2356 -2468 -484 -456 -208 -592 0
-3088 -3100 -3156 -2164 -244 -740 -932 -904 -784 -1296 0
-2128 -2140 -2388 -372 -820 -1828 -1700 -1672 -1168 -2192 0
-2128 -2140 -2644 -628 -820 -1828 -1444 -1416 -1168 -2192 0
-2192 -2204 -2260 -244 -1140 -1380 -1828 -1800 -784 -2576 0
-208 -236 -2276 -2228 -2356 -2836 -1812 -1800 -1552 -1104 0
-208 -236 -2276 -2228 -3124 -3604 -1812 -1800 -784 -336 0
-2128 -2156 -2276 -2228 -692 -916 -1812 -1800 -1296 -1104 0
-2128 -2156 -2404 -2356 -820 -1812 -1684 -1672 -1168 -208 0
-208 -236 -740 -628 -820 -1812 -3348 -3336 -3088 -2192 0
-656 -684 -932 -820 -372 -2388 -3156 -3144 -3088 -1168 0
-2192 -2220 -2724 -2612 -820 -1812 -1364 -1352 -1104 -208 0
-784 -812 -932 -692 -1204 -1236 -3156 -3144 -2128 -2320 0
-2320 -2348 -2852 -2612 -1588 -1620 -1236 -1224 -208 -400 0
-1552 -1580 -3620 -2612 -2356 -2452 -468 -456 -208 -1104 0
-2192 -2220 -2276 -244 -372 -852 -1812 -1800 -1552 -3088 0
-2136 -2140 -2380 -2348 -812 -932 -1700 -1672 -1176 -1112 0
-216 -220 -1228 -1132 -1324 -3364 -2852 -2824 -2584 -664 0
-1176 -1180 -1228 -1132 -2156 -2660 -2852 -2824 -792 -408 0
-344 -348 -1356 -1132 -1580 -1700 -2724 -2696 -2200 -2328 0
-1304 -1308 -1356 -1132 -236 -2276 -2724 -2696 -2584 -792 0
-2328 -2332 -2828 -2604 -684 -740 -1252 -1224 -1112 -1304 0
-600 -604 -1612 -1132 -1324 -1444 -2468 -2440 -2200 -2584 0
-664 -668 -908 -428 -2348 -3364 -3172 -3144 -1112 -600 0
-1560 -1564 -1804 -1324 -364 -484 -2276 -2248 -2200 -2584 0
-1304 -1308 -1356 -364 -620 -2660 -2724 -2696 -2200 -1176 0
-1304 -1308 -1804 -812 -684 -740 -2276 -2248 -2136 -3096 0
-1560 -1564 -1804 -812 -428 -484 -2276 -2248 -2136 -3096 0
-344 -372 -868 -812 -2604 -3596 -3212 -3208 -1176 -216 0
-2136 -2164 -2276 -2220 -684 -908 -1804 -1800 -1304 -1112 0
-792 -820 -932 -684 -2220 -2252 -3148 -3144 -1112 -1304 0
-2136 -2164 -2276 -236 -684 -1676 -1804 -1800 -1304 -2328 0
-2328 -2356 -2852 -812 -684 -716 -1228 -1224 -1112 -3096 0
-2328 -2356 -3364 -1324 -1196 -1228 -716 -712 -600 -2584 0
-232 -236 -716 -604 -2588 -3604 -3348 -3336 -1320 -424 0
-680 -684 -1676 -1564 -1116 -3156 -2388 -2376 -2344 -424 0
-360 -364 -460 -220 -1180 -1684 -3604 -3592 -2600 -2344 0
-808 -812 -908 -668 -220 -1236 -3156 -3144 -3112 -2344 0
-808 -812 -1804 -1564 -3100 -3220 -2260 -2248 -232 -360 0
-1320 -1324 -3340 -3100 -2588 -2644 -724 -712 -232 -424 0
-680 -684 -1676 -1180 -3100 -3156 -2388 -2376 -360 -808 0
-680 -684 -2700 -2204 -3100 -3348 -1364 -1352 -360 -616 0
-808 -812 -2828 -2332 -3100 -3220 -1236 -1224 -232 -616 0
-1576 -1580 -3596 -3100 -2204 -2452 -468 -456 -360 -616 0
-2344 -2348 -2380 -348 -1116 -1620 -1684 -1672 -680 -2216 0
-2344 -2348 -3340 -1308 -1116 -1236 -724 -712 -680 -2600 0
-3112 -3116 -3212 -1180 -668 -916 -852 -840 -360 -2152 0
-3112 -3116 -3340 -1308 -412 -468 -724 -712 -616 -2600 0
-232 -244 -2260 -2204 -2332 -2828 -1804 -1800 -1576 -1128 0
-360 -372 -2388 -2332 -2204 -2700 -1676 -1672 -1576 -1128 0
-616 -628 -1620 -1564 -3100 -3340 -2444 -2440 -424 -232 0
-680 -692 -724 -604 -2140 -2380 -3340 -3336 -1320 -1192 0
-2344 -2356 -3348 -3100 -1180 -1228 -716 -712 -616 -808 0
-680 -692 -1684 -1180 -1116 -1356 -2380 -2376 -2344 -2600 0
-1576 -1588 -3604 -3100 -2332 -2444 -460 -456 -232 -616 0
-2152 -2164 -2260 -220 -668 -908 -1804 -1800 -1320 -3112 0
-2152 -2164 -2260 -220 -668 -1676 -1804 -1800 -1320 -2344 0
-2152 -2164 -3156 -1116 -1308 -1804 -908 -904 -680 -2216 0
-208 -220 -468 -2452 -2356 -3364 -3620 -1576 -1552 -592 0
-208 -220 -2260 -2452 -2356 -3364 -1828 -1576 -1552 -592 0
-336 -348 -1364 -1428 -1204 -1700 -2724 -2600 -2576 -2128 0
-336 -348 -2388 -2836 -2612 -2724 -1700 -1192 -1168 -1104 0
-336 -348 -2388 -3348 -3124 -3236 -1700 -680 -656 -592 0
-336 -348 -2388 -3348 -3124 -3620 -1700 -680 -656 -208 0
-592 -604 -852 -916 -436 -2468 -3236 -3112 -3088 -1104 0
-592 -604 -852 -2836 -2356 -2468 -3236 -1192 -1168 -1104 0
-1104 -1116 -1620 -1684 -692 -2724 -2468 -2344 -2320 -336 0
-2128 -2140 -2388 -2836 -820 -1828 -1700 -1192 -1168 -208 0
-208 -220 -1236 -1364 -1332 -1828 -2852 -2600 -2576 -2192 0
-208 -220 -2260 -2388 -2356 -2852 -1828 -1576 -1552 -1168 0
-656 -668 -916 -2836 -2356 -2404 -3172 -1128 -1104 -1168 0
-656 -668 -2708 -3604 -3124 -3172 -1380 -360 -336 -400 0
-1168 -1180 -1684 -1812 -820 -2852 -2404 -2152 -2128 -208 0
-2192 -2204 -2452 -2836 -820 -868 -1636 -1128 -1104 -1168 0
-2192 -2204 -2452 -3348 -1332 -1380 -1636 -616 -592 -656 0
-2192 -2204 -2708 -2836 -820 -868 -1380 -1128 -1104 -1168 0
-400 -412 -468 -2260 -2164 -2660 -3620 -1576 -1552 -1296 0
-784 -796 -916 -724 -244 -1252 -3172 -3112 -3088 -2320 0
-784 -796 -1812 -1620 -1140 -1252 -2276 -2216 -2192 -2320 0
-784 -796 -1812 -3604 -3124 -3172 -2276 -232 -208 -400 0
-784 -796 -2836 -2708 -2228 -3236 -1252 -1128 -1104 -336 0
-1296 -1308 -1812 -1620 -628 -2660 -2276 -2216 -2192 -400 0
-1296 -1308 -1812 -1684 -692 -2724 -2276 -2152 -2128 -336 0
-1296 -1308 -1812 -3604 -2612 -2660 -2276 -232 -208 -400 0
-1296 -1308 -1812 -3604 -2612 -2724 -2276 -232 -208 -336 0
-1296 -1308 -3348 -3156 -2164 -2276 -740 -680 -656 -784 0
-592 -604 -724 -1236 -1204 -3236 -3364 -2344 -2320 -784 0
-592 -604 -852 -468 -436 -1444 -3236 -3112 -3088 -2576 0
-592 -604 -852 -468 -436 -2468 -3236 -3112 -3088 -1552 0
-592 -604 -852 -1364 -1332 -3364 -3236 -2216 -2192 -656 0
-592 -604 -852 -2388 -2356 -3364 -3236 -1192 -1168 -656 0
-656 -668 -724 -1236 -1140 -3172 -3364 -2344 -2320 -784 0
-656 -668 -916 -1428 -1332 -1380 -3172 -2152 -2128 -2576 0
-656 -668 -2708 -3220 -3124 -3364 -1380 -360 -336 -592 0
-784 -796 -852 -468 -244 -1252 -3236 -3112 -3088 -2576 0
-784 -796 -1812 -1364 -1140 -3172 -2276 -2216 -2192 -656 0
-784 -796 -2836 -2388 -2164 -2276 -1252 -1192 -1168 -1552 0
-784 -796 -2836 -3348 -3124 -3236 -1252 -232 -208 -592 0
-1552 -1564 -1812 -1428 -436 -484 -2276 -2152 -2128 -2576 0
-1552 -1564 -1812 -3348 -2356 -2468 -2276 -232 -208 -592 0
-1552 -1564 -3604 -3348 -2356 -2468 -484 -232 -208 -592 0
-2576 -2588 -2644 -2388 -372 -1380 -1444 -1192 -1168 -656 0
-2576 -2588 -2708 -2260 -244 -484 -1380 -1320 -1296 -1552 0
-2576 -2588 -3604 -3156 -1140 -1380 -484 -424 -400 -656 0
-1104 -1116 -1236 -2260 -2228 -2468 -2852 -808 -784 -1552 0
-1104 -1116 -1364 -852 -820 -2852 -2724 -2216 -2192 -1168 0
-1104 -1116 -1364 -2388 -2356 -2852 -2724 -680 -656 -1168 0
-1104 -1116 -3156 -2388 -2356 -2852 -932 -680 -656 -1168 0
-1168 -1180 -1236 -468 -372 -868 -2852 -2600 -2576 -3088 0
-1168 -1180 -1236 -724 -628 -2660 -2852 -2344 -2320 -1296 0
-1168 -1180 -1236 -2260 -2164 -2660 -2852 -808 -784 -1296 0
-1168 -1180 -1428 -2452 -2356 -2404 -2660 -616 -592 -1552 0
-1168 -1180 -1684 -916 -820 -2852 -2404 -2152 -2128 -1104 0
-1296 -1308 -1364 -468 -244 -2276 -2724 -2600 -2576 -1552 0
-1296 -1308 -1812 -916 -692 -740 -2276 -2152 -2128 -3088 0
-1296 -1308 -1812 -916 -692 -2724 -2276 -2152 -2128 -1104 0
-1296 -1308 -1812 -2836 -2612 -2724 -2276 -232 -208 -1104 0
-1552 -1564 -3604 -2836 -2356 -2468 -484 -232 -208 -1104 0
-3088 -3100 -3220 -2260 -244 -484 -868 -808 -784 -1552 0
-3088 -3100 -3604 -2708 -692 -740 -484 -360 -336 -1296 0
-3088 -3100 -3604 -2708 -692 -932 -484 -360 -336 -1104 0
-2128 -2140 -2260 -468 -436 -1444 -1828 -1576 -1552 -2576 0
-2128 -2140 -2260 -1236 -1204 -1444 -1828 -808 -784 -2576 0
-2128 -2140 -2388 -468 -436 -932 -1700 -1576 -1552 -3088 0
-2192 -2204 -2452 -468 -372 -1380 -1636 -1576 -1552 -2576 0
-2320 -2332 -2388 -468 -244 -1252 -1700 -1576 -1552 -2576 0
-2320 -2332 -2452 -468 -244 -1252 -1636 -1576 -1552 -2576 0
-2576 -2588 -2644 -1620 -1140 -1252 -1444 -424 -400 -2320 0
-2576 -2588 -2836 -852 -372 -1380 -1252 -1192 -1168 -2192 0
-2576 -2588 -3604 -1684 -1204 -1252 -484 -360 -336 -2320 0
-3088 -3100 -3348 -1364 -372 -868 -740 -680 -656 -2192 0
-3088 -3100 -3348 -1812 -820 -868 -740 -232 -208 -2192 0
-336 -364 -868 -1828 -1588 -1684 -3220 -2200 -2192 -2128 0
-336 -364 -868 -2852 -2612 -2708 -3220 -1176 -1168 -1104 0
-336 -364 -1380 -1828 -1588 -1684 -2708 -2200 -2192 -2128 0
-592 -620 -868 -1828 -1332 -1428 -3220 -2200 -2192 -2128 0
-592 -620 -868 -2852 -2356 -3348 -3220 -1176 -1168 -208 0
-592 -620 -1636 -3620 -3124 -3348 -2452 -408 -400 -208 0
-592 -620 -2660 -3620 -3124 -3220 -1428 -408 -400 -336 0
-1104 -1132 -1252 -1444 -436 -2452 -2836 -2584 -2576 -592 0
-1104 -1132 -1380 -1828 -820 -2836 -2708 -2200 -2192 -208 0
-2128 -2156 -2276 -2724 -692 -916 -1812 -1304 -1296 -1104 0
-2128 -2156 -2404 -2852 -820 -916 -1684 -1176 -1168 -1104 0
-2128 -2156 -2404 -2852 -820 -1812 -1684 -1176 -1168 -208 0
-2128 -2156 -2660 -2852 -820 -1812 -1428 -1176 -1168 -208 0
-2128 -2156 -3172 -3364 -1332 -1428 -916 -664 -656 -592 0
-2128 -2156 -3172 -3364 -1332 -1812 -916 -664 -656 -208 0
-208 -236 -740 -868 -820 -1812 -3348 -3096 -3088 -2192 0
-208 -236 -740 -2660 -2612 -3604 -3348 -1304 -1296 -400 0
-400 -428 -932 -1828 -1588 -3604 -3156 -2136 -2128 -208 0
-400 -428 -932 -2852 -2612 -3604 -3156 -1112 -1104 -208 0
-400 -428 -2468 -2404 -2164 -3156 -1620 -1560 -1552 -656 0
-656 -684 -932 -1828 -1332 -3348 -3156 -2136 -2128 -208 0
-656 -684 -932 -2852 -2356 -2388 -3156 -1112 -1104 -1168 0
-656 -684 -1700 -1636 -1140 -3156 -2388 -2328 -2320 -400 0
-656 -684 -1700 -1828 -1332 -3348 -2388 -2136 -2128 -208 0
-656 -684 -2724 -3620 -3124 -3348 -1364 -344 -336 -208 0
-1168 -1196 -1252 -3172 -2164 -2644 -2836 -792 -784 -400 0
-1168 -1196 -1700 -1828 -820 -852 -2388 -2136 -2128 -2192 0
-2192 -2220 -2276 -2404 -372 -852 -1812 -1560 -1552 -1168 0
-2192 -2220 -2276 -3172 -1140 -1364 -1812 -792 -784 -656 0
-2192 -2220 -2468 -3364 -1332 -1812 -1620 -600 -592 -208 0
-2192 -2220 -2724 -2660 -628 -1620 -1364 -1304 -1296 -400 0
-2192 -2220 -2724 -2852 -820 -1812 -1364 -1112 -1104 -208 0
-336 -364 -1380 -1636 -1588 -3604 -2708 -2200 -2192 -400 0
-400 -428 -932 -1700 -1588 -1620 -3156 -2136 -2128 -2320 0
-400 -428 -2468 -2276 -2164 -2644 -1620 -1560 -1552 -1296 0
-400 -428 -2468 -2724 -2612 -3604 -1620 -1112 -1104 -336 0
-784 -812 -932 -2724 -2228 -2260 -3156 -1112 -1104 -1296 0
-784 -812 -1828 -1636 -1140 -1236 -2260 -2200 -2192 -2320 0
-784 -812 -1828 -1700 -1204 -3220 -2260 -2136 -2128 -336 0
-784 -812 -2852 -2724 -2228 -3220 -1236 -1112 -1104 -336 0
-1296 -1324 -1828 -1636 -628 -2644 -2260 -2200 -2192 -400 0
-1296 -1324 -3364 -3172 -2164 -2260 -724 -664 -656 -784 0
-1296 -1324 -3364 -3172 -2164 -2644 -724 -664 -656 -400 0
-2320 -2348 -2404 -2276 -244 -724 -1684 -1560 -1552 -1296 0
-2320 -2348 -2404 -2660 -628 -1620 -1684 -1176 -1168 -400 0
-2320 -2348 -2468 -2276 -244 -1236 -1620 -1560 -1552 -784 0
-2320 -2348 -2852 -2660 -628 -724 -1236 -1176 -1168 -1296 0
-2320 -2348 -2852 -2724 -692 -724 -1236 -1112 -1104 -1296 0
-2320 -2348 -3364 -3172 -1140 -1236 -724 -664 -656 -784 0
-2320 -2348 -3364 -3620 -1588 -1620 -724 -216 -208 -400 0
-592 -620 -740 -484 -436 -2452 -3348 -3096 -3088 -1552 0
-592 -620 -1636 -1252 -1204 -1428 -2452 -2328 -2320 -2576 0
-592 -620 -1636 -1380 -1332 -3348 -2452 -2200 -2192 -656 0
-592 -620 -2660 -2276 -2228 -3220 -1428 -1304 -1296 -784 0
-656 -684 -740 -1252 -1140 -1364 -3348 -2328 -2320 -2576 0
-656 -684 -932 -1444 -1332 -1364 -3156 -2136 -2128 -2576 0
-656 -684 -2724 -3236 -3124 -3348 -1364 -344 -336 -592 0
-784 -812 -868 -484 -244 -1236 -3220 -3096 -3088 -2576 0
-784 -812 -868 -1380 -1140 -3156 -3220 -2200 -2192 -656 0
-784 -812 -1828 -1380 -1140 -1236 -2260 -2200 -2192 -2576 0
-784 -812 -1828 -1444 -1204 -1236 -2260 -2136 -2128 -2576 0
-784 -812 -2852 -3364 -3124 -3220 -1236 -216 -208 -592 0
-1552 -1580 -1700 -3236 -2228 -2452 -2388 -344 -336 -592 0
-1552 -1580 -1828 -1380 -372 -2388 -2260 -2200 -2192 -656 0
-2576 -2604 -2660 -2404 -372 -1364 -1428 -1176 -1168 -656 0
-2576 -2604 -2660 -3172 -1140 -1236 -1428 -408 -400 -784 0
-2576 -2604 -2660 -3172 -1140 -1364 -1428 -408 -400 -656 0
-2576 -2604 -2724 -2276 -244 -468 -1364 -1304 -1296 -1552 0
-1104 -1132 -1252 -740 -692 -916 -2836 -2328 -2320 -3088 0
-1104 -1132 -1380 -484 -436 -2452 -2708 -2584 -2576 -1552 0
-1104 -1132 -1380 -868 -820 -916 -2708 -2200 -2192 -3088 0
-1104 -1132 -1636 -868 -820 -916 -2452 -2200 -2192 -3088 0
-1104 -1132 -1636 -2660 -2612 -2708 -2452 -408 -400 -1296 0
-1104 -1132 -3172 -2660 -2612 -2836 -916 -408 -400 -1168 0
-1168 -1196 -1252 -484 -372 -852 -2836 -2584 -2576 -3088 0
-1168 -1196 -1252 -740 -628 -852 -2836 -2328 -2320 -3088 0
-1296 -1324 -3364 -2404 -2164 -2260 -724 -664 -656 -1552 0
-1552 -1580 -1636 -868 -372 -468 -2452 -2200 -2192 -3088 0
-1552 -1580 -1828 -2852 -2356 -2388 -2260 -216 -208 -1168 0
-1552 -1580 -3620 -2660 -2164 -2260 -468 -408 -400 -1296 0
-1552 -1580 -3620 -2660 -2164 -2388 -468 -408 -400 -1168 0
-3088 -3116 -3172 -2276 -244 -724 -916 -792 -784 -1296 0
-3088 -3116 -3364 -2852 -820 -916 -724 -216 -208 -1104 0
-3088 -3116 -3620 -2724 -692 -916 -468 -344 -336 -1104 0
-2128 -2156 -2660 -868 -820 -1812 -1428 -1176 -1168 -2192 0
-2128 -2156 -3172 -1636 -1588 -1812 -916 -408 -400 -2192 0
-2192 -2220 -2724 -740 -628 -852 -1364 -1304 -1296 -3088 0
-2192 -2220 -2724 -932 -820 -852 -1364 -1112 -1104 -3088 0
-2192 -2220 -3236 -1700 -1588 -1812 -852 -344 -336 -2128 0
-2320 -2348 -3364 -1380 -1140 -1236 -724 -664 -656 -2576 0
-2576 -2604 -2660 -1636 -1140 -1364 -1428 -408 -400 -2192 0
-2576 -2604 -2724 -932 -436 -468 -1364 -1112 -1104 -3088 0
-2576 -2604 -2724 -1700 -1204 -1428 -1364 -344 -336 -2128 0
-2576 -2604 -2852 -868 -372 -468 -1236 -1176 -1168 -3088 0
-3088 -3116 -3172 -1252 -244 -724 -916 -792 -784 -2320 0
-3088 -3116 -3620 -1636 -628 -852 -468 -408 -400 -2192 0
-3088 -3116 -3620 -1700 -692 -724 -468 -344 -336 -2320 0
-216 -220 -460 -908 -812 -1828 -3620 -3112 -3096 -2136 0
-344 -348 -460 -2444 -2220 -3236 -3620 -1576 -1560 -600 0
-344 -348 -2380 -2828 -2604 -2724 -1700 -1192 -1176 -1112 0
-344 -348 -2380 -2828 -2604 -3620 -1700 -1192 -1176 -216 0
-600 -604 -2636 -2700 -2220 -2468 -1444 -1320 -1304 -1112 0
-1112 -1116 -1228 -1676 -684 -932 -2852 -2344 -2328 -2136 0
-1112 -1116 -1356 -1420 -428 -932 -2724 -2600 -2584 -2136 0
-1112 -1116 -1612 -1676 -684 -2724 -2468 -2344 -2328 -344 0
-1112 -1116 -3148 -3596 -2604 -2852 -932 -424 -408 -216 0
-2136 -2140 -2252 -2444 -428 -1444 -1828 -1576 -1560 -600 0
-2136 -2140 -2380 -3340 -1324 -1444 -1700 -680 -664 -600 0
-216 -220 -460 -844 -812 -1828 -3620 -3112 -3096 -2200 0
-216 -220 -716 -2636 -2604 -3620 -3364 -1320 -1304 -408 0
-216 -220 -2252 -2380 -2348 -3364 -1828 -1576 -1560 -664 0
-408 -412 -460 -2380 -2156 -3172 -3620 -1576 -1560 -664 0
-408 -412 -2444 -2380 -2156 -2660 -1636 -1576 -1560 -1176 0
-664 -668 -908 -844 -364 -1380 -3172 -3112 -3096 -2200 0
-664 -668 -908 -844 -364 -2404 -3172 -3112 -3096 -1176 0
-664 -668 -908 -1804 -1324 -3364 -3172 -2152 -2136 -216 0
-664 -668 -1676 -1612 -1132 -3172 -2404 -2344 -2328 -408 0
-664 -668 -2700 -2636 -2156 -2404 -1380 -1320 -1304 -1176 0
-1176 -1180 -1420 -1804 -812 -868 -2660 -2152 -2136 -2200 0
-1176 -1180 -1420 -1804 -812 -2852 -2660 -2152 -2136 -216 0
-1176 -1180 -3212 -3596 -2604 -2660 -868 -360 -344 -408 0
-2200 -2204 -2252 -2380 -364 -1380 -1828 -1576 -1560 -664 0
-2200 -2204 -3212 -3148 -1132 -1380 -868 -808 -792 -664 0
-2200 -2204 -3212 -3596 -1580 -1828 -868 -360 -344 -216 0
-408 -412 -908 -1676 -1580 -3620 -3172 -2152 -2136 -344 0
-408 -412 -2444 -2252 -2156 -3172 -1636 -1576 -1560 -792 0
-792 -796 -908 -716 -236 -2276 -3172 -3112 -3096 -1304 0
-2328 -2332 -2380 -2252 -236 -740 -1700 -1576 -1560 -1304 0
-2328 -2332 -2380 -2636 -620 -740 -1700 -1192 -1176 -1304 0
-600 -604 -844 -460 -428 -1444 -3236 -3112 -3096 -2584 0
-600 -604 -2636 -2380 -2348 -3364 -1444 -1192 -1176 -664 0
-664 -668 -716 -460 -364 -2404 -3364 -3112 -3096 -1560 0
-664 -668 -716 -1228 -1132 -3172 -3364 -2344 -2328 -792 0
-664 -668 -1676 -1228 -1132 -3172 -2404 -2344 -2328 -792 0
-664 -668 -2700 -2444 -2348 -2404 -1380 -1128 -1112 -1560 0
-792 -796 -844 -460 -236 -2276 -3236 -3112 -3096 -1560 0
-792 -796 -908 -460 -236 -2276 -3172 -3112 -3096 -1560 0
-792 -796 -1804 -1420 -1196 -1252 -2276 -2152 -2136 -2584 0
-1560 -1564 -1676 -1420 -428 -484 -2404 -2152 -2136 -2584 0
-1560 -1564 -1804 -1420 -428 -484 -2276 -2152 -2136 -2584 0
-2584 -2588 -2700 -2444 -428 -1444 -1380 -1128 -1112 -600 0
-2584 -2588 -2700 -3212 -1196 -1252 -1380 -360 -344 -792 0
-1112 -1116 -1228 -2252 -2220 -2724 -2852 -808 -792 -1304 0
-1112 -1116 -1356 -2380 -2348 -2852 -2724 -680 -664 -1176 0
-1176 -1180 -1228 -460 -364 -2404 -2852 -2600 -2584 -1560 0
-1176 -1180 -1228 -2252 -2156 -2660 -2852 -808 -792 -1304 0
-1176 -1180 -1676 -908 -812 -2852 -2404 -2152 -2136 -1112 0
-1304 -1308 -1356 -844 -620 -740 -2724 -2216 -2200 -3096 0
-1304 -1308 -1420 -460 -236 -2276 -2660 -2600 -2584 -1560 0
-1304 -1308 -1804 -908 -684 -2724 -2276 -2152 -2136 -1112 0
-1560 -1564 -1676 -716 -236 -2276 -2404 -2344 -2328 -1304 0
-1560 -1564 -1804 -908 -428 -2468 -2276 -2152 -2136 -1112 0
-3096 -3100 -3148 -2636 -620 -868 -932 -424 -408 -1176 0
-3096 -3100 -3212 -2252 -236 -740 -868 -808 -792 -1304 0
-2200 -2204 -2700 -1676 -1580 -1828 -1380 -360 -344 -2136 0
-2584 -2588 -2636 -716 -236 -1252 -1444 -1320 -1304 -2328 0
-2584 -2588 -2700 -716 -236 -1252 -1380 -1320 -1304 -2328 0
-3096 -3100 -3212 -1228 -236 -740 -868 -808 -792 -2328 0
-3096 -3100 -3340 -1804 -812 -868 -740 -232 -216 -2200 0
-3096 -3100 -3596 -1804 -812 -868 -484 -232 -216 -2200 0
-216 -244 -484 -932 -812 -1804 -3596 -3088 -3096 -2136 0
-216 -244 -740 -932 -812 -2828 -3340 -3088 -3096 -1112 0
-344 -372 -484 -932 -684 -2700 -3596 -3088 -3096 -1112 0
-344 -372 -868 -932 -684 -1676 -3212 -3088 -3096 -2136 0
-344 -372 -868 -932 -684 -2700 -3212 -3088 -3096 -1112 0
-344 -372 -868 -2852 -2604 -2700 -3212 -1168 -1176 -1112 0
-344 -372 -2404 -2468 -2220 -2700 -1676 -1552 -1560 -1112 0
-600 -628 -740 -932 -428 -1420 -3340 -3088 -3096 -2136 0
-600 -628 -740 -1700 -1196 -3212 -3340 -2320 -2328 -344 0
-600 -628 -868 -932 -428 -2444 -3212 -3088 -3096 -1112 0
-1112 -1140 -1380 -1828 -812 -908 -2700 -2192 -2200 -2136 0
-1112 -1140 -3172 -3364 -2348 -2828 -908 -656 -664 -216 0
-2136 -2164 -2276 -2468 -428 -1420 -1804 -1552 -1560 -600 0
-2136 -2164 -2276 -2724 -684 -908 -1804 -1296 -1304 -1112 0
-2136 -2164 -2276 -2724 -684 -1676 -1804 -1296 -1304 -344 0
-2136 -2164 -2404 -2852 -812 -908 -1676 -1168 -1176 -1112 0
-2136 -2164 -2660 -2852 -812 -908 -1420 -1168 -1176 -1112 0
-2136 -2164 -3172 -3364 -1324 -1804 -908 -656 -664 -216 0
-216 -244 -484 -1380 -1324 -3340 -3596 -2576 -2584 -664 0
-216 -244 -740 -868 -812 -2828 -3340 -3088 -3096 -1176 0
-216 -244 -740 -2660 -2604 -2828 -3340 -1296 -1304 -1176 0
-216 -244 -2276 -2404 -2348 -3340 -1804 -1552 -1560 -664 0
-216 -244 -2276 -2660 -2604 -2828 -1804 -1296 -1304 -1176 0
-216 -244 -2276 -3172 -3116 -3340 -1804 -784 -792 -664 0
-408 -436 -484 -1380 -1132 -3148 -3596 -2576 -2584 -664 0
-664 -692 -740 -868 -364 -1356 -3340 -3088 -3096 -2200 0
-664 -692 -932 -1828 -1324 -3340 -3148 -2128 -2136 -216 0
-664 -692 -1700 -1828 -1324 -1356 -2380 -2128 -2136 -2200 0
-1176 -1204 -1252 -1380 -364 -2380 -2828 -2576 -2584 -664 0
-1176 -1204 -1700 -1636 -620 -844 -2380 -2320 -2328 -2200 0
-1176 -1204 -1700 -1636 -620 -2636 -2380 -2320 -2328 -408 0
-1176 -1204 -1700 -3620 -2604 -2828 -2380 -336 -344 -216 0
-2200 -2228 -2468 -2404 -364 -1356 -1612 -1552 -1560 -664 0
-344 -372 -484 -740 -684 -2700 -3596 -3088 -3096 -1304 0
-344 -372 -484 -1252 -1196 -1676 -3596 -2576 -2584 -2328 0
-344 -372 -868 -2660 -2604 -3596 -3212 -1168 -1176 -408 0
-344 -372 -2404 -2276 -2220 -3212 -1676 -1552 -1560 -792 0
-344 -372 -2404 -2660 -2604 -2700 -1676 -1168 -1176 -1304 0
-408 -436 -484 -740 -620 -1612 -3596 -3088 -3096 -2328 0
-408 -436 -932 -740 -620 -2636 -3148 -3088 -3096 -1304 0
-408 -436 -932 -1700 -1580 -1612 -3148 -2128 -2136 -2328 0
-408 -436 -1444 -1700 -1580 -1612 -2636 -2128 -2136 -2328 0
-1304 -1332 -3364 -3236 -2220 -2700 -716 -592 -600 -344 0
-2328 -2356 -2404 -2660 -620 -716 -1676 -1168 -1176 -1304 0
-2328 -2356 -2404 -3172 -1132 -1228 -1676 -656 -664 -792 0
-2328 -2356 -2852 -2660 -620 -716 -1228 -1168 -1176 -1304 0
-600 -628 -740 -484 -428 -2444 -3340 -3088 -3096 -1560 0
-600 -628 -1636 -1380 -1324 -1420 -2444 -2192 -2200 -2584 0
-600 -628 -2660 -2404 -2348 -3340 -1420 -1168 -1176 -664 0
-600 -628 -2660 -3172 -3116 -3212 -1420 -400 -408 -792 0
-664 -692 -740 -484 -364 -2380 -3340 -3088 -3096 -1560 0
-664 -692 -932 -484 -364 -2380 -3148 -3088 -3096 -1560 0
-664 -692 -932 -2468 -2348 -2380 -3148 -1104 -1112 -1560 0
-664 -692 -1700 -3236 -3116 -3148 -2380 -336 -344 -792 0
-664 -692 -1700 -3236 -3116 -3340 -2380 -336 -344 -600 0
-664 -692 -2724 -2468 -2348 -2380 -1356 -1104 -1112 -1560 0
-664 -692 -2724 -2468 -2348 -3340 -1356 -1104 -1112 -600 0
-792 -820 -868 -2404 -2156 -2252 -3212 -1168 -1176 -1560 0
-792 -820 -2852 -3364 -3116 -3212 -1228 -208 -216 -600 0
-1560 -1588 -1700 -3236 -2220 -2252 -2380 -336 -344 -792 0
-2584 -2612 -2724 -3236 -1196 -1420 -1356 -336 -344 -600 0
-2584 -2612 -3620 -3236 -1196 -1420 -460 -336 -344 -600 0
-1112 -1140 -1636 -868 -812 -2828 -2444 -2192 -2200 -1176 0
-1112 -1140 -1636 -2660 -2604 -2828 -2444 -400 -408 -1176 0
-1176 -1204 -1252 -2276 -2156 -2380 -2828 -784 -792 -1560 0
-1176 -1204 -1700 -932 -812 -844 -2380 -2128 -2136 -3096 0
-1560 -1588 -1636 -740 -236 -2252 -2444 -2320 -2328 -1304 0
-3096 -3124 -3172 -2660 -620 -844 -908 -400 -408 -1176 0
-3096 -3124 -3236 -2276 -236 -460 -844 -784 -792 -1560 0
-3096 -3124 -3620 -2660 -620 -716 -460 -400 -408 -1304 0
-2136 -2164 -2276 -740 -684 -908 -1804 -1296 -1304 -3096 0
-2136 -2164 -2404 -484 -428 -1420 -1676 -1552 -1560 -2584 0
-2136 -2164 -2404 -1380 -1324 -1804 -1676 -656 -664 -2200 0
-2136 -2164 -2660 -868 -812 -1804 -1420 -1168 -1176 -2200 0
-2136 -2164 -2660 -1636 -1580 -1676 -1420 -400 -408 -2328 0
-2136 -2164 -3172 -1380 -1324 -1804 -908 -656 -664 -2200 0
-2136 -2164 -3172 -1636 -1580 -1804 -908 -400 -408 -2200 0
-2200 -2228 -2276 -740 -620 -1612 -1804 -1296 -1304 -2328 0
-2200 -2228 -2276 -1252 -1132 -1612 -1804 -784 -792 -2328 0
-2328 -2356 -3364 -1828 -1580 -1612 -716 -208 -216 -2200 0
-2584 -2612 -2660 -1636 -1132 -1356 -1420 -400 -408 -2200 0
-2584 -2612 -2724 -740 -236 -1228 -1356 -1296 -1304 -2328 0
-2584 -2612 -2724 -1700 -1196 -1228 -1356 -336 -344 -2328 0
-2584 -2612 -3620 -1700 -1196 -1420 -460 -336 -344 -2136 0
-2584 -2612 -3620 -1828 -1324 -1356 -460 -208 -216 -2200 0
-3096 -3124 -3364 -1828 -812 -908 -716 -208 -216 -2136 0
-232 -236 -460 -908 -796 -1812 -3604 -3096 -3112 -2152 0
-232 -236 -1228 -1676 -1564 -3604 -2836 -2328 -2344 -360 0
-232 -236 -2252 -3212 -3100 -3604 -1812 -792 -808 -360 0
-360 -364 -460 -908 -668 -2708 -3604 -3096 -3112 -1128 0
-360 -364 -460 -1420 -1180 -3220 -3604 -2584 -2600 -616 0
-360 -364 -1356 -3340 -3100 -3604 -2708 -664 -680 -232 0
-1128 -1132 -1228 -1420 -412 -916 -2836 -2584 -2600 -2152 0
-1128 -1132 -1356 -1804 -796 -2836 -2708 -2200 -2216 -232 0
-2152 -2156 -2252 -2700 -668 -916 -1812 -1304 -1320 -1128 0
-2152 -2156 -2636 -2700 -668 -916 -1428 -1304 -1320 -1128 0
-2152 -2156 -3148 -3596 -1564 -1684 -916 -408 -424 -360 0
-232 -236 -460 -1356 -1308 -1812 -3604 -2584 -2600 -2216 0
-424 -428 -460 -1356 -1116 -1620 -3604 -2584 -2600 -2216 0
-680 -684 -908 -1804 -1308 -1364 -3156 -2136 -2152 -2216 0
-680 -684 -1676 -1804 -1308 -1364 -2388 -2136 -2152 -2216 0
-2216 -2220 -3212 -3596 -1564 -1812 -852 -344 -360 -232 0
-360 -364 -2380 -2252 -2204 -2708 -1684 -1560 -1576 -1320 0
-1320 -1324 -3340 -3148 -2140 -2260 -724 -664 -680 -808 0
-616 -620 -716 -460 -412 -1428 -3348 -3096 -3112 -2600 0
-680 -684 -716 -460 -348 -1364 -3348 -3096 -3112 -2600 0
-680 -684 -2700 -2444 -2332 -3348 -1364 -1112 -1128 -616 0
-808 -812 -1804 -1356 -1116 -3156 -2260 -2200 -2216 -680 0
-1576 -1580 -1676 -1228 -220 -468 -2388 -2328 -2344 -2600 0
-1576 -1580 -3596 -3212 -2204 -2452 -468 -344 -360 -616 0
-1576 -1580 -3596 -3340 -2332 -2452 -468 -216 -232 -616 0
-2600 -2604 -2636 -2252 -220 -468 -1428 -1304 -1320 -1576 0
-2600 -2604 -2828 -2444 -412 -468 -1236 -1112 -1128 -1576 0
-1128 -1132 -1612 -716 -668 -2708 -2452 -2328 -2344 -1320 0
-1320 -1324 -1420 -460 -220 -2260 -2644 -2584 -2600 -1576 0
-1320 -1324 -1420 -908 -668 -2708 -2644 -2136 -2152 -1128 0
-1320 -1324 -1804 -844 -604 -2644 -2260 -2200 -2216 -1192 0
-1576 -1580 -1612 -2636 -2140 -2388 -2452 -408 -424 -1192 0
-3112 -3116 -3212 -2444 -412 -916 -852 -600 -616 -1128 0
-2216 -2220 -3212 -1420 -1308 -1364 -852 -600 -616 -2600 0
-2600 -2604 -2828 -908 -412 -468 -1236 -1112 -1128 -3112 0
-3112 -3116 -3340 -1804 -796 -916 -724 -216 -232 -2152 0
-232 -244 -468 -1428 -1308 -3340 -3596 -2576 -2600 -616 0
-360 -372 -852 -1812 -1564 -1676 -3212 -2192 -2216 -2152 0
-360 -372 -2388 -2836 -2588 -3596 -1676 -1168 -1192 -232 0
-360 -372 -2388 -3348 -3100 -3212 -1676 -656 -680 -616 0
-616 -628 -852 -2836 -2332 -2444 -3212 -1168 -1192 -1128 0
-616 -628 -1620 -3604 -3100 -3340 -2444 -400 -424 -232 0
-2152 -2164 -2388 -2836 -796 -908 -1676 -1168 -1192 -1128 0
-2152 -2164 -2388 -3348 -1308 -1804 -1676 -656 -680 -232 0
-2152 -2164 -2644 -3604 -1564 -1804 -1420 -400 -424 -232 0
-2152 -2164 -3156 -3348 -1308 -1420 -908 -656 -680 -616 0
-232 -244 -468 -1364 -1308 -3340 -3596 -2576 -2600 -680 0
-232 -244 -1236 -1364 -1308 -3340 -2828 -2576 -2600 -680 0
-424 -436 -468 -1364 -1116 -3148 -3596 -2576 -2600 -680 0
-424 -436 -916 -852 -604 -1612 -3148 -3088 -3112 -2216 0
-680 -692 -1684 -1620 -1116 -3148 -2380 -2320 -2344 -424 0
-360 -372 -468 -724 -668 -1676 -3596 -3088 -3112 -2344 0
-360 -372 -852 -2644 -2588 -3596 -3212 -1168 -1192 -424 0
-424 -436 -1428 -1236 -1116 -3148 -2636 -2576 -2600 -808 0
-808 -820 -852 -1620 -1116 -1228 -3212 -2192 -2216 -2344 0
-808 -820 -852 -2644 -2140 -2252 -3212 -1168 -1192 -1320 0
-808 -820 -2836 -3604 -3100 -3148 -1228 -208 -232 -424 0
-1320 -1332 -1428 -3220 -2204 -2252 -2636 -592 -616 -808 0
-1320 -1332 -1812 -1620 -604 -2636 -2252 -2192 -2216 -424 0
-1320 -1332 -1812 -1684 -668 -716 -2252 -2128 -2152 -2344 0
-1320 -1332 -1812 -1684 -668 -2700 -2252 -2128 -2152 -360 0
-1320 -1332 -3348 -3604 -2588 -2700 -716 -208 -232 -360 0
-2344 -2356 -2452 -2708 -668 -1676 -1612 -1104 -1128 -360 0
-616 -628 -724 -1236 -1180 -1420 -3340 -2320 -2344 -2600 0
-616 -628 -852 -1364 -1308 -3340 -3212 -2192 -2216 -680 0
-680 -692 -2708 -2260 -2140 -3148 -1356 -1296 -1320 -808 0
-680 -692 -2708 -3220 -3100 -3340 -1356 -336 -360 -616 0
-808 -820 -852 -2388 -2140 -2252 -3212 -1168 -1192 -1576 0
-808 -820 -1812 -1364 -1116 -1228 -2252 -2192 -2216 -2600 0
-808 -820 -2836 -2388 -2140 -2252 -1228 -1168 -1192 -1576 0
-1576 -1588 -1812 -1364 -348 -460 -2252 -2192 -2216 -2600 0
-2600 -2612 -2836 -2388 -348 -460 -1228 -1168 -1192 -1576 0
-2600 -2612 -2836 -2452 -412 -460 -1228 -1104 -1128 -1576 0
-2600 -2612 -2836 -3348 -1308 -1356 -1228 -208 -232 -680 0
-1128 -1140 -1364 -852 -796 -908 -2700 -2192 -2216 -3112 0
-1192 -1204 -1236 -468 -348 -2380 -2828 -2576 -2600 -1576 0
-1320 -1332 -1428 -468 -220 -716 -2636 -2576 -2600 -3112 0
-1320 -1332 -1428 -468 -220 -2252 -2636 -2576 -2600 -1576 0
-1320 -1332 -1428 -2452 -2204 -2252 -2636 -592 -616 -1576 0
-1320 -1332 -1812 -916 -668 -716 -2252 -2128 -2152 -3112 0
-1320 -1332 -1812 -916 -668 -2700 -2252 -2128 -2152 -1128 0
-1320 -1332 -3348 -2836 -2588 -2700 -716 -208 -232 -1128 0
-1576 -1588 -3604 -2708 -2204 -2252 -460 -336 -360 -1320 0
-3112 -3124 -3348 -2836 -796 -844 -716 -208 -232 -1192 0
-3112 -3124 -3348 -2836 -796 -908 -716 -208 -232 -1128 0
-2152 -2164 -2260 -468 -412 -908 -1804 -1552 -1576 -3112 0
-2152 -2164 -2260 -724 -668 -1676 -1804 -1296 -1320 -2344 0
-2152 -2164 -2388 -852 -796 -1804 -1676 -1168 -1192 -2216 0
-2216 -2228 -3220 -1428 -1308 -1356 -844 -592 -616 -2600 0
-2344 -2356 -2388 -468 -220 -716 -1676 -1552 -1576 -3112 0
-2344 -2356 -2452 -468 -220 -716 -1612 -1552 -1576 -3112 0
-2344 -2356 -2836 -852 -604 -716 -1228 -1168 -1192 -3112 0
-2344 -2356 -2836 -916 -668 -716 -1228 -1104 -1128 -3112 0
-3112 -3124 -3348 -1364 -348 -460 -716 -656 -680 -2600 0
-3112 -3124 -3348 -1428 -412 -460 -716 -592 -616 -2600 0
-336 -2380 -2388 -3348 -3124 -1204 -1700 -680 -656 -592 0
-1104 -3148 -3156 -3348 -2356 -436 -932 -680 -656 -592 0
-1168 -1676 -1684 -1620 -628 -2164 -2404 -2344 -2320 -400 0
-1168 -1676 -1684 -1812 -820 -372 -2404 -2152 -2128 -2192 0
-2192 -3212 -3220 -3156 -1140 -628 -868 -808 -784 -400 0
-400 -908 -916 -2708 -2612 -3124 -3172 -1128 -1104 -336 0
-1296 -1356 -1364 -1620 -628 -2612 -2724 -2216 -2192 -400 0
-1552 -1804 -1812 -1364 -372 -244 -2276 -2216 -2192 -2576 0
-1552 -1804 -1812 -1364 -372 -2164 -2276 -2216 -2192 -656 0
-1104 -1356 -1364 -852 -820 -692 -2724 -2216 -2192 -3088 0
-1552 -1676 -1684 -724 -244 -372 -2404 -2344 -2320 -3088 0
-3088 -3340 -3348 -1364 -372 -244 -740 -680 -656 -2576 0
-208 -1228 -1252 -1636 -1588 -2612 -2836 -2328 -2320 -400 0
-400 -908 -932 -1828 -1588 -1140 -3156 -2136 -2128 -2192 0
-656 -1676 -1700 -1828 -1332 -2356 -2388 -2136 -2128 -208 0
-336 -2380 -2404 -2276 -2228 -1204 -1684 -1560 -1552 -784 0
-784 -2828 -2852 -2660 -2164 -1140 -1236 -1176 -1168 -400 0
-784 -1804 -1828 -1380 -1140 -2164 -2260 -2200 -2192 -656 0
-1552 -1804 -1828 -932 -436 -2228 -2260 -2136 -2128 -1104 0
-2128 -2380 -2404 -868 -820 -692 -1684 -1176 -1168 -3088 0
-2192 -2444 -2468 -1444 -1332 -1588 -1620 -600 -592 -2128 0
-2576 -2636 -2660 -868 -372 -1332 -1428 -1176 -1168 -2192 0
-344 -1364 -1356 -1804 -1580 -2604 -2724 -2216 -2200 -216 0
-664 -1684 -1676 -3596 -3116 -2156 -2404 -360 -344 -408 0
-1176 -1236 -1228 -3148 -2156 -2604 -2852 -808 -792 -408 0
-344 -2388 -2380 -3148 -3116 -1580 -1700 -680 -664 -408 0
-2328 -2836 -2828 -2636 -620 -236 -1252 -1192 -1176 -1304 0
-1560 -1812 -1804 -3340 -2348 -2220 -2276 -232 -216 -600 0
-1304 -1812 -1804 -2828 -2604 -2156 -2276 -232 -216 -1176 0
-2200 -3220 -3212 -1228 -1132 -364 -868 -808 -792 -2584 0
-2200 -3220 -3212 -1420 -1324 -364 -868 -616 -600 -2584 0
-2328 -2388 -2380 -844 -620 -684 -1700 -1192 -1176 -3096 0
-216 -724 -740 -1700 -1580 -3116 -3340 -2320 -2328 -344 0
-600 -724 -740 -1700 -1196 -3116 -3340 -2320 -2328 -344 0
-408 -468 -484 -2404 -2156 -2604 -3596 -1552 -1560 -1176 0
-408 -468 -484 -740 -620 -1580 -3596 -3088 -3096 -2328 0
-1176 -3220 -3236 -2724 -2604 -620 -844 -336 -344 -1304 0
-3096 -3156 -3172 -2276 -236 -428 -908 -784 -792 -1560 0
-3096 -3156 -3172 -2660 -620 -812 -908 -400 -408 -1176 0
-2136 -2260 -2276 -484 -428 -1324 -1804 -1552 -1560 -2584 0
-2584 -2644 -2660 -868 -364 -428 -1420 -1168 -1176 -3096 0
-2584 -2644 -2660 -868 -364 -1324 -1420 -1168 -1176 -2200 0
-232 -2276 -2252 -2444 -2332 -1308 -1812 -1560 -1576 -616 0
-360 -1380 -1356 -1804 -1564 -668 -2708 -2200 -2216 -2152 0
-2152 -2276 -2252 -2700 -668 -1564 -1812 -1304 -1320 -360 0
-2344 -2468 -2444 -2252 -220 -604 -1620 -1560 -1576 -1320 0
-3112 -3620 -3596 -2700 -668 -220 -468 -344 -360 -1320 0
-2216 -2276 -2252 -716 -604 -796 -1812 -1304 -1320 -3112 0
-2344 -3364 -3340 -1804 -1564 -668 -724 -216 -232 -2152 0
-360 -484 -468 -1428 -1180 -3100 -3596 -2576 -2600 -616 0
-616 -868 -852 -916 -412 -1180 -3212 -3088 -3112 -2152 0
-2152 -2660 -2644 -2708 -668 -1180 -1420 -1296 -1320 -360 0
-2152 -2660 -2644 -2836 -796 -412 -1420 -1168 -1192 -1128 0
-424 -484 -468 -1364 -1116 -1564 -3596 -2576 -2600 -2216 0
-424 -2468 -2452 -3220 -3100 -1564 -1612 -592 -616 -360 0
-808 -1828 -1812 -3604 -3100 -2204 -2252 -208 -232 -360 0
-2600 -2724 -2708 -3220 -1180 -1116 -1356 -336 -360 -808 0
-2600 -2852 -2836 -2388 -348 -1116 -1228 -1168 -1192 -680 0
-1576 -1828 -1812 -916 -412 -2204 -2252 -2128 -2152 -1128 0
-3112 -3172 -3156 -2388 -348 -412 -908 -656 -680 -1576 0
-2152 -2276 -2260 -724 -668 -1564 -1804 -1296 -1320 -2344 0
-2344 -2468 -2452 -1428 -1180 -1116 -1612 -592 -616 -2600 0
-208 -716 -964 -916 -820 -2356 -3124 -3112 -3088 -1104 0
-208 -1228 -1476 -1428 -1332 -2356 -2612 -2600 -2576 -592 0
-336 -460 -1476 -1428 -1204 -3124 -2612 -2600 -2576 -592 0
-336 -1356 -1476 -1428 -1204 -692 -2612 -2600 -2576 -2128 0
-336 -1356 -1860 -1812 -1588 -2612 -2228 -2216 -2192 -208 0
-336 -2380 -2884 -2836 -2612 -692 -1204 -1192 -1168 -1104 0
-592 -716 -964 -916 -436 -2356 -3124 -3112 -3088 -1104 0
-592 -1612 -1860 -1812 -1332 -2356 -2228 -2216 -2192 -208 0
-1104 -1228 -1732 -1684 -692 -820 -2356 -2344 -2320 -2128 0
-1104 -1612 -1860 -1812 -820 -2356 -2228 -2216 -2192 -208 0
-1104 -3148 -3396 -3348 -2356 -436 -692 -680 -656 -592 0
-2128 -2380 -2884 -2836 -820 -1588 -1204 -1192 -1168 -208 0
-208 -460 -1476 -1364 -1332 -3124 -2612 -2600 -2576 -656 0
-208 -716 -964 -852 -820 -1332 -3124 -3112 -3088 -2192 0
-208 -716 -964 -852 -820 -2356 -3124 -3112 -3088 -1168 0
-208 -2252 -3268 -3156 -3124 -1588 -820 -808 -784 -400 0
-400 -908 -964 -852 -628 -2164 -3124 -3112 -3088 -1168 0
-400 -908 -1924 -1812 -1588 -3124 -2164 -2152 -2128 -208 0
-400 -1420 -1924 -1812 -1588 -628 -2164 -2152 -2128 -2192 0
-656 -716 -964 -852 -372 -1332 -3124 -3112 -3088 -2192 0
-656 -716 -964 -852 -372 -2356 -3124 -3112 -3088 -1168 0
-656 -908 -2948 -2836 -2356 -3124 -1140 -1128 -1104 -208 0
-656 -1676 -1732 -1620 -1140 -2164 -2356 -2344 -2320 -400 0
-1168 -1676 -1924 -1812 -820 -2356 -2164 -2152 -2128 -208 0
-2192 -2444 -3460 -3348 -1332 -1588 -628 -616 -592 -208 0
-2192 -2700 -2756 -2644 -628 -1140 -1332 -1320 -1296 -400 0
-2192 -2700 -2948 -2836 -820 -372 -1140 -1128 -1104 -1168 0
-2192 -2700 -2948 -2836 -820 -1332 -1140 -1128 -1104 -208 0
-784 -908 -2948 -2708 -2228 -3124 -1140 -1128 -1104 -336 0
-784 -1804 -1924 -1684 -1204 -2228 -2164 -2152 -2128 -336 0
-784 -2828 -2948 -2708 -2228 -244 -1140 -1128 -1104 -1296 0
-1296 -3340 -3844 -3604 -2612 -692 -244 -232 -208 -336 0
-2320 -2380 -2500 -2260 -244 -1204 -1588 -1576 -1552 -784 0
-2320 -3340 -3396 -3156 -1140 -628 -692 -680 -656 -400 0
-592 -716 -964 -468 -436 -2356 -3124 -3112 -3088 -1552 0
-656 -908 -1924 -1428 -1332 -1140 -2164 -2152 -2128 -2576 0
-784 -908 -964 -468 -244 -1140 -3124 -3112 -3088 -2576 0
-784 -2828 -3844 -3348 -3124 -1204 -244 -232 -208 -592 0
-1552 -1612 -3652 -3156 -2164 -2356 -436 -424 -400 -656 0
-1552 -1804 -3844 -3348 -2356 -2164 -244 -232 -208 -656 0
-1552 -1804 -3844 -3348 -2356 -2228 -244 -232 -208 -592 0
-2576 -2828 -3844 -3348 -1332 -1204 -244 -232 -208 -592 0
-2576 -3596 -3652 -3156 -1140 -244 -436 -424 -400 -784 0
-1104 -1612 -1860 -852 -820 -436 -2228 -2216 -2192 -3088 0
-1168 -1228 -1476 -468 -372 -2356 -2612 -2600 -2576 -1552 0
-1296 -1356 -1476 -468 -244 -692 -2612 -2600 -2576 -3088 0
-1296 -1420 -1476 -468 -244 -2164 -2612 -2600 -2576 -1552 0
-1296 -3340 -3396 -2388 -2164 -628 -692 -680 -656 -1168 0
-1552 -1804 -1924 -916 -436 -244 -2164 -2152 -2128 -3088 0
-1552 -1804 -3844 -2836 -2356 -2228 -244 -232 -208 -1104 0
-3088 -3212 -3268 -2260 -244 -372 -820 -808 -784 -1552 0
-3088 -3596 -3652 -2644 -628 -244 -436 -424 -400 -1296 0
-2320 -2380 -2500 -468 -244 -1204 -1588 -1576 -1552 -2576 0
-2320 -2444 -2500 -468 -244 -628 -1588 -1576 -1552 -3088 0
-2320 -3340 -3844 -1812 -1588 -628 -244 -232 -208 -2192 0
-2576 -2700 -2948 -916 -436 -372 -1140 -1128 -1104 -3088 0
-2576 -3596 -3844 -1812 -1332 -372 -244 -232 -208 -2192 0
-3088 -3148 -3396 -1364 -372 -820 -692 -680 -656 -2192 0
-208 -2252 -3268 -3236 -3124 -1332 -820 -792 -784 -592 0
-336 -2380 -2884 -2852 -2612 -692 -1204 -1176 -1168 -1104 0
-592 -716 -1732 -1700 -1204 -3124 -2356 -2328 -2320 -336 0
-592 -716 -2756 -2724 -2228 -2356 -1332 -1304 -1296 -1104 0
-592 -844 -1860 -1828 -1332 -1204 -2228 -2200 -2192 -2128 0
-592 -1612 -1732 -1700 -1204 -2228 -2356 -2328 -2320 -336 0
-208 -460 -2500 -2404 -2356 -3124 -1588 -1560 -1552 -656 0
-208 -716 -964 -868 -820 -2356 -3124 -3096 -3088 -1168 0
-208 -2252 -2500 -2404 -2356 -1332 -1588 -1560 -1552 -656 0
-400 -460 -2500 -2404 -2164 -2612 -1588 -1560 -1552 -1168 0
-400 -908 -1924 -1828 -1588 -3124 -2164 -2136 -2128 -208 0
-400 -1420 -1924 -1828 -1588 -628 -2164 -2136 -2128 -2192 0
-656 -1676 -1732 -1636 -1140 -372 -2356 -2328 -2320 -2192 0
-656 -1676 -1732 -1636 -1140 -2164 -2356 -2328 -2320 -400 0
-656 -1676 -1924 -1828 -1332 -2356 -2164 -2136 -2128 -208 0
-656 -2700 -3716 -3620 -3124 -1140 -372 -344 -336 -400 0
-1168 -1676 -1924 -1828 -820 -372 -2164 -2136 -2128 -2192 0
-1168 -1676 -1924 -1828 -820 -2356 -2164 -2136 -2128 -208 0
-336 -460 -964 -740 -692 -1588 -3124 -3096 -3088 -2320 0
-336 -460 -964 -740 -692 -2612 -3124 -3096 -3088 -1296 0
-336 -460 -2500 -2276 -2228 -3124 -1588 -1560 -1552 -784 0
-336 -1356 -1860 -1636 -1588 -692 -2228 -2200 -2192 -2320 0
-336 -2380 -3396 -3172 -3124 -1588 -692 -664 -656 -400 0
-400 -908 -2948 -2724 -2612 -2164 -1140 -1112 -1104 -1296 0
-400 -2444 -2500 -2276 -2164 -1140 -1588 -1560 -1552 -784 0
-784 -908 -964 -740 -244 -1140 -3124 -3096 -3088 -2320 0
-784 -1804 -1860 -1636 -1140 -244 -2228 -2200 -2192 -2320 0
-784 -1804 -1924 -1700 -1204 -2228 -2164 -2136 -2128 -336 0
-784 -1804 -3844 -3620 -3124 -2164 -244 -216 -208 -400 0
-784 -2828 -2884 -2660 -2164 -244 -1204 -1176 -1168 -1296 0
-1296 -1420 -1476 -1252 -244 -628 -2612 -2584 -2576 -2320 0
-1296 -1804 -1860 -1636 -628 -244 -2228 -2200 -2192 -2320 0
-1296 -3340 -3396 -3172 -2164 -628 -692 -664 -656 -400 0
-1296 -3340 -3460 -3236 -2228 -244 -628 -600 -592 -784 0
-1296 -3340 -3844 -3620 -2612 -628 -244 -216 -208 -400 0
-2320 -2444 -2500 -2276 -244 -1140 -1588 -1560 -1552 -784 0
-2320 -2828 -2948 -2724 -692 -1204 -1140 -1112 -1104 -336 0
-592 -716 -964 -484 -436 -1332 -3124 -3096 -3088 -2576 0
-592 -716 -1732 -1252 -1204 -1332 -2356 -2328 -2320 -2576 0
-592 -1612 -1860 -1380 -1332 -436 -2228 -2200 -2192 -2576 0
-592 -1612 -3652 -3172 -3124 -2228 -436 -408 -400 -784 0
-592 -2636 -2756 -2276 -2228 -1204 -1332 -1304 -1296 -784 0
-592 -2636 -2884 -2404 -2356 -1332 -1204 -1176 -1168 -656 0
-656 -716 -1732 -1252 -1140 -1332 -2356 -2328 -2320 -2576 0
-784 -908 -2948 -2468 -2228 -3124 -1140 -1112 -1104 -592 0
-784 -1804 -3844 -3364 -3124 -2228 -244 -216 -208 -592 0
-784 -2828 -3844 -3364 -3124 -1140 -244 -216 -208 -656 0
-2576 -2700 -2756 -2276 -244 -372 -1332 -1304 -1296 -1552 0
-2576 -3596 -3716 -3236 -1204 -436 -372 -344 -336 -592 0
-1104 -1228 -3268 -2276 -2228 -2612 -820 -792 -784 -1296 0
-1104 -1356 -1860 -868 -820 -692 -2228 -2200 -2192 -3088 0
-1104 -1356 -3396 -2404 -2356 -2612 -692 -664 -656 -1168 0
-1104 -1612 -1732 -740 -692 -436 -2356 -2328 -2320 -3088 0
-1104 -1612 -1860 -868 -820 -2356 -2228 -2200 -2192 -1168 0
-1168 -1228 -1732 -740 -628 -820 -2356 -2328 -2320 -3088 0
-1168 -1420 -1476 -484 -372 -628 -2612 -2584 -2576 -3088 0
-1168 -1676 -1732 -740 -628 -2164 -2356 -2328 -2320 -1296 0
-1168 -1676 -3716 -2724 -2612 -2356 -372 -344 -336 -1104 0
-1296 -1420 -1476 -484 -244 -2164 -2612 -2584 -2576 -1552 0
-3088 -3212 -3268 -2276 -244 -372 -820 -792 -784 -1552 0
-3088 -3212 -3716 -2724 -692 -628 -372 -344 -336 -1296 0
-3088 -3340 -3844 -2852 -820 -628 -244 -216 -208 -1168 0
-2128 -2252 -2756 -740 -692 -820 -1332 -1304 -1296 -3088 0
-2128 -2252 -3268 -1252 -1204 -1332 -820 -792 -784 -2576 0
-2128 -2636 -2884 -868 -820 -1332 -1204 -1176 -1168 -2192 0
-2128 -3148 -3396 -1380 -1332 -820 -692 -664 -656 -2192 0
-2128 -3148 -3652 -1636 -1588 -692 -436 -408 -400 -2320 0
-2320 -2444 -3460 -1444 -1204 -1140 -628 -600 -592 -2576 0
-2320 -2828 -3844 -1828 -1588 -1204 -244 -216 -208 -2128 0
-2576 -2828 -2884 -868 -372 -244 -1204 -1176 -1168 -3088 0
-2576 -3596 -3716 -1700 -1204 -436 -372 -344 -336 -2128 0
-3088 -3148 -3396 -1380 -372 -436 -692 -664 -656 -2576 0
-3088 -3212 -3716 -1700 -692 -628 -372 -344 -336 -2320 0
-216 -2260 -3268 -3212 -3116 -1324 -812 -808 -792 -600 0
-344 -852 -964 -908 -684 -2220 -3116 -3112 -3096 -1112 0
-344 -1364 -1860 -1804 -1580 -684 -2220 -2216 -2200 -2136 0
-344 -1364 -1860 -1804 -1580 -2604 -2220 -2216 -2200 -216 0
-600 -724 -1732 -1676 -1196 -1324 -2348 -2344 -2328 -2136 0
-2136 -2388 -3396 -3340 -1324 -1196 -684 -680 -664 -600 0
-2136 -3156 -3268 -3212 -1196 -684 -812 -808 -792 -344 0
-2136 -3156 -3396 -3340 -1324 -428 -684 -680 -664 -600 0
-216 -468 -2500 -2380 -2348 -3116 -1580 -1576 -1560 -664 0
-408 -916 -1924 -1804 -1580 -1132 -2156 -2152 -2136 -2200 0
-408 -916 -1924 -1804 -1580 -3116 -2156 -2152 -2136 -216 0
-664 -916 -2948 -2828 -2348 -2156 -1132 -1128 -1112 -1176 0
-664 -2708 -3716 -3596 -3116 -1132 -364 -360 -344 -408 0
-1176 -1428 -1924 -1804 -812 -620 -2156 -2152 -2136 -2200 0
-1176 -3220 -3716 -3596 -2604 -620 -364 -360 -344 -408 0
-2200 -2260 -3268 -3148 -1132 -1324 -812 -808 -792 -664 0
-2200 -2708 -3716 -3596 -1580 -1132 -364 -360 -344 -408 0
-408 -468 -2500 -2252 -2156 -2604 -1580 -1576 -1560 -1304 0
-408 -468 -2500 -2252 -2156 -3116 -1580 -1576 -1560 -792 0
-792 -852 -2884 -2636 -2156 -3116 -1196 -1192 -1176 -408 0
-792 -1812 -1924 -1676 -1196 -2220 -2156 -2152 -2136 -344 0
-1304 -1812 -1924 -1676 -684 -236 -2156 -2152 -2136 -2328 0
-1304 -1812 -1924 -1676 -684 -2220 -2156 -2152 -2136 -344 0
-2328 -2388 -2884 -2636 -620 -1580 -1196 -1192 -1176 -408 0
-2328 -2388 -3396 -3148 -1132 -1580 -684 -680 -664 -408 0
-2328 -2452 -3460 -3212 -1196 -1132 -620 -616 -600 -792 0
-664 -724 -964 -460 -364 -2348 -3116 -3112 -3096 -1560 0
-664 -916 -1924 -1420 -1324 -3116 -2156 -2152 -2136 -600 0
-664 -1684 -1732 -1228 -1132 -364 -2348 -2344 -2328 -2584 0
-664 -2708 -2948 -2444 -2348 -1324 -1132 -1128 -1112 -600 0
-792 -852 -964 -460 -236 -1196 -3116 -3112 -3096 -2584 0
-792 -916 -964 -460 -236 -2156 -3116 -3112 -3096 -1560 0
-792 -1812 -1860 -1356 -1132 -2156 -2220 -2216 -2200 -664 0
-792 -1812 -1924 -1420 -1196 -236 -2156 -2152 -2136 -2584 0
-792 -1812 -1924 -1420 -1196 -2220 -2156 -2152 -2136 -600 0
-1560 -1684 -1924 -1420 -428 -2348 -2156 -2152 -2136 -600 0
-1560 -1812 -1924 -1420 -428 -236 -2156 -2152 -2136 -2584 0
-1112 -1364 -1476 -460 -428 -684 -2604 -2600 -2584 -3096 0
-1112 -3156 -3268 -2252 -2220 -684 -812 -808 -792 -1304 0
-1176 -1428 -1476 -460 -364 -620 -2604 -2600 -2584 -3096 0
-1176 -1428 -1924 -908 -812 -2604 -2156 -2152 -2136 -1112 0
-1304 -1812 -1924 -908 -684 -2220 -2156 -2152 -2136 -1112 0
-1560 -1812 -1924 -908 -428 -2220 -2156 -2152 -2136 -1112 0
-3096 -3220 -3716 -2700 -684 -812 -364 -360 -344 -1112 0
-3096 -3604 -3844 -2828 -812 -428 -236 -232 -216 -1112 0
-2136 -2388 -2500 -460 -428 -1196 -1580 -1576 -1560 -2584 0
-2200 -2260 -2500 -460 -364 -1324 -1580 -1576 -1560 -2584 0
-2328 -2836 -2948 -908 -684 -236 -1132 -1128 -1112 -3096 0
-2584 -2708 -2948 -908 -428 -1324 -1132 -1128 -1112 -2136 0
-3096 -3220 -3268 -1228 -236 -364 -812 -808 -792 -2584 0
-216 -468 -2500 -2468 -2348 -2604 -1580 -1552 -1560 -1112 0
-216 -724 -964 -932 -812 -1324 -3116 -3088 -3096 -2136 0
-216 -724 -964 -932 -812 -2348 -3116 -3088 -3096 -1112 0
-344 -468 -964 -932 -684 -1580 -3116 -3088 -3096 -2136 0
-344 -852 -964 -932 -684 -1196 -3116 -3088 -3096 -2136 0
-344 -852 -1860 -1828 -1580 -1196 -2220 -2192 -2200 -2136 0
-344 -1364 -1860 -1828 -1580 -684 -2220 -2192 -2200 -2136 0
-344 -1364 -1860 -1828 -1580 -2604 -2220 -2192 -2200 -216 0
-1112 -1364 -1476 -1444 -428 -2220 -2604 -2576 -2584 -600 0
-1112 -1364 -1860 -1828 -812 -2604 -2220 -2192 -2200 -216 0
-2136 -2260 -3268 -3236 -1196 -1324 -812 -784 -792 -600 0
-2136 -2388 -2884 -2852 -812 -684 -1196 -1168 -1176 -1112 0
-2136 -2388 -2884 -2852 -812 -1580 -1196 -1168 -1176 -216 0
-2136 -3156 -3652 -3620 -1580 -684 -428 -400 -408 -344 0
-2136 -3156 -3652 -3620 -1580 -812 -428 -400 -408 -216 0
-216 -468 -1476 -1380 -1324 -3116 -2604 -2576 -2584 -664 0
-408 -916 -2948 -2852 -2604 -2156 -1132 -1104 -1112 -1176 0
-408 -2452 -3460 -3364 -3116 -1580 -620 -592 -600 -216 0
-664 -916 -2948 -2852 -2348 -2156 -1132 -1104 -1112 -1176 0
-664 -916 -2948 -2852 -2348 -3116 -1132 -1104 -1112 -216 0
-1176 -1236 -1732 -1636 -620 -812 -2348 -2320 -2328 -2200 0
-1176 -1684 -1924 -1828 -812 -364 -2156 -2128 -2136 -2200 0
-1176 -1684 -1924 -1828 -812 -2348 -2156 -2128 -2136 -216 0
-1176 -3220 -3460 -3364 -2348 -364 -620 -592 -600 -664 0
-2200 -2452 -2948 -2852 -812 -1580 -1132 -1104 -1112 -216 0
-344 -468 -964 -740 -684 -1580 -3116 -3088 -3096 -2328 0
-344 -468 -964 -740 -684 -2604 -3116 -3088 -3096 -1304 0
-344 -468 -2500 -2276 -2220 -3116 -1580 -1552 -1560 -792 0
-344 -2388 -3396 -3172 -3116 -1580 -684 -656 -664 -408 0
-408 -468 -2500 -2276 -2156 -2604 -1580 -1552 -1560 -1304 0
-408 -468 -2500 -2276 -2156 -3116 -1580 -1552 -1560 -792 0
-408 -916 -964 -740 -620 -1132 -3116 -3088 -3096 -2328 0
-792 -852 -964 -740 -236 -2220 -3116 -3088 -3096 -1304 0
-792 -916 -2948 -2724 -2220 -2156 -1132 -1104 -1112 -1304 0
-792 -1812 -3844 -3620 -3116 -2220 -236 -208 -216 -344 0
-792 -2836 -2948 -2724 -2220 -1196 -1132 -1104 -1112 -344 0
-1304 -1812 -1860 -1636 -620 -236 -2220 -2192 -2200 -2328 0
-1304 -1812 -1860 -1636 -620 -2156 -2220 -2192 -2200 -408 0
-1304 -1812 -1924 -1700 -684 -236 -2156 -2128 -2136 -2328 0
-2328 -2388 -3396 -3172 -1132 -1196 -684 -656 -664 -792 0
-2328 -2452 -2948 -2724 -684 -1580 -1132 -1104 -1112 -344 0
-2328 -2452 -3460 -3236 -1196 -1132 -620 -592 -600 -792 0
-2328 -2836 -2884 -2660 -620 -1132 -1196 -1168 -1176 -408 0
-600 -724 -2756 -2276 -2220 -2348 -1324 -1296 -1304 -1560 0
-664 -724 -964 -484 -364 -1324 -3116 -3088 -3096 -2584 0
-664 -1684 -1732 -1252 -1132 -364 -2348 -2320 -2328 -2584 0
-792 -916 -2948 -2468 -2220 -3116 -1132 -1104 -1112 -600 0
-792 -1812 -1924 -1444 -1196 -236 -2156 -2128 -2136 -2584 0
-792 -1812 -1924 -1444 -1196 -2220 -2156 -2128 -2136 -600 0
-792 -2836 -2884 -2404 -2156 -236 -1196 -1168 -1176 -1560 0
-792 -2836 -3844 -3364 -3116 -1132 -236 -208 -216 -664 0
-792 -2836 -3844 -3364 -3116 -1196 -236 -208 -216 -600 0
-1560 -1620 -1732 -1252 -236 -428 -2348 -2320 -2328 -2584 0
-2584 -2708 -2756 -2276 -236 -364 -1324 -1296 -1304 -1560 0
-2584 -3604 -3844 -3364 -1324 -364 -236 -208 -216 -664 0
-1112 -3156 -3396 -2404 -2348 -428 -684 -656 -664 -1560 0
-1112 -3156 -3652 -2660 -2604 -684 -428 -400 -408 -1304 0
-1176 -1236 -1476 -484 -364 -812 -2604 -2576 -2584 -3096 0
-1176 -1236 -1732 -740 -620 -2604 -2348 -2320 -2328 -1304 0
-1176 -1428 -3460 -2468 -2348 -2604 -620 -592 -600 -1112 0
-1304 -1812 -1860 -868 -620 -236 -2220 -2192 -2200 -3096 0
-1304 -1812 -1860 -868 -620 -2156 -2220 -2192 -2200 -1176 0
-1304 -1812 -1924 -932 -684 -236 -2156 -2128 -2136 -3096 0
-1304 -1812 -3844 -2852 -2604 -2156 -236 -208 -216 -1176 0
-1560 -1684 -1732 -740 -236 -364 -2348 -2320 -2328 -3096 0
-3096 -3156 -3396 -2404 -364 -428 -684 -656 -664 -1560 0
-3096 -3220 -3268 -2276 -236 -620 -812 -784 -792 -1304 0
-2136 -2260 -3268 -1252 -1196 -1580 -812 -784 -792 -2328 0
-2136 -2644 -2756 -740 -684 -428 -1324 -1296 -1304 -3096 0
-2136 -3156 -3396 -1380 -1324 -428 -684 -656 -664 -2584 0
-2200 -2708 -2948 -932 -812 -364 -1132 -1104 -1112 -3096 0
-2200 -3220 -3716 -1700 -1580 -620 -364 -336 -344 -2328 0
-2328 -2836 -2884 -868 -620 -1132 -1196 -1168 -1176 -2200 0
-2328 -2836 -3844 -1828 -1580 -1196 -236 -208 -216 -2136 0
-2328 -3348 -3396 -1380 -1132 -620 -684 -656 -664 -2200 0
-2328 -3348 -3844 -1828 -1580 -620 -236 -208 -216 -2200 0
-2584 -2644 -2756 -740 -236 -428 -1324 -1296 -1304 -3096 0
-2584 -2836 -2884 -868 -364 -1132 -1196 -1168 -1176 -2200 0
-2584 -3604 -3844 -1828 -1324 -364 -236 -208 -216 -2200 0
-3096 -3604 -3844 -1828 -812 -364 -236 -208 -216 -2200 0
-232 -484 -964 -908 -796 -1564 -3100 -3096 -3112 -2152 0
-232 -484 -1476 -1420 -1308 -3100 -2588 -2584 -2600 -616 0
-232 -484 -2500 -2444 -2332 -3100 -1564 -1560 -1576 -616 0
-232 -740 -1732 -1676 -1564 -3100 -2332 -2328 -2344 -360 0
-232 -1252 -1476 -1420 -1308 -2332 -2588 -2584 -2600 -616 0
-232 -2276 -2756 -2700 -2588 -1564 -1308 -1304 -1320 -360 0
-232 -2276 -3268 -3212 -3100 -1564 -796 -792 -808 -360 0
-360 -484 -1476 -1420 -1180 -1564 -2588 -2584 -2600 -2152 0
-360 -868 -964 -908 -668 -1180 -3100 -3096 -3112 -2152 0
-360 -868 -1860 -1804 -1564 -1180 -2204 -2200 -2216 -2152 0
-360 -868 -1860 -1804 -1564 -3100 -2204 -2200 -2216 -232 0
-360 -1380 -1860 -1804 -1564 -668 -2204 -2200 -2216 -2152 0
-360 -1380 -1860 -1804 -1564 -2588 -2204 -2200 -2216 -232 0
-360 -2404 -2884 -2828 -2588 -668 -1180 -1176 -1192 -1128 0
-616 -740 -964 -908 -412 -2332 -3100 -3096 -3112 -1128 0
-1128 -1252 -1476 -1420 -412 -2332 -2588 -2584 -2600 -616 0
-1128 -1380 -1860 -1804 -796 -2588 -2204 -2200 -2216 -232 0
-2152 -2276 -2500 -2444 -412 -796 -1564 -1560 -1576 -1128 0
-2152 -2404 -2884 -2828 -796 -1564 -1180 -1176 -1192 -232 0
-2152 -2660 -2884 -2828 -796 -412 -1180 -1176 -1192 -1128 0
-232 -2276 -2756 -2636 -2588 -1564 -1308 -1304 -1320 -424 0
-232 -2276 -3268 -3148 -3100 -1308 -796 -792 -808 -680 0
-232 -2276 -3268 -3148 -3100 -1564 -796 -792 -808 -424 0
-424 -484 -1476 -1356 -1116 -3100 -2588 -2584 -2600 -680 0
-424 -484 -2500 -2380 -2140 -2588 -1564 -1560 -1576 -1192 0
-424 -484 -2500 -2380 -2140 -3100 -1564 -1560 -1576 -680 0
-424 -932 -1924 -1804 -1564 -3100 -2140 -2136 -2152 -232 0
-424 -2468 -2500 -2380 -2140 -1116 -1564 -1560 -1576 -680 0
-424 -2468 -2948 -2828 -2588 -604 -1116 -1112 -1128 -1192 0
-2216 -2276 -2500 -2380 -348 -796 -1564 -1560 -1576 -1192 0
-360 -484 -964 -716 -668 -2588 -3100 -3096 -3112 -1320 0
-360 -484 -1476 -1228 -1180 -1564 -2588 -2584 -2600 -2344 0
-360 -868 -1860 -1612 -1564 -1180 -2204 -2200 -2216 -2344 0
-360 -868 -2884 -2636 -2588 -2204 -1180 -1176 -1192 -1320 0
-424 -2468 -2500 -2252 -2140 -1116 -1564 -1560 -1576 -808 0
-808 -868 -964 -716 -220 -1180 -3100 -3096 -3112 -2344 0
-808 -932 -1924 -1676 -1180 -1116 -2140 -2136 -2152 -2344 0
-808 -1828 -1924 -1676 -1180 -220 -2140 -2136 -2152 -2344 0
-808 -1828 -3844 -3596 -3100 -2204 -220 -216 -232 -360 0
-1320 -1380 -1476 -1228 -220 -668 -2588 -2584 -2600 -2344 0
-1320 -1444 -3460 -3212 -2204 -2140 -604 -600 -616 -808 0
-1320 -1828 -1924 -1676 -668 -220 -2140 -2136 -2152 -2344 0
-1320 -1828 -1924 -1676 -668 -2204 -2140 -2136 -2152 -360 0
-2344 -2468 -2500 -2252 -220 -1116 -1564 -1560 -1576 -808 0
-2344 -2852 -3844 -3596 -1564 -1180 -220 -216 -232 -360 0
-616 -740 -964 -460 -412 -1308 -3100 -3096 -3112 -2600 0
-616 -740 -964 -460 -412 -2332 -3100 -3096 -3112 -1576 0
-616 -868 -964 -460 -412 -2204 -3100 -3096 -3112 -1576 0
-616 -868 -1860 -1356 -1308 -3100 -2204 -2200 -2216 -680 0
-680 -932 -964 -460 -348 -1116 -3100 -3096 -3112 -2600 0
-808 -868 -2884 -2380 -2140 -3100 -1180 -1176 -1192 -680 0
-808 -932 -964 -460 -220 -2140 -3100 -3096 -3112 -1576 0
-808 -932 -2948 -2444 -2204 -2140 -1116 -1112 -1128 -1576 0
-808 -1828 -1924 -1420 -1180 -2204 -2140 -2136 -2152 -616 0
-808 -2852 -2948 -2444 -2204 -1180 -1116 -1112 -1128 -616 0
-1576 -1828 -1924 -1420 -412 -220 -2140 -2136 -2152 -2600 0
-1128 -1252 -1732 -716 -668 -796 -2332 -2328 -2344 -3112 0
-1128 -1380 -1476 -460 -412 -668 -2588 -2584 -2600 -3112 0
-1128 -1380 -3396 -2380 -2332 -2204 -668 -664 -680 -1576 0
-1128 -3172 -3268 -2252 -2204 -668 -796 -792 -808 -1320 0
-1192 -1444 -1924 -908 -796 -2588 -2140 -2136 -2152 -1128 0
-1192 -1444 -3460 -2444 -2332 -2588 -604 -600 -616 -1128 0
-1320 -1380 -1476 -460 -220 -668 -2588 -2584 -2600 -3112 0
-1320 -1380 -1860 -844 -604 -2588 -2204 -2200 -2216 -1192 0
-1320 -1444 -1476 -460 -220 -604 -2588 -2584 -2600 -3112 0
-1320 -1444 -1476 -460 -220 -2140 -2588 -2584 -2600 -1576 0
-1320 -1828 -1924 -908 -668 -2204 -2140 -2136 -2152 -1128 0
-1320 -3364 -3460 -2444 -2204 -668 -604 -600 -616 -1128 0
-1576 -1636 -1732 -716 -220 -2204 -2332 -2328 -2344 -1320 0
-1576 -1828 -1924 -908 -412 -220 -2140 -2136 -2152 -3112 0
-1576 -1828 -1924 -908 -412 -2204 -2140 -2136 -2152 -1128 0
-1576 -1828 -3844 -2828 -2332 -2140 -220 -216 -232 -1192 0
-2152 -2276 -2500 -460 -412 -796 -1564 -1560 -1576 -3112 0
-2152 -2276 -2756 -716 -668 -1564 -1308 -1304 -1320 -2344 0
-2152 -2404 -2500 -460 -412 -668 -1564 -1560 -1576 -3112 0
-2216 -2276 -2756 -716 -604 -796 -1308 -1304 -1320 -3112 0
-2216 -2468 -2500 -460 -348 -1116 -1564 -1560 -1576 -2600 0
-2216 -2724 -2756 -716 -604 -348 -1308 -1304 -1320 -3112 0
-2344 -2404 -2500 -460 -220 -1180 -1564 -1560 -1576 -2600 0
-2344 -2852 -3844 -1804 -1564 -1116 -220 -216 -232 -2216 0
-2600 -2724 -2756 -716 -220 -1116 -1308 -1304 -1320 -2344 0
-2600 -2724 -3716 -1676 -1180 -1116 -348 -344 -360 -2344 0
-232 -740 -964 -916 -796 -1308 -3100 -3088 -3112 -2152 0
-232 -1252 -1476 -1428 -1308 -796 -2588 -2576 -2600 -2152 0
-232 -1252 -1476 -1428 -1308 -2332 -2588 -2576 -2600 -616 0
-232 -2276 -3268 -3220 -3100 -1564 -796 -784 -808 -360 0
-360 -484 -964 -916 -668 -1564 -3100 -3088 -3112 -2152 0
-360 -484 -1476 -1428 -1180 -3100 -2588 -2576 -2600 -616 0
-360 -484 -2500 -2452 -2204 -3100 -1564 -1552 -1576 -616 0
-360 -868 -964 -916 -668 -1180 -3100 -3088 -3112 -2152 0
-360 -868 -1860 -1812 -1564 -1180 -2204 -2192 -2216 -2152 0
-360 -868 -1860 -1812 -1564 -3100 -2204 -2192 -2216 -232 0
-360 -868 -2884 -2836 -2588 -2204 -1180 -1168 -1192 -1128 0
-360 -1380 -1860 -1812 -1564 -2588 -2204 -2192 -2216 -232 0
-360 -2404 -2884 -2836 -2588 -668 -1180 -1168 -1192 -1128 0
-360 -2404 -2884 -2836 -2588 -1564 -1180 -1168 -1192 -232 0
-616 -740 -2756 -2708 -2204 -3100 -1308 -1296 -1320 -360 0
-1128 -1252 -1476 -1428 -412 -796 -2588 -2576 -2600 -2152 0
-1128 -1252 -1476 -1428 -412 -2332 -2588 -2576 -2600 -616 0
-1128 -1252 -1732 -1684 -668 -796 -2332 -2320 -2344 -2152 0
-2152 -2404 -2884 -2836 -796 -668 -1180 -1168 -1192 -1128 0
-2152 -2660 -2884 -2836 -796 -412 -1180 -1168 -1192 -1128 0
-232 -484 -1476 -1364 -1308 -1564 -2588 -2576 -2600 -2216 0
-232 -484 -1476 -1364 -1308 -3100 -2588 -2576 -2600 -680 0
-232 -740 -964 -852 -796 -2332 -3100 -3088 -3112 -1192 0
-232 -1252 -1476 -1364 -1308 -2332 -2588 -2576 -2600 -680 0
-232 -2276 -2500 -2388 -2332 -1308 -1564 -1552 -1576 -680 0
-232 -2276 -3268 -3156 -3100 -1308 -796 -784 -808 -680 0
-424 -1444 -1924 -1812 -1564 -604 -2140 -2128 -2152 -2216 0
-680 -740 -2756 -2644 -2140 -3100 -1308 -1296 -1320 -424 0
-680 -932 -2948 -2836 -2332 -2140 -1116 -1104 -1128 -1192 0
-680 -1700 -1924 -1812 -1308 -348 -2140 -2128 -2152 -2216 0
-680 -1700 -1924 -1812 -1308 -2332 -2140 -2128 -2152 -232 0
-680 -2724 -2948 -2836 -2332 -1308 -1116 -1104 -1128 -232 0
-1192 -1252 -1476 -1364 -348 -2332 -2588 -2576 -2600 -680 0
-1192 -1444 -1476 -1364 -348 -604 -2588 -2576 -2600 -2216 0
-1192 -1700 -1924 -1812 -796 -348 -2140 -2128 -2152 -2216 0
-1192 -1700 -1924 -1812 -796 -2332 -2140 -2128 -2152 -232 0
-2216 -2468 -3460 -3348 -1308 -1564 -604 -592 -616 -232 0
-2216 -3236 -3460 -3348 -1308 -348 -604 -592 -616 -680 0
-360 -484 -964 -724 -668 -1564 -3100 -3088 -3112 -2344 0
-360 -484 -1476 -1236 -1180 -1564 -2588 -2576 -2600 -2344 0
-360 -1380 -1476 -1236 -1180 -2204 -2588 -2576 -2600 -808 0
-424 -932 -964 -724 -604 -1116 -3100 -3088 -3112 -2344 0
-424 -1444 -1476 -1236 -1116 -604 -2588 -2576 -2600 -2344 0
-424 -2468 -2948 -2708 -2588 -604 -1116 -1104 -1128 -1320 0
-424 -2468 -2948 -2708 -2588 -1564 -1116 -1104 -1128 -360 0
-808 -932 -2948 -2708 -2204 -2140 -1116 -1104 -1128 -1320 0
-1320 -1828 -1924 -1684 -668 -220 -2140 -2128 -2152 -2344 0
-1320 -1828 -3844 -3604 -2588 -2204 -220 -208 -232 -360 0
-2344 -2468 -2500 -2260 -220 -604 -1564 -1552 -1576 -1320 0
-616 -740 -1732 -1236 -1180 -1308 -2332 -2320 -2344 -2600 0
-616 -740 -2756 -2260 -2204 -3100 -1308 -1296 -1320 -808 0
-680 -932 -964 -468 -348 -1116 -3100 -3088 -3112 -2600 0
-680 -932 -964 -468 -348 -2140 -3100 -3088 -3112 -1576 0
-680 -932 -1924 -1428 -1308 -1116 -2140 -2128 -2152 -2600 0
-808 -868 -964 -468 -220 -2204 -3100 -3088 -3112 -1576 0
-808 -1828 -1924 -1428 -1180 -220 -2140 -2128 -2152 -2600 0
-808 -1828 -3844 -3348 -3100 -2140 -220 -208 -232 -680 0
-808 -2852 -3844 -3348 -3100 -1116 -220 -208 -232 -680 0
-1576 -1828 -1860 -1364 -348 -2140 -2204 -2192 -2216 -680 0
-1128 -1252 -1476 -468 -412 -796 -2588 -2576 -2600 -3112 0
-1128 -1252 -1476 -468 -412 -2332 -2588 -2576 -2600 -1576 0
-1128 -1380 -1860 -852 -796 -668 -2204 -2192 -2216 -3112 0
-1128 -1636 -3652 -2644 -2588 -2204 -412 -400 -424 -1320 0
-1192 -1252 -1476 -468 -348 -2332 -2588 -2576 -2600 -1576 0
-1192 -1700 -1732 -724 -604 -2140 -2332 -2320 -2344 -1320 0
-1192 -3236 -3460 -2452 -2332 -348 -604 -592 -616 -1576 0
-1192 -3236 -3716 -2708 -2588 -796 -348 -336 -360 -1128 0
-1320 -1380 -3396 -2388 -2140 -2204 -668 -656 -680 -1576 0
-1320 -1828 -1860 -852 -604 -2140 -2204 -2192 -2216 -1192 0
-1576 -1636 -1732 -724 -220 -2204 -2332 -2320 -2344 -1320 0
-3112 -3364 -3844 -2836 -796 -668 -220 -208 -232 -1128 0
-3112 -3620 -3844 -2836 -796 -348 -220 -208 -232 -1192 0
-2152 -2276 -2500 -468 -412 -796 -1564 -1552 -1576 -3112 0
-2152 -2276 -2756 -724 -668 -796 -1308 -1296 -1320 -3112 0
-2152 -2404 -2500 -468 -412 -668 -1564 -1552 -1576 -3112 0
-2152 -3172 -3268 -1236 -1180 -412 -796 -784 -808 -2600 0
-2344 -2468 -2500 -468 -220 -1116 -1564 -1552 -1576 -2600 0
-2344 -2468 -3460 -1428 -1180 -1116 -604 -592 -616 -2600 0
-2600 -2852 -2884 -852 -348 -1116 -1180 -1168 -1192 -2216 0
-2600 -3620 -3844 -1812 -1308 -348 -220 -208 -232 -2216 0
-208 -220 -1180 -1204 -1588 -1828 -2852 -2824 -2376 -2128 0
-208 -220 -1180 -1204 -3124 -3620 -2852 -2824 -840 -336 0
-592 -604 -668 -692 -1204 -1444 -3364 -3336 -2376 -2128 0
-592 -604 -796 -820 -436 -1444 -3236 -3208 -3144 -2128 0
-592 -604 -2588 -2612 -2356 -3364 -1444 -1416 -1224 -208 0
-1104 -1116 -1180 -1204 -692 -932 -2852 -2824 -2376 -2128 0
-1104 -1116 -3100 -3124 -2612 -2852 -932 -904 -456 -208 0
-2128 -2140 -2204 -2228 -436 -1444 -1828 -1800 -1608 -592 0
-2128 -2140 -2204 -2228 -692 -932 -1828 -1800 -1352 -1104 0
-2128 -2140 -3100 -3124 -1588 -1828 -932 -904 -456 -208 0
-208 -220 -348 -372 -2356 -3364 -3620 -3592 -1672 -656 0
-208 -220 -2140 -2164 -2612 -3620 -1828 -1800 -1416 -400 0
-208 -220 -2140 -2164 -3124 -3364 -1828 -1800 -904 -656 0
-400 -412 -348 -372 -2164 -3172 -3620 -3592 -1672 -656 0
-400 -412 -796 -820 -628 -1636 -3172 -3144 -3208 -2192 0
-656 -668 -604 -628 -1140 -3172 -3364 -3336 -2440 -400 0
-656 -668 -604 -628 -2164 -3172 -3364 -3336 -1416 -400 0
-656 -668 -2588 -2612 -2164 -2404 -1380 -1352 -1416 -1168 0
-656 -668 -2588 -2612 -2356 -3364 -1380 -1352 -1224 -208 0
-656 -668 -2588 -2612 -3124 -3172 -1380 -1352 -456 -400 0
-1168 -1180 -1116 -1140 -372 -2404 -2852 -2824 -2696 -656 0
-1168 -1180 -1116 -1140 -628 -868 -2852 -2824 -2440 -2192 0
-1168 -1180 -1116 -1140 -2164 -2404 -2852 -2824 -904 -656 0
-1168 -1180 -1116 -1140 -2164 -2660 -2852 -2824 -904 -400 0
-1168 -1180 -1564 -1588 -2612 -2660 -2404 -2376 -456 -400 0
-1168 -1180 -3100 -3124 -2356 -2852 -868 -840 -712 -208 0
-2192 -2204 -2140 -2164 -1140 -1380 -1828 -1800 -904 -656 0
-2192 -2204 -3100 -3124 -1588 -1828 -868 -840 -456 -208 0
-336 -348 -220 -244 -1204 -3236 -3620 -3592 -2824 -784 0
-336 -348 -220 -244 -2228 -2724 -3620 -3592 -1800 -1296 0
-336 -348 -2140 -2164 -3124 -3236 -1700 -1672 -904 -784 0
-400 -412 -220 -244 -2164 -2660 -3620 -3592 -1800 -1296 0
-400 -412 -668 -692 -628 -1636 -3172 -3144 -3336 -2320 0
-784 -796 -668 -692 -244 -1252 -3172 -3144 -3336 -2320 0
-784 -796 -1564 -1588 -1140 -1252 -2276 -2248 -2440 -2320 0
-784 -796 -1564 -1588 -1204 -1252 -2276 -2248 -2376 -2320 0
-784 -796 -2588 -2612 -2164 -2276 -1252 -1224 -1416 -1296 0
-1296 -1308 -1116 -1140 -628 -2660 -2724 -2696 -2440 -400 0
-1296 -1308 -1180 -1204 -244 -740 -2660 -2632 -2824 -2320 0
-1296 -1308 -1180 -1204 -244 -2276 -2660 -2632 -2824 -784 0
-1296 -1308 -3100 -3124 -2164 -2660 -740 -712 -904 -400 0
-1296 -1308 -3100 -3124 -2228 -2724 -740 -712 -840 -336 0
-1296 -1308 -3100 -3124 -2612 -2660 -740 -712 -456 -400 0
-2320 -2332 -2140 -2164 -628 -740 -1700 -1672 -1416 -1296 0
-2320 -2332 -2204 -2228 -692 -740 -1636 -1608 -1352 -1296 0
-2320 -2332 -2588 -2612 -1588 -1636 -1252 -1224 -456 -400 0
-2320 -2332 -3100 -3124 -1588 -1700 -740 -712 -456 -336 0
-592 -604 -220 -244 -1204 -3236 -3364 -3336 -2824 -784 0
-592 -604 -220 -244 -2228 -3236 -3364 -3336 -1800 -784 0
-592 -604 -348 -372 -2356 -2468 -3236 -3208 -1672 -1552 0
-656 -668 -220 -244 -372 -1380 -3364 -3336 -3592 -2576 0
-656 -668 -220 -244 -1140 -1380 -3364 -3336 -2824 -2576 0
-656 -668 -220 -244 -2164 -2404 -3364 -3336 -1800 -1552 0
-656 -668 -220 -244 -2164 -3172 -3364 -3336 -1800 -784 0
-656 -668 -2204 -2228 -2164 -3172 -1380 -1352 -1800 -784 0
-656 -668 -2204 -2228 -2356 -2404 -1380 -1352 -1608 -1552 0
-656 -668 -2204 -2228 -3124 -3172 -1380 -1352 -840 -784 0
-784 -796 -348 -372 -2164 -3172 -3236 -3208 -1672 -656 0
-784 -796 -412 -436 -1204 -3236 -3172 -3144 -2632 -592 0
-784 -796 -1308 -1332 -1140 -3172 -2276 -2248 -2696 -656 0
-1552 -1564 -1180 -1204 -244 -2276 -2404 -2376 -2824 -784 0
-1552 -1564 -1308 -1332 -2356 -2404 -2276 -2248 -712 -656 0
-1552 -1564 -3100 -3124 -2164 -2404 -484 -456 -904 -656 0
-1552 -1564 -3100 -3124 -2228 -2468 -484 -456 -840 -592 0
-1552 -1564 -3100 -3124 -2356 -2404 -484 -456 -712 -656 0
-1552 -1564 -3100 -3124 -2356 -2468 -484 -456 -712 -592 0
-2576 -2588 -2140 -2164 -244 -484 -1444 -1416 -1800 -1552 0
-2576 -2588 -3100 -3124 -1140 -1380 -484 -456 -904 -656 0
-2576 -2588 -3100 -3124 -1332 -1380 -484 -456 -712 -656 0
-2576 -2588 -3100 -3124 -1332 -1444 -484 -456 -712 -592 0
-1104 -1116 -348 -372 -436 -932 -2724 -2696 -3592 -3088 0
-1104 -1116 -604 -628 -692 -2724 -2468 -2440 -3336 -1296 0
-1104 -1116 -2140 -2164 -2228 -2724 -932 -904 -1800 -1296 0
-1104 -1116 -2140 -2164 -2356 -2852 -932 -904 -1672 -1168 0
-1168 -1180 -412 -436 -372 -2404 -2660 -2632 -3592 -1552 0
-1296 -1308 -2332 -2356 -2164 -2276 -740 -712 -1672 -1552 0
-1296 -1308 -2332 -2356 -2228 -2276 -740 -712 -1608 -1552 0
-1552 -1564 -668 -692 -244 -484 -2404 -2376 -3336 -3088 0
-1552 -1564 -2588 -2612 -2228 -2276 -484 -456 -1352 -1296 0
-3088 -3100 -2140 -2164 -244 -740 -932 -904 -1800 -1296 0
-3088 -3100 -2204 -2228 -244 -484 -868 -840 -1800 -1552 0
-3088 -3100 -2204 -2228 -436 -484 -868 -840 -1608 -1552 0
-3088 -3100 -2332 -2356 -372 -484 -740 -712 -1672 -1552 0
-3088 -3100 -2332 -2356 -820 -932 -740 -712 -1224 -1104 0
-3088 -3100 -2588 -2612 -692 -740 -484 -456 -1352 -1296 0
-3088 -3100 -2588 -2612 -692 -932 -484 -456 -1352 -1104 0
-2128 -2140 -220 -244 -436 -1444 -1828 -1800 -3592 -2576 0
-2128 -2140 -220 -244 -692 -932 -1828 -1800 -3336 -3088 0
-2128 -2140 -220 -244 -692 -1700 -1828 -1800 -3336 -2320 0
-2128 -2140 -220 -244 -1204 -1444 -1828 -1800 -2824 -2576 0
-2320 -2332 -348 -372 -244 -740 -1700 -1672 -3592 -3088 0
-2320 -2332 -796 -820 -692 -740 -1252 -1224 -3144 -3088 0
-2576 -2588 -668 -692 -244 -484 -1380 -1352 -3336 -3088 0
-2576 -2588 -1564 -1588 -1140 -1252 -484 -456 -2440 -2320 0
-3088 -3100 -1116 -1140 -244 -484 -932 -904 -2824 -2576 0
-3088 -3100 -1116 -1140 -372 -484 -932 -904 -2696 -2576 0
-3088 -3100 -1180 -1204 -436 -484 -868 -840 -2632 -2576 0
-3088 -3100 -1180 -1204 -692 -740 -868 -840 -2376 -2320 0
-3088 -3100 -1180 -1204 -692 -932 -868 -840 -2376 -2128 0
-3088 -3100 -1308 -1332 -820 -932 -740 -712 -2248 -2128 0
-3088 -3100 -1564 -1588 -628 -740 -484 -456 -2440 -2320 0
-3088 -3100 -1564 -1588 -628 -868 -484 -456 -2440 -2192 0
-3088 -3100 -1564 -1588 -692 -740 -484 -456 -2376 -2320 0
-3088 -3100 -1564 -1588 -692 -932 -484 -456 -2376 -2128 0
-3088 -3100 -1564 -1588 -820 -932 -484 -456 -2248 -2128 0
-208 -236 -684 -692 -820 -1812 -3348 -3336 -3144 -2128 0
-208 -236 -2220 -2228 -2612 -2836 -1812 -1800 -1352 -1104 0
-336 -364 -2348 -2356 -2228 -3220 -1684 -1672 -1608 -592 0
-1104 -1132 -1196 -1204 -436 -916 -2836 -2824 -2632 -2128 0
-1104 -1132 -1196 -1204 -692 -2708 -2836 -2824 -2376 -336 0
-1104 -1132 -1324 -1332 -436 -916 -2708 -2696 -2632 -2128 0
-2128 -2156 -2220 -2228 -436 -916 -1812 -1800 -1608 -1104 0
-2128 -2156 -2220 -2228 -436 -1428 -1812 -1800 -1608 -592 0
-2128 -2156 -2220 -2228 -1204 -1428 -1812 -1800 -840 -592 0
-2128 -2156 -2348 -2356 -436 -1428 -1684 -1672 -1608 -592 0
-2128 -2156 -2348 -2356 -820 -916 -1684 -1672 -1224 -1104 0
-2128 -2156 -3116 -3124 -1204 -1684 -916 -904 -840 -336 0
-208 -236 -364 -372 -820 -1812 -3604 -3592 -3208 -2192 0
-208 -236 -364 -372 -820 -2836 -3604 -3592 -3208 -1168 0
-208 -236 -364 -372 -2356 -2836 -3604 -3592 -1672 -1168 0
-208 -236 -1132 -1140 -1588 -3604 -2836 -2824 -2440 -400 0
-208 -236 -1132 -1140 -3124 -3348 -2836 -2824 -904 -656 0
-208 -236 -2156 -2164 -2356 -3348 -1812 -1800 -1672 -656 0
-400 -428 -364 -372 -2164 -3156 -3604 -3592 -1672 -656 0
-400 -428 -1324 -1332 -1140 -3156 -2644 -2632 -2696 -656 0
-400 -428 -1324 -1332 -1588 -1620 -2644 -2632 -2248 -2192 0
-400 -428 -2348 -2356 -2164 -3156 -1620 -1608 -1672 -656 0
-656 -684 -2604 -2612 -2164 -3156 -1364 -1352 -1416 -400 0
-656 -684 -2604 -2612 -3124 -3156 -1364 -1352 -456 -400 0
-1168 -1196 -1132 -1140 -372 -2388 -2836 -2824 -2696 -656 0
-1168 -1196 -1324 -1332 -372 -852 -2644 -2632 -2696 -2192 0
-1168 -1196 -3116 -3124 -2164 -2388 -852 -840 -904 -656 0
-2192 -2220 -2156 -2164 -372 -852 -1812 -1800 -1672 -1168 0
-2192 -2220 -2156 -2164 -372 -1364 -1812 -1800 -1672 -656 0
-2192 -2220 -2156 -2164 -628 -852 -1812 -1800 -1416 -1168 0
-2192 -2220 -2156 -2164 -1140 -1364 -1812 -1800 -904 -656 0
-2192 -2220 -2156 -2164 -1140 -1620 -1812 -1800 -904 -400 0
-2192 -2220 -2604 -2612 -1588 -1812 -1364 -1352 -456 -208 0
-2192 -2220 -3116 -3124 -1588 -1812 -852 -840 -456 -208 0
-336 -364 -2156 -2164 -2612 -3604 -1684 -1672 -1416 -400 0
-336 -364 -2156 -2164 -3124 -3220 -1684 -1672 -904 -784 0
-336 -364 -2156 -2164 -3124 -3604 -1684 -1672 -904 -400 0
-400 -428 -236 -244 -628 -1620 -3604 -3592 -3336 -2320 0
-400 -428 -684 -692 -1588 -1620 -3156 -3144 -2376 -2320 0
-400 -428 -684 -692 -1588 -3604 -3156 -3144 -2376 -336 0
-400 -428 -2220 -2228 -3124 -3156 -1620 -1608 -840 -784 0
-784 -812 -620 -628 -2164 -2260 -3220 -3208 -1416 -1296 0
-784 -812 -684 -692 -2228 -3220 -3156 -3144 -1352 -336 0
-784 -812 -2604 -2612 -2228 -2260 -1236 -1224 -1352 -1296 0
-1296 -1324 -1132 -1140 -628 -2644 -2708 -2696 -2440 -400 0
-1296 -1324 -1580 -1588 -2612 -2708 -2260 -2248 -456 -336 0
-2320 -2348 -2604 -2612 -1588 -1684 -1236 -1224 -456 -336 0
-2320 -2348 -3116 -3124 -1204 -1236 -724 -712 -840 -784 0
-2320 -2348 -3116 -3124 -1204 -1684 -724 -712 -840 -336 0
-592 -620 -364 -372 -2356 -2452 -3220 -3208 -1672 -1552 0
-592 -620 -1132 -1140 -1332 -1428 -2452 -2440 -2696 -2576 0
-592 -620 -2156 -2164 -2356 -2452 -1428 -1416 -1672 -1552 0
-592 -620 -2156 -2164 -2356 -3348 -1428 -1416 -1672 -656 0
-656 -684 -236 -244 -372 -2388 -3348 -3336 -3592 -1552 0
-656 -684 -236 -244 -2164 -3156 -3348 -3336 -1800 -784 0
-656 -684 -428 -436 -1332 -1364 -3156 -3144 -2632 -2576 0
-656 -684 -1196 -1204 -1140 -1364 -2388 -2376 -2824 -2576 0
-656 -684 -2220 -2228 -2164 -2388 -1364 -1352 -1800 -1552 0
-656 -684 -2220 -2228 -3124 -3156 -1364 -1352 -840 -784 0
-784 -812 -364 -372 -244 -2260 -3220 -3208 -3592 -1552 0
-784 -812 -364 -372 -2164 -3156 -3220 -3208 -1672 -656 0
-1552 -1580 -1132 -1140 -244 -468 -2452 -2440 -2824 -2576 0
-1552 -1580 -1196 -1204 -2228 -2452 -2388 -2376 -840 -592 0
-1552 -1580 -3116 -3124 -2228 -2260 -468 -456 -840 -784 0
-2576 -2604 -2220 -2228 -244 -468 -1364 -1352 -1800 -1552 0
-1104 -1132 -236 -244 -436 -2452 -2836 -2824 -3592 -1552 0
-1104 -1132 -236 -244 -692 -916 -2836 -2824 -3336 -3088 0
-1104 -1132 -236 -244 -692 -2708 -2836 -2824 -3336 -1296 0
-1104 -1132 -620 -628 -2612 -2708 -2452 -2440 -1416 -1296 0
-1168 -1196 -236 -244 -628 -852 -2836 -2824 -3336 -3088 0
-1168 -1196 -236 -244 -2164 -2388 -2836 -2824 -1800 -1552 0
-1168 -1196 -236 -244 -2164 -2644 -2836 -2824 -1800 -1296 0
-1168 -1196 -2220 -2228 -2164 -2644 -852 -840 -1800 -1296 0
-1296 -1324 -364 -372 -244 -2260 -2708 -2696 -3592 -1552 0
-3088 -3116 -2156 -2164 -372 -468 -916 -904 -1672 -1552 0
-2128 -2156 -1132 -1140 -1204 -1428 -916 -904 -2824 -2576 0
-2128 -2156 -1132 -1140 -1332 -1428 -916 -904 -2696 -2576 0
-2128 -2156 -1132 -1140 -1588 -1812 -916 -904 -2440 -2192 0
-2192 -2220 -236 -244 -372 -852 -1812 -1800 -3592 -3088 0
-2192 -2220 -236 -244 -628 -1620 -1812 -1800 -3336 -2320 0
-2192 -2220 -428 -436 -1332 -1364 -1620 -1608 -2632 -2576 0
-2192 -2220 -428 -436 -1332 -1812 -1620 -1608 -2632 -2128 0
-2192 -2220 -1196 -1204 -1140 -1364 -852 -840 -2824 -2576 0
-2192 -2220 -1196 -1204 -1332 -1812 -852 -840 -2632 -2128 0
-2320 -2348 -1324 -1332 -1140 -1236 -724 -712 -2696 -2576 0
-2576 -2604 -1580 -1588 -1140 -1236 -468 -456 -2440 -2320 0
-2576 -2604 -1580 -1588 -1204 -1236 -468 -456 -2376 -2320 0
-3088 -3116 -1132 -1140 -628 -852 -916 -904 -2440 -2192 0
-3088 -3116 -1196 -1204 -692 -916 -852 -840 -2376 -2128 0
-216 -220 -412 -428 -1324 -1828 -3620 -3592 -2632 -2136 0
-216 -220 -412 -428 -1324 -3364 -3620 -3592 -2632 -600 0
-216 -220 -1180 -1196 -1580 -3620 -2852 -2824 -2376 -344 0
-344 -348 -1308 -1324 -1580 -3620 -2724 -2696 -2248 -216 0
-344 -348 -2332 -2348 -2220 -2724 -1700 -1672 -1608 -1112 0
-600 -604 -1564 -1580 -1324 -3364 -2468 -2440 -2248 -216 0
-1112 -1116 -1180 -1196 -684 -2724 -2852 -2824 -2376 -344 0
-1112 -1116 -1308 -1324 -2348 -2468 -2724 -2696 -712 -600 0
-1112 -1116 -1564 -1580 -2604 -2852 -2468 -2440 -456 -216 0
-1112 -1116 -3100 -3116 -2348 -2852 -932 -904 -712 -216 0
-2136 -2140 -2204 -2220 -1196 -1444 -1828 -1800 -840 -600 0
-2136 -2140 -2204 -2220 -1196 -1700 -1828 -1800 -840 -344 0
-2136 -2140 -2332 -2348 -812 -932 -1700 -1672 -1224 -1112 0
-2136 -2140 -2332 -2348 -1324 -1828 -1700 -1672 -712 -216 0
-2136 -2140 -3100 -3116 -1580 -1828 -932 -904 -456 -216 0
-216 -220 -2140 -2156 -2348 -2852 -1828 -1800 -1672 -1176 0
-216 -220 -2140 -2156 -2604 -3620 -1828 -1800 -1416 -408 0
-216 -220 -2140 -2156 -3116 -3364 -1828 -1800 -904 -664 0
-408 -412 -796 -812 -620 -2660 -3172 -3144 -3208 -1176 0
-664 -668 -604 -620 -364 -2404 -3364 -3336 -3208 -1176 0
-664 -668 -604 -620 -1132 -1380 -3364 -3336 -2440 -2200 0
-664 -668 -604 -620 -1132 -3172 -3364 -3336 -2440 -408 0
-664 -668 -796 -812 -364 -2404 -3172 -3144 -3208 -1176 0
-664 -668 -1564 -1580 -1324 -3364 -2404 -2376 -2248 -216 0
-664 -668 -2588 -2604 -2156 -2404 -1380 -1352 -1416 -1176 0
-1176 -1180 -1116 -1132 -620 -2660 -2852 -2824 -2440 -408 0
-1176 -1180 -1116 -1132 -2156 -2404 -2852 -2824 -904 -664 0
-1176 -1180 -1116 -1132 -2156 -2660 -2852 -2824 -904 -408 0
-1176 -1180 -1308 -1324 -2348 -2404 -2660 -2632 -712 -664 0
-1176 -1180 -3100 -3116 -2348 -2852 -868 -840 -712 -216 0
-1176 -1180 -3100 -3116 -2604 -2660 -868 -840 -456 -408 0
-2200 -2204 -2140 -2156 -364 -868 -1828 -1800 -1672 -1176 0
-2200 -2204 -2140 -2156 -1132 -1636 -1828 -1800 -904 -408 0
-2200 -2204 -2588 -2604 -812 -1828 -1380 -1352 -1224 -216 0
-2200 -2204 -2588 -2604 -1580 -1828 -1380 -1352 -456 -216 0
-2200 -2204 -3100 -3116 -1580 -1828 -868 -840 -456 -216 0
-344 -348 -220 -236 -2220 -3236 -3620 -3592 -1800 -792 0
-344 -348 -1116 -1132 -1196 -1700 -2724 -2696 -2824 -2328 0
-344 -348 -1116 -1132 -1580 -1700 -2724 -2696 -2440 -2328 0
-344 -348 -1116 -1132 -3116 -3236 -2724 -2696 -904 -792 0
-344 -348 -2140 -2156 -2604 -2724 -1700 -1672 -1416 -1304 0
-408 -412 -668 -684 -1580 -3620 -3172 -3144 -2376 -344 0
-792 -796 -604 -620 -236 -1252 -3236 -3208 -3336 -2328 0
-792 -796 -604 -620 -1132 -1252 -3236 -3208 -2440 -2328 0
-792 -796 -604 -620 -1132 -3172 -3236 -3208 -2440 -408 0
-792 -796 -604 -620 -2156 -2276 -3236 -3208 -1416 -1304 0
-792 -796 -604 -620 -2156 -3172 -3236 -3208 -1416 -408 0
-1304 -1308 -1116 -1132 -236 -740 -2724 -2696 -2824 -2328 0
-1304 -1308 -1564 -1580 -620 -740 -2276 -2248 -2440 -2328 0
-1304 -1308 -1564 -1580 -684 -740 -2276 -2248 -2376 -2328 0
-1304 -1308 -3100 -3116 -2156 -2660 -740 -712 -904 -408 0
-2328 -2332 -2204 -2220 -236 -1252 -1636 -1608 -1800 -792 0
-2328 -2332 -2588 -2604 -684 -740 -1252 -1224 -1352 -1304 0
-2328 -2332 -3100 -3116 -1196 -1700 -740 -712 -840 -344 0
-2328 -2332 -3100 -3116 -1580 -1636 -740 -712 -456 -408 0
-600 -604 -220 -236 -428 -1444 -3364 -3336 -3592 -2584 0
-600 -604 -220 -236 -2220 -3236 -3364 -3336 -1800 -792 0
-600 -604 -2140 -2156 -2220 -3236 -1444 -1416 -1800 -792 0
-600 -604 -2140 -2156 -3116 -3364 -1444 -1416 -904 -664 0
-664 -668 -220 -236 -364 -1380 -3364 -3336 -3592 -2584 0
-664 -668 -1180 -1196 -1132 -1380 -2404 -2376 -2824 -2584 0
-792 -796 -348 -364 -236 -2276 -3236 -3208 -3592 -1560 0
-792 -796 -1308 -1324 -1132 -1252 -2276 -2248 -2696 -2584 0
-792 -796 -2332 -2348 -2156 -3172 -1252 -1224 -1672 -664 0
-1560 -1564 -1180 -1196 -236 -484 -2404 -2376 -2824 -2584 0
-1560 -1564 -1180 -1196 -428 -484 -2404 -2376 -2632 -2584 0
-1560 -1564 -1180 -1196 -2220 -2276 -2404 -2376 -840 -792 0
-1560 -1564 -1308 -1324 -428 -484 -2276 -2248 -2632 -2584 0
-1560 -1564 -1308 -1324 -428 -2468 -2276 -2248 -2632 -600 0
-1560 -1564 -1308 -1324 -2348 -2404 -2276 -2248 -712 -664 0
-1560 -1564 -1308 -1324 -2348 -2468 -2276 -2248 -712 -600 0
-1560 -1564 -3100 -3116 -2156 -2276 -484 -456 -904 -792 0
-1560 -1564 -3100 -3116 -2220 -2468 -484 -456 -840 -600 0
-1560 -1564 -3100 -3116 -2348 -2404 -484 -456 -712 -664 0
-1560 -1564 -3100 -3116 -2348 -2468 -484 -456 -712 -600 0
-2584 -2588 -2204 -2220 -236 -484 -1380 -1352 -1800 -1560 0
-2584 -2588 -2204 -2220 -428 -1444 -1380 -1352 -1608 -600 0
-2584 -2588 -2204 -2220 -1196 -1444 -1380 -1352 -840 -600 0
-2584 -2588 -2332 -2348 -364 -484 -1252 -1224 -1672 -1560 0
-2584 -2588 -2332 -2348 -364 -1380 -1252 -1224 -1672 -664 0
-2584 -2588 -2332 -2348 -428 -1444 -1252 -1224 -1608 -600 0
-2584 -2588 -2332 -2348 -1324 -1380 -1252 -1224 -712 -664 0
-2584 -2588 -3100 -3116 -1132 -1252 -484 -456 -904 -792 0
-2584 -2588 -3100 -3116 -1132 -1380 -484 -456 -904 -664 0
-2584 -2588 -3100 -3116 -1196 -1252 -484 -456 -840 -792 0
-2584 -2588 -3100 -3116 -1196 -1444 -484 -456 -840 -600 0
-2584 -2588 -3100 -3116 -1324 -1380 -484 -456 -712 -664 0
-2584 -2588 -3100 -3116 -1324 -1444 -484 -456 -712 -600 0
-1112 -1116 -604 -620 -812 -2852 -2468 -2440 -3208 -1176 0
-1112 -1116 -2140 -2156 -2220 -2724 -932 -904 -1800 -1304 0
-1176 -1180 -220 -236 -620 -868 -2852 -2824 -3336 -3096 0
-1304 -1308 -412 -428 -236 -2276 -2660 -2632 -3592 -1560 0
-1304 -1308 -796 -812 -684 -2724 -2276 -2248 -3144 -1112 0
-1560 -1564 -604 -620 -236 -2276 -2468 -2440 -3336 -1304 0
-1560 -1564 -796 -812 -364 -484 -2276 -2248 -3208 -3096 0
-1560 -1564 -2588 -2604 -2156 -2276 -484 -456 -1416 -1304 0
-1560 -1564 -2588 -2604 -2156 -2404 -484 -456 -1416 -1176 0
-1560 -1564 -2588 -2604 -2220 -2468 -484 -456 -1352 -1112 0
-1560 -1564 -2588 -2604 -2348 -2468 -484 -456 -1224 -1112 0
-3096 -3100 -2140 -2156 -236 -484 -932 -904 -1800 -1560 0
-3096 -3100 -2140 -2156 -236 -740 -932 -904 -1800 -1304 0
-3096 -3100 -2204 -2220 -428 -484 -868 -840 -1608 -1560 0
-3096 -3100 -2204 -2220 -684 -740 -868 -840 -1352 -1304 0
-3096 -3100 -2204 -2220 -684 -932 -868 -840 -1352 -1112 0
-3096 -3100 -2332 -2348 -364 -868 -740 -712 -1672 -1176 0
-3096 -3100 -2332 -2348 -428 -484 -740 -712 -1608 -1560 0
-3096 -3100 -2332 -2348 -428 -932 -740 -712 -1608 -1112 0
-3096 -3100 -2332 -2348 -812 -868 -740 -712 -1224 -1176 0
-3096 -3100 -2588 -2604 -684 -932 -484 -456 -1352 -1112 0
-2136 -2140 -220 -236 -684 -1700 -1828 -1800 -3336 -2328 0
-2136 -2140 -220 -236 -1196 -1700 -1828 -1800 -2824 -2328 0
-2136 -2140 -348 -364 -428 -932 -1700 -1672 -3592 -3096 0
-2136 -2140 -604 -620 -684 -932 -1444 -1416 -3336 -3096 0
-2136 -2140 -1116 -1132 -1196 -1700 -932 -904 -2824 -2328 0
-2136 -2140 -1116 -1132 -1580 -1828 -932 -904 -2440 -2200 0
-2200 -2204 -220 -236 -364 -1380 -1828 -1800 -3592 -2584 0
-2200 -2204 -220 -236 -620 -1636 -1828 -1800 -3336 -2328 0
-2200 -2204 -220 -236 -1132 -1636 -1828 -1800 -2824 -2328 0
-2200 -2204 -668 -684 -812 -868 -1380 -1352 -3144 -3096 0
-2200 -2204 -1180 -1196 -1132 -1636 -868 -840 -2824 -2328 0
-2328 -2332 -348 -364 -236 -740 -1700 -1672 -3592 -3096 0
-2328 -2332 -1308 -1324 -1132 -1252 -740 -712 -2696 -2584 0
-2584 -2588 -796 -812 -1324 -1380 -1252 -1224 -2248 -2200 0
-2584 -2588 -796 -812 -1324 -1444 -1252 -1224 -2248 -2136 0
-2584 -2588 -1564 -1580 -1324 -1380 -484 -456 -2248 -2200 0
-2584 -2588 -1564 -1580 -1324 -1444 -484 -456 -2248 -2136 0
-3096 -3100 -1308 -1324 -428 -484 -740 -712 -2632 -2584 0
-3096 -3100 -1564 -1580 -620 -868 -484 -456 -2440 -2200 0
-3096 -3100 -1564 -1580 -812 -868 -484 -456 -2248 -2200 0
-216 -244 -436 -428 -812 -1804 -3596 -3592 -3144 -2136 0
-216 -244 -2228 -2220 -2348 -2828 -1804 -1800 -1608 -1112 0
-216 -244 -2228 -2220 -3116 -3596 -1804 -1800 -840 -344 0
-344 -372 -820 -812 -1580 -3596 -3212 -3208 -2248 -216 0
-600 -628 -820 -812 -1324 -3340 -3212 -3208 -2248 -216 0
-1112 -1140 -3124 -3116 -2348 -2444 -908 -904 -712 -600 0
-2136 -2164 -2228 -2220 -684 -908 -1804 -1800 -1352 -1112 0
-2136 -2164 -2356 -2348 -812 -908 -1676 -1672 -1224 -1112 0
-2136 -2164 -3124 -3116 -1196 -1420 -908 -904 -840 -600 0
-2136 -2164 -3124 -3116 -1196 -1676 -908 -904 -840 -344 0
-2136 -2164 -3124 -3116 -1580 -1676 -908 -904 -456 -344 0
-664 -692 -628 -620 -1132 -1356 -3340 -3336 -2440 -2200 0
-664 -692 -820 -812 -2348 -2380 -3148 -3144 -1224 -1176 0
-1176 -1204 -1140 -1132 -2156 -2380 -2828 -2824 -904 -664 0
-1176 -1204 -1332 -1324 -2348 -2380 -2636 -2632 -712 -664 0
-2200 -2228 -2164 -2156 -1132 -1356 -1804 -1800 -904 -664 0
-2200 -2228 -2612 -2604 -812 -844 -1356 -1352 -1224 -1176 0
-2200 -2228 -2612 -2604 -812 -1804 -1356 -1352 -1224 -216 0
-344 -372 -2164 -2156 -2604 -3596 -1676 -1672 -1416 -408 0
-344 -372 -2164 -2156 -3116 -3212 -1676 -1672 -904 -792 0
-408 -436 -692 -684 -1580 -3596 -3148 -3144 -2376 -344 0
-792 -820 -692 -684 -2220 -2252 -3148 -3144 -1352 -1304 0
-792 -820 -1588 -1580 -1132 -3148 -2252 -2248 -2440 -408 0
-792 -820 -1588 -1580 -1196 -1228 -2252 -2248 -2376 -2328 0
-1304 -1332 -1140 -1132 -620 -716 -2700 -2696 -2440 -2328 0
-1304 -1332 -1588 -1580 -620 -2636 -2252 -2248 -2440 -408 0
-1304 -1332 -3124 -3116 -2156 -2252 -716 -712 -904 -792 0
-1304 -1332 -3124 -3116 -2220 -2700 -716 -712 -840 -344 0
-2328 -2356 -2164 -2156 -236 -1228 -1676 -1672 -1800 -792 0
-2328 -2356 -2228 -2220 -684 -716 -1612 -1608 -1352 -1304 0
-2328 -2356 -2612 -2604 -684 -716 -1228 -1224 -1352 -1304 0
-2328 -2356 -3124 -3116 -1132 -1228 -716 -712 -904 -792 0
-2328 -2356 -3124 -3116 -1132 -1612 -716 -712 -904 -408 0
-2328 -2356 -3124 -3116 -1196 -1676 -716 -712 -840 -344 0
-2328 -2356 -3124 -3116 -1580 -1676 -716 -712 -456 -344 0
-600 -628 -244 -236 -1196 -1420 -3340 -3336 -2824 -2584 0
-600 -628 -1140 -1132 -1196 -3212 -2444 -2440 -2824 -792 0
-600 -628 -1140 -1132 -3116 -3212 -2444 -2440 -904 -792 0
-600 -628 -2164 -2156 -3116 -3340 -1420 -1416 -904 -664 0
-664 -692 -2228 -2220 -2156 -3148 -1356 -1352 -1800 -792 0
-664 -692 -2228 -2220 -3116 -3148 -1356 -1352 -840 -792 0
-792 -820 -372 -364 -2156 -3148 -3212 -3208 -1672 -664 0
-792 -820 -2356 -2348 -3116 -3148 -1228 -1224 -712 -664 0
-1560 -1588 -3124 -3116 -2220 -2252 -460 -456 -840 -792 0
-2584 -2612 -2164 -2156 -236 -460 -1420 -1416 -1800 -1560 0
-2584 -2612 -2228 -2220 -428 -460 -1356 -1352 -1608 -1560 0
-2584 -2612 -2228 -2220 -428 -1420 -1356 -1352 -1608 -600 0
-2584 -2612 -2356 -2348 -1324 -1420 -1228 -1224 -712 -600 0
-1112 -1140 -372 -364 -428 -2444 -2700 -2696 -3592 -1560 0
-1112 -1140 -628 -620 -684 -2700 -2444 -2440 -3336 -1304 0
-1112 -1140 -628 -620 -812 -908 -2444 -2440 -3208 -3096 0
-1112 -1140 -2164 -2156 -2220 -2444 -908 -904 -1800 -1560 0
-1112 -1140 -2164 -2156 -2220 -2700 -908 -904 -1800 -1304 0
-1112 -1140 -2164 -2156 -2348 -2444 -908 -904 -1672 -1560 0
-1176 -1204 -2228 -2220 -2156 -2636 -844 -840 -1800 -1304 0
-1560 -1588 -2612 -2604 -2156 -2380 -460 -456 -1416 -1176 0
-3096 -3124 -2164 -2156 -236 -460 -908 -904 -1800 -1560 0
-3096 -3124 -2164 -2156 -620 -716 -908 -904 -1416 -1304 0
-3096 -3124 -2228 -2220 -428 -908 -844 -840 -1608 -1112 0
-3096 -3124 -2356 -2348 -812 -844 -716 -712 -1224 -1176 0
-2136 -2164 -244 -236 -428 -1420 -1804 -1800 -3592 -2584 0
-2136 -2164 -372 -364 -428 -1420 -1676 -1672 -3592 -2584 0
-2136 -2164 -372 -364 -812 -908 -1676 -1672 -3208 -3096 0
-2136 -2164 -628 -620 -684 -1676 -1420 -1416 -3336 -2328 0
-2136 -2164 -628 -620 -1580 -1804 -1420 -1416 -2440 -2200 0
-2136 -2164 -1140 -1132 -1196 -1676 -908 -904 -2824 -2328 0
-2200 -2228 -244 -236 -364 -1356 -1804 -1800 -3592 -2584 0
-2200 -2228 -244 -236 -620 -844 -1804 -1800 -3336 -3096 0
-2200 -2228 -244 -236 -620 -1612 -1804 -1800 -3336 -2328 0
-2200 -2228 -244 -236 -1132 -1356 -1804 -1800 -2824 -2584 0
-2200 -2228 -1204 -1196 -1324 -1804 -844 -840 -2632 -2136 0
-2200 -2228 -1204 -1196 -1580 -1804 -844 -840 -2376 -2136 0
-2328 -2356 -372 -364 -236 -1228 -1676 -1672 -3592 -2584 0
-2328 -2356 -372 -364 -1132 -1228 -1676 -1672 -2696 -2584 0
-2328 -2356 -436 -428 -1196 -1228 -1612 -1608 -2632 -2584 0
-2328 -2356 -436 -428 -1196 -1676 -1612 -1608 -2632 -2136 0
-2584 -2612 -1588 -1580 -1196 -1228 -460 -456 -2376 -2328 0
-3096 -3124 -1140 -1132 -236 -460 -908 -904 -2824 -2584 0
-3096 -3124 -1140 -1132 -364 -460 -908 -904 -2696 -2584 0
-3096 -3124 -1204 -1196 -684 -716 -844 -840 -2376 -2328 0
-3096 -3124 -1204 -1196 -684 -908 -844 -840 -2376 -2136 0
-3096 -3124 -1588 -1580 -684 -908 -460 -456 -2376 -2136 0
-232 -236 -428 -412 -1308 -1812 -3604 -3592 -2632 -2152 0
-232 -236 -684 -668 -796 -2836 -3348 -3336 -3144 -1128 0
-232 -236 -684 -668 -1564 -1812 -3348 -3336 -2376 -2152 0
-232 -236 -684 -668 -2588 -2836 -3348 -3336 -1352 -1128 0
-232 -236 -1196 -1180 -1308 -1812 -2836 -2824 -2632 -2152 0
-232 -236 -1196 -1180 -1564 -3604 -2836 -2824 -2376 -360 0
-232 -236 -1196 -1180 -3100 -3604 -2836 -2824 -840 -360 0
-360 -364 -1324 -1308 -1564 -3604 -2708 -2696 -2248 -232 0
-360 -364 -2348 -2332 -2204 -3220 -1684 -1672 -1608 -616 0
-360 -364 -2348 -2332 -2588 -2708 -1684 -1672 -1224 -1128 0
-616 -620 -684 -668 -1180 -3220 -3348 -3336 -2376 -360 0
-616 -620 -684 -668 -2204 -3220 -3348 -3336 -1352 -360 0
-616 -620 -812 -796 -412 -2452 -3220 -3208 -3144 -1128 0
-616 -620 -1580 -1564 -1308 -3348 -2452 -2440 -2248 -232 0
-616 -620 -2604 -2588 -2204 -2452 -1428 -1416 -1352 -1128 0
-1128 -1132 -1196 -1180 -2204 -2452 -2836 -2824 -840 -616 0
-1128 -1132 -1196 -1180 -2204 -2708 -2836 -2824 -840 -360 0
-1128 -1132 -1324 -1308 -2332 -2452 -2708 -2696 -712 -616 0
-1128 -1132 -1580 -1564 -796 -2836 -2452 -2440 -2248 -232 0
-1128 -1132 -3116 -3100 -2204 -2708 -916 -904 -840 -360 0
-1128 -1132 -3116 -3100 -2332 -2836 -916 -904 -712 -232 0
-2152 -2156 -2220 -2204 -412 -916 -1812 -1800 -1608 -1128 0
-2152 -2156 -2220 -2204 -668 -1684 -1812 -1800 -1352 -360 0
-2152 -2156 -3116 -3100 -1180 -1684 -916 -904 -840 -360 0
-2152 -2156 -3116 -3100 -1564 -1684 -916 -904 -456 -360 0
-232 -236 -620 -604 -1564 -3604 -3348 -3336 -2440 -424 0
-232 -236 -1132 -1116 -1308 -3348 -2836 -2824 -2696 -680 0
-232 -236 -2156 -2140 -3100 -3348 -1812 -1800 -904 -680 0
-424 -428 -2348 -2332 -3100 -3604 -1620 -1608 -712 -232 0
-680 -684 -2604 -2588 -2140 -3156 -1364 -1352 -1416 -424 0
-1192 -1196 -1132 -1116 -348 -2388 -2836 -2824 -2696 -680 0
-1192 -1196 -1580 -1564 -2588 -2644 -2388 -2376 -456 -424 0
-2216 -2220 -2156 -2140 -1116 -1364 -1812 -1800 -904 -680 0
-2216 -2220 -2156 -2140 -1116 -1620 -1812 -1800 -904 -424 0
-2216 -2220 -2604 -2588 -604 -852 -1364 -1352 -1416 -1192 0
-2216 -2220 -2604 -2588 -1564 -1812 -1364 -1352 -456 -232 0
-2216 -2220 -3116 -3100 -1116 -1364 -852 -840 -904 -680 0
-2216 -2220 -3116 -3100 -1564 -1812 -852 -840 -456 -232 0
-360 -364 -1132 -1116 -1180 -3220 -2708 -2696 -2824 -808 0
-360 -364 -2156 -2140 -2588 -2708 -1684 -1672 -1416 -1320 0
-360 -364 -2156 -2140 -3100 -3604 -1684 -1672 -904 -424 0
-424 -428 -236 -220 -604 -2644 -3604 -3592 -3336 -1320 0
-424 -428 -236 -220 -1116 -1620 -3604 -3592 -2824 -2344 0
-424 -428 -684 -668 -1564 -1620 -3156 -3144 -2376 -2344 0
-1320 -1324 -1580 -1564 -668 -2708 -2260 -2248 -2376 -360 0
-1320 -1324 -3116 -3100 -2588 -2644 -724 -712 -456 -424 0
-2344 -2348 -2156 -2140 -604 -724 -1684 -1672 -1416 -1320 0
-2344 -2348 -2604 -2588 -668 -724 -1236 -1224 -1352 -1320 0
-2344 -2348 -2604 -2588 -1564 -1620 -1236 -1224 -456 -424 0
-2344 -2348 -3116 -3100 -1116 -1620 -724 -712 -904 -424 0
-616 -620 -2156 -2140 -2204 -3220 -1428 -1416 -1800 -808 0
-616 -620 -2156 -2140 -2332 -3348 -1428 -1416 -1672 -680 0
-616 -620 -2156 -2140 -3100 -3348 -1428 -1416 -904 -680 0
-680 -684 -428 -412 -2332 -3348 -3156 -3144 -1608 -616 0
-680 -684 -2220 -2204 -2332 -3348 -1364 -1352 -1608 -616 0
-808 -812 -364 -348 -1116 -3156 -3220 -3208 -2696 -680 0
-808 -812 -2348 -2332 -2140 -3156 -1236 -1224 -1672 -680 0
-1576 -1580 -1196 -1180 -220 -2260 -2388 -2376 -2824 -808 0
-1576 -1580 -1196 -1180 -412 -2452 -2388 -2376 -2632 -616 0
-1576 -1580 -1196 -1180 -2204 -2260 -2388 -2376 -840 -808 0
-1576 -1580 -3116 -3100 -2204 -2452 -468 -456 -840 -616 0
-2600 -2604 -2220 -2204 -1180 -1236 -1364 -1352 -840 -808 0
-2600 -2604 -2348 -2332 -348 -468 -1236 -1224 -1672 -1576 0
-2600 -2604 -2348 -2332 -348 -1364 -1236 -1224 -1672 -680 0
-2600 -2604 -3116 -3100 -1308 -1428 -468 -456 -712 -616 0
-1128 -1132 -236 -220 -412 -916 -2836 -2824 -3592 -3112 0
-1128 -1132 -236 -220 -668 -916 -2836 -2824 -3336 -3112 0
-1128 -1132 -620 -604 -668 -916 -2452 -2440 -3336 -3112 0
-1128 -1132 -620 -604 -668 -2708 -2452 -2440 -3336 -1320 0
-1128 -1132 -620 -604 -796 -2836 -2452 -2440 -3208 -1192 0
-1192 -1196 -236 -220 -348 -852 -2836 -2824 -3592 -3112 0
-1192 -1196 -236 -220 -348 -2388 -2836 -2824 -3592 -1576 0
-1192 -1196 -684 -668 -604 -852 -2388 -2376 -3336 -3112 0
-1320 -1324 -364 -348 -2140 -2260 -2708 -2696 -1672 -1576 0
-1576 -1580 -812 -796 -2332 -2388 -2260 -2248 -1224 -1192 0
-1576 -1580 -2604 -2588 -2140 -2388 -468 -456 -1416 -1192 0
-3112 -3116 -2220 -2204 -220 -724 -852 -840 -1800 -1320 0
-3112 -3116 -2220 -2204 -668 -724 -852 -840 -1352 -1320 0
-3112 -3116 -2348 -2332 -412 -468 -724 -712 -1608 -1576 0
-3112 -3116 -2348 -2332 -796 -916 -724 -712 -1224 -1128 0
-3112 -3116 -2604 -2588 -668 -724 -468 -456 -1352 -1320 0
-3112 -3116 -2604 -2588 -796 -916 -468 -456 -1224 -1128 0
-2152 -2156 -236 -220 -668 -1684 -1812 -1800 -3336 -2344 0
-2152 -2156 -620 -604 -668 -916 -1428 -1416 -3336 -3112 0
-2152 -2156 -1132 -1116 -1180 -1684 -916 -904 -2824 -2344 0
-2344 -2348 -428 -412 -220 -1236 -1620 -1608 -3592 -2600 0
-2344 -2348 -1324 -1308 -1564 -1620 -724 -712 -2248 -2216 0
-2600 -2604 -812 -796 -348 -468 -1236 -1224 -3208 -3112 0
-2600 -2604 -812 -796 -412 -468 -1236 -1224 -3144 -3112 0
-3112 -3116 -1196 -1180 -668 -916 -852 -840 -2376 -2152 0
-3112 -3116 -1580 -1564 -604 -724 -468 -456 -2440 -2344 0
-3112 -3116 -1580 -1564 -796 -916 -468 -456 -2248 -2152 0
-232 -244 -2228 -2204 -2588 -2828 -1804 -1800 -1352 -1128 0
-232 -244 -2228 -2204 -2588 -3596 -1804 -1800 -1352 -360 0
-232 -244 -2228 -2204 -3100 -3340 -1804 -1800 -840 -616 0
-360 -372 -1332 -1308 -1564 -3596 -2700 -2696 -2248 -232 0
-360 -372 -2356 -2332 -3100 -3212 -1676 -1672 -712 -616 0
-616 -628 -692 -668 -412 -1420 -3340 -3336 -3144 -2152 0
-616 -628 -1588 -1564 -1180 -3212 -2444 -2440 -2376 -360 0
-1128 -1140 -1204 -1180 -2204 -2444 -2828 -2824 -840 -616 0
-1128 -1140 -1332 -1308 -412 -2444 -2700 -2696 -2632 -616 0
-1128 -1140 -3124 -3100 -2204 -2700 -908 -904 -840 -360 0
-2152 -2164 -2228 -2204 -1180 -1420 -1804 -1800 -840 -616 0
-2152 -2164 -2228 -2204 -1180 -1676 -1804 -1800 -840 -360 0
-232 -244 -1140 -1116 -1308 -1804 -2828 -2824 -2696 -2216 0
-232 -244 -1140 -1116 -3100 -3596 -2828 -2824 -904 -424 0
-232 -244 -2164 -2140 -3100 -3340 -1804 -1800 -904 -680 0
-232 -244 -2164 -2140 -3100 -3596 -1804 -1800 -904 -424 0
-680 -692 -1588 -1564 -1116 -3148 -2380 -2376 -2440 -424 0
-680 -692 -1588 -1564 -1308 -3340 -2380 -2376 -2248 -232 0
-1192 -1204 -1140 -1116 -348 -2380 -2828 -2824 -2696 -680 0
-1192 -1204 -1140 -1116 -2140 -2636 -2828 -2824 -904 -424 0
-1192 -1204 -3124 -3100 -2588 -2828 -844 -840 -456 -232 0
-2216 -2228 -2164 -2140 -604 -1612 -1804 -1800 -1416 -424 0
-2216 -2228 -2612 -2588 -1564 -1804 -1356 -1352 -456 -232 0
-2216 -2228 -3124 -3100 -1116 -1612 -844 -840 -904 -424 0
-360 -372 -244 -220 -2204 -2700 -3596 -3592 -1800 -1320 0
-360 -372 -1140 -1116 -3100 -3596 -2700 -2696 -904 -424 0
-360 -372 -2164 -2140 -2204 -2700 -1676 -1672 -1800 -1320 0
-360 -372 -2164 -2140 -2204 -3212 -1676 -1672 -1800 -808 0
-360 -372 -2164 -2140 -3100 -3596 -1676 -1672 -904 -424 0
-424 -436 -244 -220 -604 -2636 -3596 -3592 -3336 -1320 0
-424 -436 -2228 -2204 -2140 -2636 -1612 -1608 -1800 -1320 0
-808 -820 -628 -604 -220 -2252 -3212 -3208 -3336 -1320 0
-808 -820 -628 -604 -1116 -3148 -3212 -3208 -2440 -424 0
-808 -820 -628 -604 -2140 -2252 -3212 -3208 -1416 -1320 0
-808 -820 -628 -604 -2140 -3148 -3212 -3208 -1416 -424 0
-808 -820 -692 -668 -1180 -3212 -3148 -3144 -2376 -360 0
-808 -820 -1588 -1564 -1116 -1228 -2252 -2248 -2440 -2344 0
-808 -820 -2612 -2588 -2204 -3212 -1228 -1224 -1352 -360 0
-1320 -1332 -1140 -1116 -220 -2252 -2700 -2696 -2824 -808 0
-1320 -1332 -1204 -1180 -668 -716 -2636 -2632 -2376 -2344 0
-1320 -1332 -3124 -3100 -2140 -2252 -716 -712 -904 -808 0
-1320 -1332 -3124 -3100 -2140 -2636 -716 -712 -904 -424 0
-1320 -1332 -3124 -3100 -2588 -2636 -716 -712 -456 -424 0
-2344 -2356 -2228 -2204 -220 -716 -1612 -1608 -1800 -1320 0
-2344 -2356 -2612 -2588 -1564 -1676 -1228 -1224 -456 -360 0
-2344 -2356 -3124 -3100 -1564 -1676 -716 -712 -456 -360 0
-616 -628 -1140 -1116 -3100 -3212 -2444 -2440 -904 -808 0
-680 -692 -2228 -2204 -2140 -3148 -1356 -1352 -1800 -808 0
-808 -820 -372 -348 -220 -2252 -3212 -3208 -3592 -1576 0
-808 -820 -372 -348 -2140 -3148 -3212 -3208 -1672 -680 0
-808 -820 -1332 -1308 -1116 -1228 -2252 -2248 -2696 -2600 0
-808 -820 -1332 -1308 -3100 -3148 -2252 -2248 -712 -680 0
-1576 -1588 -1140 -1116 -220 -2252 -2444 -2440 -2824 -808 0
-1576 -1588 -1140 -1116 -348 -460 -2444 -2440 -2696 -2600 0
-1576 -1588 -1204 -1180 -2204 -2252 -2380 -2376 -840 -808 0
-1576 -1588 -1332 -1308 -412 -460 -2252 -2248 -2632 -2600 0
-1576 -1588 -3124 -3100 -2140 -2380 -460 -456 -904 -680 0
-1576 -1588 -3124 -3100 -2204 -2252 -460 -456 -840 -808 0
-2600 -2612 -2164 -2140 -220 -1228 -1420 -1416 -1800 -808 0
-2600 -2612 -2164 -2140 -1116 -1228 -1420 -1416 -904 -808 0
-2600 -2612 -2356 -2332 -1308 -1356 -1228 -1224 -712 -680 0
-2600 -2612 -3124 -3100 -1308 -1356 -460 -456 -712 -680 0
-1128 -1140 -244 -220 -412 -2444 -2828 -2824 -3592 -1576 0
-1128 -1140 -628 -604 -796 -908 -2444 -2440 -3208 -3112 0
-1128 -1140 -2164 -2140 -2204 -2444 -908 -904 -1800 -1576 0
-1128 -1140 -2164 -2140 -2204 -2700 -908 -904 -1800 -1320 0
-1128 -1140 -2164 -2140 -2588 -2700 -908 -904 -1416 -1320 0
-1192 -1204 -244 -220 -348 -2380 -2828 -2824 -3592 -1576 0
-1192 -1204 -244 -220 -604 -2636 -2828 -2824 -3336 -1320 0
-1192 -1204 -2228 -2204 -2140 -2636 -844 -840 -1800 -1320 0
-1320 -1332 -2356 -2332 -2140 -2636 -716 -712 -1672 -1192 0
-1320 -1332 -2356 -2332 -2588 -2700 -716 -712 -1224 -1128 0
-1576 -1588 -692 -668 -412 -2444 -2380 -2376 -3144 -1128 0
-1576 -1588 -820 -796 -348 -2380 -2252 -2248 -3208 -1192 0
-1576 -1588 -2612 -2588 -2140 -2380 -460 -456 -1416 -1192 0
-1576 -1588 -2612 -2588 -2204 -2252 -460 -456 -1352 -1320 0
-1576 -1588 -2612 -2588 -2204 -2444 -460 -456 -1352 -1128 0
-1576 -1588 -2612 -2588 -2332 -2444 -460 -456 -1224 -1128 0
-3112 -3124 -2164 -2140 -220 -460 -908 -904 -1800 -1576 0
-3112 -3124 -2228 -2204 -412 -908 -844 -840 -1608 -1128 0
-3112 -3124 -2612 -2588 -668 -908 -460 -456 -1352 -1128 0
-2152 -2164 -244 -220 -1180 -1420 -1804 -1800 -2824 -2600 0
-2152 -2164 -372 -348 -412 -908 -1676 -1672 -3592 -3112 0
-2152 -2164 -372 -348 -796 -1804 -1676 -1672 -3208 -2216 0
-2152 -2164 -628 -604 -796 -1804 -1420 -1416 -3208 -2216 0
-2152 -2164 -1140 -1116 -1180 -1676 -908 -904 -2824 -2344 0
-2152 -2164 -1140 -1116 -1564 -1676 -908 -904 -2440 -2344 0
-2152 -2164 -1140 -1116 -1564 -1804 -908 -904 -2440 -2216 0
-2216 -2228 -244 -220 -604 -1612 -1804 -1800 -3336 -2344 0
-2216 -2228 -692 -668 -604 -844 -1356 -1352 -3336 -3112 0
-2216 -2228 -692 -668 -1564 -1612 -1356 -1352 -2376 -2344 0
-3112 -3124 -1140 -1116 -220 -716 -908 -904 -2824 -2344 0
-3112 -3124 -1588 -1564 -604 -716 -460 -456 -2440 -2344 0
-400 -412 -1308 -1812 -1588 -3620 -2660 -2152 -2248 -208 0
-656 -668 -1180 -1428 -1332 -1380 -2404 -2152 -2632 -2576 0
-2576 -2588 -2140 -3156 -1140 -1252 -1444 -424 -904 -784 0
-2576 -2588 -2204 -3220 -1204 -1444 -1380 -360 -840 -592 0
-2576 -2588 -3100 -3156 -1140 -1252 -484 -424 -904 -784 0
-3088 -3100 -2204 -2708 -692 -932 -868 -360 -1352 -1104 0
-1104 -1132 -1324 -1444 -436 -2452 -2708 -2584 -2632 -592 0
-400 -428 -2348 -2404 -2164 -3156 -1620 -1560 -1672 -656 0
-336 -364 -1132 -1252 -1204 -3220 -2708 -2584 -2824 -784 0
-2576 -2604 -2220 -3236 -1204 -1428 -1364 -344 -840 -592 0
-2584 -2588 -668 -716 -236 -484 -1380 -1320 -3336 -3096 0
-2328 -2356 -2164 -2276 -236 -716 -1676 -1552 -1800 -1304 0
-1192 -1196 -1324 -3340 -2332 -2388 -2644 -600 -712 -680 0
-424 -428 -684 -1676 -1564 -1620 -3156 -2136 -2376 -2344 0
-1320 -1324 -1196 -3212 -2204 -2260 -2644 -600 -840 -808 0
-680 -684 -1196 -1228 -1116 -3156 -2388 -2328 -2824 -808 0
-1192 -1196 -236 -460 -348 -2388 -2836 -2584 -3592 -1576 0
-2216 -2220 -684 -1676 -1564 -1812 -1364 -344 -2376 -2152 0
-360 -372 -820 -1812 -1564 -3596 -3212 -2192 -2248 -232 0
-1320 -1332 -820 -852 -604 -716 -2252 -2192 -3208 -3112 0
-208 -220 -668 -916 -2836 -2852 -3364 -3112 -1128 -1104 0
-208 -220 -668 -1684 -1812 -1828 -3364 -2344 -2152 -2128 0
-336 -348 -2332 -2452 -3220 -3236 -1700 -1576 -616 -592 0
-592 -604 -668 -916 -1428 -1444 -3364 -3112 -2152 -2128 0
-592 -604 -796 -916 -2452 -2468 -3236 -3112 -1128 -1104 0
-592 -604 -796 -1812 -1428 -1444 -3236 -2216 -2152 -2128 0
-1104 -1116 -1180 -1684 -916 -932 -2852 -2344 -2152 -2128 0
-1104 -1116 -1308 -1428 -2452 -2468 -2724 -2600 -616 -592 0
-2128 -2140 -2588 -2836 -1812 -1828 -1444 -1192 -232 -208 0
-2128 -2140 -3100 -3348 -1812 -1828 -932 -680 -232 -208 0
-208 -220 -604 -2644 -2836 -2852 -3364 -1320 -1192 -1168 0
-400 -412 -1308 -1364 -3156 -3172 -2660 -2600 -680 -656 0
-656 -668 -796 -1812 -1364 -1380 -3172 -2152 -2216 -2192 0
-656 -668 -796 -1812 -3348 -3364 -3172 -2152 -232 -208 0
-656 -668 -796 -2836 -3348 -3364 -3172 -1128 -232 -208 0
-656 -668 -1564 -1812 -1364 -1380 -2404 -2152 -2216 -2192 0
-656 -668 -1564 -1812 -3348 -3364 -2404 -2152 -232 -208 0
-656 -668 -1564 -3604 -3348 -3364 -2404 -360 -232 -208 0
-656 -668 -2588 -3604 -3348 -3364 -1380 -360 -232 -208 0
-2192 -2204 -2332 -2836 -852 -868 -1636 -1128 -1192 -1168 0
-2192 -2204 -2332 -2836 -1812 -1828 -1636 -1128 -232 -208 0
-336 -348 -220 -724 -1684 -1700 -3620 -3112 -2344 -2320 0
-336 -348 -1116 -1236 -1684 -1700 -2724 -2600 -2344 -2320 0
-784 -796 -668 -2708 -2260 -2276 -3172 -1128 -1320 -1296 0
-784 -796 -1564 -1620 -3156 -3172 -2276 -2216 -424 -400 0
-1296 -1308 -3100 -3220 -2260 -2276 -740 -616 -808 -784 0
-2320 -2332 -2140 -2644 -724 -740 -1700 -1192 -1320 -1296 0
-2320 -2332 -3100 -3220 -1684 -1700 -740 -616 -360 -336 0
-592 -604 -220 -468 -2452 -2468 -3364 -3112 -1576 -1552 0
-592 -604 -348 -468 -1428 -1444 -3236 -3112 -2600 -2576 0
-592 -604 -348 -468 -2452 -2468 -3236 -3112 -1576 -1552 0
-592 -604 -1116 -1236 -3220 -3236 -2468 -2344 -808 -784 0
-592 -604 -2140 -2388 -3348 -3364 -1444 -1192 -680 -656 0
-592 -604 -2140 -3156 -3220 -3236 -1444 -424 -808 -784 0
-656 -668 -412 -1428 -3348 -3364 -3172 -2152 -616 -592 0
-656 -668 -2204 -2260 -2388 -2404 -1380 -1320 -1576 -1552 0
-784 -796 -1308 -1428 -1236 -1252 -2276 -2152 -2600 -2576 0
-1552 -1564 -1180 -1236 -2260 -2276 -2404 -2344 -808 -784 0
-1552 -1564 -1308 -1364 -468 -484 -2276 -2216 -2600 -2576 0
-1552 -1564 -1308 -1428 -468 -484 -2276 -2152 -2600 -2576 0
-1552 -1564 -1308 -3348 -2388 -2404 -2276 -232 -680 -656 0
-1552 -1564 -1308 -3348 -2452 -2468 -2276 -232 -616 -592 0
-1552 -1564 -3100 -3220 -2260 -2276 -484 -360 -808 -784 0
-2576 -2588 -2140 -2260 -468 -484 -1444 -1320 -1576 -1552 0
-2576 -2588 -2140 -2388 -1364 -1380 -1444 -1192 -680 -656 0
-2576 -2588 -2204 -2260 -468 -484 -1380 -1320 -1576 -1552 0
-2576 -2588 -2204 -2260 -1236 -1252 -1380 -1320 -808 -784 0
-2576 -2588 -2204 -2452 -468 -484 -1380 -1128 -1576 -1552 0
-2576 -2588 -2332 -2388 -468 -484 -1252 -1192 -1576 -1552 0
-2576 -2588 -2332 -2452 -468 -484 -1252 -1128 -1576 -1552 0
-2576 -2588 -3100 -3156 -1364 -1380 -484 -424 -680 -656 0
-2576 -2588 -3100 -3220 -1428 -1444 -484 -360 -616 -592 0
-1104 -1116 -220 -468 -916 -932 -2852 -2600 -3112 -3088 0
-1104 -1116 -348 -468 -916 -932 -2724 -2600 -3112 -3088 0
-1104 -1116 -604 -724 -916 -932 -2468 -2344 -3112 -3088 0
-1104 -1116 -604 -2644 -2836 -2852 -2468 -424 -1192 -1168 0
-1104 -1116 -2140 -2644 -2836 -2852 -932 -424 -1192 -1168 0
-1168 -1180 -220 -724 -852 -868 -2852 -2344 -3112 -3088 0
-1168 -1180 -412 -916 -2836 -2852 -2660 -2152 -1128 -1104 0
-1168 -1180 -668 -916 -2836 -2852 -2404 -2152 -1128 -1104 0
-1168 -1180 -668 -2708 -2644 -2660 -2404 -360 -1320 -1296 0
-1168 -1180 -2204 -2452 -2836 -2852 -868 -616 -1128 -1104 0
-1296 -1308 -412 -916 -724 -740 -2660 -2152 -3112 -3088 0
-1296 -1308 -412 -2452 -2260 -2276 -2660 -616 -1576 -1552 0
-1296 -1308 -412 -2452 -2708 -2724 -2660 -616 -1128 -1104 0
-1296 -1308 -796 -916 -724 -740 -2276 -2152 -3112 -3088 0
-1296 -1308 -2332 -2388 -2260 -2276 -740 -680 -1576 -1552 0
-1552 -1564 -604 -724 -468 -484 -2468 -2344 -3112 -3088 0
-1552 -1564 -796 -852 -468 -484 -2276 -2216 -3112 -3088 0
-3088 -3100 -2204 -2260 -468 -484 -868 -808 -1576 -1552 0
-3088 -3100 -2204 -2452 -468 -484 -868 -616 -1576 -1552 0
-3088 -3100 -2588 -2708 -724 -740 -484 -360 -1320 -1296 0
-2128 -2140 -220 -724 -916 -932 -1828 -1320 -3112 -3088 0
-2128 -2140 -348 -852 -1812 -1828 -1700 -1192 -2216 -2192 0
-2128 -2140 -348 -1364 -1428 -1444 -1700 -680 -2600 -2576 0
-2192 -2204 -220 -1236 -1364 -1380 -1828 -808 -2600 -2576 0
-2192 -2204 -412 -916 -1812 -1828 -1636 -1128 -2152 -2128 0
-2192 -2204 -668 -1684 -1620 -1636 -1380 -360 -2344 -2320 0
-2192 -2204 -668 -1684 -1812 -1828 -1380 -360 -2152 -2128 0
-2192 -2204 -1180 -1428 -1364 -1380 -868 -616 -2600 -2576 0
-2320 -2332 -348 -468 -724 -740 -1700 -1576 -3112 -3088 0
-2320 -2332 -348 -852 -724 -740 -1700 -1192 -3112 -3088 0
-2320 -2332 -796 -916 -724 -740 -1252 -1128 -3112 -3088 0
-2320 -2332 -1308 -1364 -1236 -1252 -740 -680 -2600 -2576 0
-2320 -2332 -1308 -1428 -1684 -1700 -740 -616 -2152 -2128 0
-2576 -2588 -604 -852 -468 -484 -1444 -1192 -3112 -3088 0
-2576 -2588 -796 -852 -468 -484 -1252 -1192 -3112 -3088 0
-2576 -2588 -1564 -1812 -1428 -1444 -484 -232 -2152 -2128 0
-3088 -3100 -1308 -1364 -468 -484 -740 -680 -2600 -2576 0
-3088 -3100 -1308 -1364 -852 -868 -740 -680 -2216 -2192 0
-3088 -3100 -1308 -1428 -916 -932 -740 -616 -2152 -2128 0
-3088 -3100 -1564 -1684 -724 -740 -484 -360 -2344 -2320 0
-3088 -3100 -1564 -1812 -916 -932 -484 -232 -2152 -2128 0
-208 -236 -428 -932 -1828 -1812 -3604 -3096 -2136 -2128 0
-208 -236 -428 -1444 -1828 -1812 -3604 -2584 -2136 -2128 0
-208 -236 -684 -932 -1828 -1812 -3348 -3096 -2136 -2128 0
-208 -236 -1196 -1444 -1828 -1812 -2836 -2584 -2136 -2128 0
-208 -236 -1196 -1700 -1828 -1812 -2836 -2328 -2136 -2128 0
-208 -236 -2220 -2468 -2852 -2836 -1812 -1560 -1112 -1104 0
-208 -236 -2220 -2724 -2852 -2836 -1812 -1304 -1112 -1104 0
-336 -364 -812 -2852 -2724 -2708 -3220 -1176 -1112 -1104 0
-336 -364 -2348 -2852 -2724 -2708 -1684 -1176 -1112 -1104 0
-592 -620 -812 -932 -2468 -2452 -3220 -3096 -1112 -1104 0
-592 -620 -812 -1828 -1444 -1428 -3220 -2200 -2136 -2128 0
-592 -620 -1580 -1700 -3236 -3220 -2452 -2328 -344 -336 0
-592 -620 -2604 -2852 -2468 -2452 -1428 -1176 -1112 -1104 0
-592 -620 -2604 -2852 -3364 -3348 -1428 -1176 -216 -208 0
-1104 -1132 -1580 -1700 -2724 -2708 -2452 -2328 -344 -336 0
-2128 -2156 -2348 -2852 -1828 -1812 -1684 -1176 -216 -208 0
-208 -236 -620 -1636 -1828 -1812 -3348 -2328 -2200 -2192 0
-208 -236 -2156 -2404 -2852 -2836 -1812 -1560 -1176 -1168 0
-208 -236 -2156 -2660 -2852 -2836 -1812 -1304 -1176 -1168 0
-656 -684 -812 -868 -2404 -2388 -3156 -3096 -1176 -1168 0
-656 -684 -812 -1828 -3364 -3348 -3156 -2136 -216 -208 0
-656 -684 -812 -2852 -3364 -3348 -3156 -1112 -216 -208 0
-656 -684 -1580 -1828 -3364 -3348 -2388 -2136 -216 -208 0
-656 -684 -2604 -2660 -2404 -2388 -1364 -1304 -1176 -1168 0
-656 -684 -2604 -2660 -3172 -3156 -1364 -1304 -408 -400 0
-656 -684 -2604 -3620 -3172 -3156 -1364 -344 -408 -400 0
-1168 -1196 -1324 -1380 -868 -852 -2644 -2584 -2200 -2192 0
-1168 -1196 -1580 -1828 -868 -852 -2388 -2136 -2200 -2192 0
-1168 -1196 -1580 -1828 -2852 -2836 -2388 -2136 -216 -208 0
-1168 -1196 -1580 -3620 -2660 -2644 -2388 -344 -408 -400 0
-2192 -2220 -2156 -2404 -1380 -1364 -1812 -1560 -664 -656 0
-2192 -2220 -2348 -2404 -868 -852 -1620 -1560 -1176 -1168 0
-2192 -2220 -2348 -2852 -1828 -1812 -1620 -1112 -216 -208 0
-2192 -2220 -2604 -2660 -868 -852 -1364 -1304 -1176 -1168 0
-2192 -2220 -3116 -3364 -1828 -1812 -852 -600 -216 -208 0
-336 -364 -236 -740 -2724 -2708 -3604 -3096 -1304 -1296 0
-336 -364 -620 -740 -1700 -1684 -3220 -3096 -2328 -2320 0
-400 -428 -1196 -3236 -3172 -3156 -2644 -600 -792 -784 0
-784 -812 -684 -2724 -2276 -2260 -3156 -1112 -1304 -1296 0
-1296 -1324 -1132 -1252 -2276 -2260 -2708 -2584 -792 -784 0
-1296 -1324 -1196 -1252 -2276 -2260 -2644 -2584 -792 -784 0
-1296 -1324 -1580 -3620 -2724 -2708 -2260 -216 -344 -336 0
-1296 -1324 -3116 -3620 -2660 -2644 -724 -216 -408 -400 0
-2320 -2348 -2156 -2276 -740 -724 -1684 -1560 -1304 -1296 0
-2320 -2348 -2156 -2276 -1252 -1236 -1684 -1560 -792 -784 0
-2320 -2348 -2156 -2660 -740 -724 -1684 -1176 -1304 -1296 0
-592 -620 -236 -484 -1444 -1428 -3348 -3096 -2584 -2576 0
-592 -620 -2156 -2276 -2468 -2452 -1428 -1304 -1560 -1552 0
-592 -620 -2156 -2276 -3236 -3220 -1428 -1304 -792 -784 0
-656 -684 -236 -484 -1380 -1364 -3348 -3096 -2584 -2576 0
-656 -684 -236 -1252 -1380 -1364 -3348 -2328 -2584 -2576 0
-656 -684 -236 -2276 -3172 -3156 -3348 -1304 -792 -784 0
-656 -684 -1196 -1252 -3172 -3156 -2388 -2328 -792 -784 0
-784 -812 -364 -2404 -3172 -3156 -3220 -1176 -664 -656 0
-784 -812 -428 -484 -2276 -2260 -3156 -3096 -1560 -1552 0
-1104 -1132 -620 -2660 -2724 -2708 -2452 -408 -1304 -1296 0
-1104 -1132 -2156 -2404 -2852 -2836 -916 -664 -1176 -1168 0
-1104 -1132 -2156 -2660 -2724 -2708 -916 -408 -1304 -1296 0
-1168 -1196 -236 -2276 -2404 -2388 -2836 -792 -1560 -1552 0
-1168 -1196 -2220 -2724 -2660 -2644 -852 -344 -1304 -1296 0
-1552 -1580 -620 -740 -484 -468 -2452 -2328 -3096 -3088 0
-1552 -1580 -620 -2660 -2404 -2388 -2452 -408 -1176 -1168 0
-1552 -1580 -684 -2724 -2276 -2260 -2388 -344 -1304 -1296 0
-1552 -1580 -812 -868 -484 -468 -2260 -2200 -3096 -3088 0
-1552 -1580 -2604 -2660 -2276 -2260 -468 -408 -1304 -1296 0
-1552 -1580 -2604 -2724 -2276 -2260 -468 -344 -1304 -1296 0
-3088 -3116 -2156 -2276 -740 -724 -916 -792 -1304 -1296 0
-3088 -3116 -2156 -2660 -868 -852 -916 -408 -1176 -1168 0
-3088 -3116 -2220 -2276 -740 -724 -852 -792 -1304 -1296 0
-3088 -3116 -2220 -2468 -484 -468 -852 -600 -1560 -1552 0
-3088 -3116 -2220 -2468 -932 -916 -852 -600 -1112 -1104 0
-3088 -3116 -2220 -2724 -740 -724 -852 -344 -1304 -1296 0
-3088 -3116 -2348 -2852 -932 -916 -724 -216 -1112 -1104 0
-2128 -2156 -364 -484 -932 -916 -1684 -1560 -3096 -3088 0
-2128 -2156 -364 -868 -932 -916 -1684 -1176 -3096 -3088 0
-2128 -2156 -620 -868 -1828 -1812 -1428 -1176 -2200 -2192 0
-2128 -2156 -620 -1636 -1700 -1684 -1428 -408 -2328 -2320 0
-2128 -2156 -1132 -1380 -1828 -1812 -916 -664 -2200 -2192 0
-2192 -2220 -236 -740 -1636 -1620 -1812 -1304 -2328 -2320 0
-2192 -2220 -684 -1700 -1828 -1812 -1364 -344 -2136 -2128 0
-2192 -2220 -1196 -1700 -1828 -1812 -852 -344 -2136 -2128 0
-2320 -2348 -364 -868 -740 -724 -1684 -1176 -3096 -3088 0
-2320 -2348 -428 -484 -740 -724 -1620 -1560 -3096 -3088 0
-2320 -2348 -812 -868 -740 -724 -1236 -1176 -3096 -3088 0
-2320 -2348 -812 -932 -740 -724 -1236 -1112 -3096 -3088 0
-2576 -2604 -620 -740 -1252 -1236 -1428 -1304 -2328 -2320 0
-2576 -2604 -684 -740 -484 -468 -1364 -1304 -3096 -3088 0
-2576 -2604 -684 -1700 -1252 -1236 -1364 -344 -2328 -2320 0
-2576 -2604 -684 -1700 -1444 -1428 -1364 -344 -2136 -2128 0
-3088 -3116 -1580 -1828 -868 -852 -468 -216 -2200 -2192 0
-216 -220 -668 -1676 -1804 -1828 -3364 -2344 -2152 -2136 0
-216 -220 -1180 -1420 -1804 -1828 -2852 -2600 -2152 -2136 0
-216 -220 -2204 -2700 -3596 -3620 -1828 -1320 -360 -344 0
-344 -348 -412 -908 -2700 -2724 -3620 -3112 -1128 -1112 0
-344 -348 -1308 -3340 -3212 -3236 -2724 -680 -616 -600 0
-344 -348 -2332 -2444 -2700 -2724 -1700 -1576 -1128 -1112 0
-600 -604 -796 -908 -1420 -1444 -3236 -3112 -2152 -2136 0
-600 -604 -796 -1804 -1420 -1444 -3236 -2216 -2152 -2136 0
-600 -604 -1564 -3596 -3340 -3364 -2468 -424 -232 -216 0
-600 -604 -2588 -2700 -2444 -2468 -1444 -1320 -1128 -1112 0
-2136 -2140 -2332 -2828 -908 -932 -1700 -1192 -1128 -1112 0
-2136 -2140 -2332 -2828 -1804 -1828 -1700 -1192 -232 -216 0
-2136 -2140 -2332 -3340 -1804 -1828 -1700 -680 -232 -216 0
-2136 -2140 -2588 -2828 -1804 -1828 -1444 -1192 -232 -216 0
-2136 -2140 -3100 -3596 -1804 -1828 -932 -424 -232 -216 0
-216 -220 -348 -844 -2828 -2852 -3620 -3112 -1192 -1176 0
-216 -220 -348 -2380 -3340 -3364 -3620 -1576 -680 -664 0
-216 -220 -604 -1612 -1804 -1828 -3364 -2344 -2216 -2200 0
-216 -220 -604 -1612 -3596 -3620 -3364 -2344 -424 -408 0
-664 -668 -796 -1804 -3340 -3364 -3172 -2152 -232 -216 0
-1176 -1180 -1116 -1356 -2380 -2404 -2852 -2600 -680 -664 0
-2200 -2204 -2332 -3340 -1356 -1380 -1636 -616 -680 -664 0
-2200 -2204 -3100 -3596 -1804 -1828 -868 -360 -232 -216 0
-344 -348 -220 -716 -1676 -1700 -3620 -3112 -2344 -2328 0
-344 -348 -1116 -1228 -1676 -1700 -2724 -2600 -2344 -2328 0
-344 -348 -1116 -3148 -3212 -3236 -2724 -680 -808 -792 0
-344 -348 -2140 -2636 -2700 -2724 -1700 -1192 -1320 -1304 0
-408 -412 -668 -2700 -3596 -3620 -3172 -1128 -360 -344 0
-408 -412 -2204 -2700 -3596 -3620 -1636 -1128 -360 -344 0
-792 -796 -604 -716 -2252 -2276 -3236 -3112 -1320 -1304 0
-792 -796 -668 -716 -1228 -1252 -3172 -3112 -2344 -2328 0
-792 -796 -668 -716 -2252 -2276 -3172 -3112 -1320 -1304 0
-792 -796 -668 -2700 -2252 -2276 -3172 -1128 -1320 -1304 0
-792 -796 -1564 -1676 -3212 -3236 -2276 -2152 -360 -344 0
-792 -796 -1564 -3596 -3148 -3172 -2276 -232 -424 -408 0
-792 -796 -2588 -2636 -2252 -2276 -1252 -1192 -1320 -1304 0
-792 -796 -2588 -2700 -2252 -2276 -1252 -1128 -1320 -1304 0
-1304 -1308 -1180 -1228 -2252 -2276 -2660 -2600 -808 -792 0
-1304 -1308 -1180 -1676 -2700 -2724 -2660 -2152 -360 -344 0
-1304 -1308 -1564 -1676 -716 -740 -2276 -2152 -2344 -2328 0
-1304 -1308 -1564 -3596 -2636 -2660 -2276 -232 -424 -408 0
-2328 -2332 -2204 -2252 -716 -740 -1636 -1576 -1320 -1304 0
-2328 -2332 -3100 -3212 -1676 -1700 -740 -616 -360 -344 0
-2328 -2332 -3100 -3596 -1676 -1700 -740 -232 -360 -344 0
-600 -604 -220 -460 -2444 -2468 -3364 -3112 -1576 -1560 0
-600 -604 -220 -1228 -1420 -1444 -3364 -2344 -2600 -2584 0
-600 -604 -220 -2252 -2444 -2468 -3364 -1320 -1576 -1560 0
-600 -604 -348 -1356 -1420 -1444 -3236 -2216 -2600 -2584 0
-600 -604 -1116 -1228 -1420 -1444 -2468 -2344 -2600 -2584 0
-600 -604 -1116 -3148 -3212 -3236 -2468 -424 -808 -792 0
-600 -604 -2140 -3148 -3212 -3236 -1444 -424 -808 -792 0
-600 -604 -2140 -3148 -3340 -3364 -1444 -424 -680 -664 0
-664 -668 -220 -1228 -1356 -1380 -3364 -2344 -2600 -2584 0
-664 -668 -220 -1228 -3148 -3172 -3364 -2344 -808 -792 0
-664 -668 -220 -2252 -2380 -2404 -3364 -1320 -1576 -1560 0
-664 -668 -412 -2444 -2380 -2404 -3172 -1128 -1576 -1560 0
-664 -668 -1180 -1228 -1356 -1380 -2404 -2344 -2600 -2584 0
-664 -668 -1180 -1420 -1356 -1380 -2404 -2152 -2600 -2584 0
-664 -668 -2204 -2252 -3148 -3172 -1380 -1320 -808 -792 0
-664 -668 -2204 -3212 -3340 -3364 -1380 -360 -616 -600 0
-792 -796 -348 -460 -1228 -1252 -3236 -3112 -2600 -2584 0
-792 -796 -348 -460 -2252 -2276 -3236 -3112 -1576 -1560 0
-792 -796 -348 -1356 -3148 -3172 -3236 -2216 -680 -664 0
-792 -796 -348 -2380 -2252 -2276 -3236 -1192 -1576 -1560 0
-792 -796 -412 -460 -1228 -1252 -3172 -3112 -2600 -2584 0
-792 -796 -2332 -2380 -2252 -2276 -1252 -1192 -1576 -1560 0
-792 -796 -2332 -2444 -2252 -2276 -1252 -1128 -1576 -1560 0
-1560 -1564 -1116 -1228 -2252 -2276 -2468 -2344 -808 -792 0
-1560 -1564 -1180 -1228 -2252 -2276 -2404 -2344 -808 -792 0
-1560 -1564 -1180 -1420 -460 -484 -2404 -2152 -2600 -2584 0
-1560 -1564 -1308 -1356 -460 -484 -2276 -2216 -2600 -2584 0
-2584 -2588 -2204 -2252 -460 -484 -1380 -1320 -1576 -1560 0
-2584 -2588 -2204 -2252 -1228 -1252 -1380 -1320 -808 -792 0
-2584 -2588 -2204 -2444 -460 -484 -1380 -1128 -1576 -1560 0
-2584 -2588 -2332 -2380 -460 -484 -1252 -1192 -1576 -1560 0
-2584 -2588 -2332 -2380 -1356 -1380 -1252 -1192 -680 -664 0
-2584 -2588 -2332 -2444 -460 -484 -1252 -1128 -1576 -1560 0
-2584 -2588 -2332 -2444 -1420 -1444 -1252 -1128 -616 -600 0
-2584 -2588 -3100 -3212 -1420 -1444 -484 -360 -616 -600 0
-1176 -1180 -220 -716 -2636 -2660 -2852 -2344 -1320 -1304 0
-1176 -1180 -220 -2252 -2380 -2404 -2852 -808 -1576 -1560 0
-1304 -1308 -348 -844 -716 -740 -2724 -2216 -3112 -3096 0
-1304 -1308 -796 -908 -716 -740 -2276 -2152 -3112 -3096 0
-1304 -1308 -796 -908 -2700 -2724 -2276 -2152 -1128 -1112 0
-1304 -1308 -796 -2828 -2636 -2660 -2276 -232 -1192 -1176 0
-1304 -1308 -2332 -2444 -2252 -2276 -740 -616 -1576 -1560 0
-1560 -1564 -604 -716 -460 -484 -2468 -2344 -3112 -3096 0
-1560 -1564 -604 -844 -460 -484 -2468 -2216 -3112 -3096 0
-1560 -1564 -668 -716 -2252 -2276 -2404 -2344 -1320 -1304 0
-1560 -1564 -668 -908 -460 -484 -2404 -2152 -3112 -3096 0
-1560 -1564 -796 -844 -460 -484 -2276 -2216 -3112 -3096 0
-1560 -1564 -796 -844 -2380 -2404 -2276 -2216 -1192 -1176 0
-1560 -1564 -796 -2828 -2380 -2404 -2276 -232 -1192 -1176 0
-1560 -1564 -2588 -2700 -2252 -2276 -484 -360 -1320 -1304 0
-1560 -1564 -2588 -2828 -2444 -2468 -484 -232 -1128 -1112 0
-3096 -3100 -2140 -2252 -716 -740 -932 -808 -1320 -1304 0
-3096 -3100 -2140 -2636 -716 -740 -932 -424 -1320 -1304 0
-3096 -3100 -2588 -2828 -844 -868 -484 -232 -1192 -1176 0
-2136 -2140 -220 -716 -908 -932 -1828 -1320 -3112 -3096 0
-2136 -2140 -220 -1228 -1676 -1700 -1828 -808 -2344 -2328 0
-2136 -2140 -604 -844 -1804 -1828 -1444 -1192 -2216 -2200 0
-2200 -2204 -412 -1420 -1356 -1380 -1636 -616 -2600 -2584 0
-2200 -2204 -668 -1676 -1612 -1636 -1380 -360 -2344 -2328 0
-2200 -2204 -1180 -1420 -1356 -1380 -868 -616 -2600 -2584 0
-2328 -2332 -412 -908 -1676 -1700 -1636 -1128 -2152 -2136 0
-2328 -2332 -1308 -1420 -1676 -1700 -740 -616 -2152 -2136 0
-2328 -2332 -1308 -1804 -1612 -1636 -740 -232 -2216 -2200 0
-2584 -2588 -604 -716 -460 -484 -1444 -1320 -3112 -3096 0
-2584 -2588 -604 -844 -460 -484 -1444 -1192 -3112 -3096 0
-2584 -2588 -604 -844 -1356 -1380 -1444 -1192 -2216 -2200 0
-2584 -2588 -668 -716 -460 -484 -1380 -1320 -3112 -3096 0
-2584 -2588 -668 -716 -1228 -1252 -1380 -1320 -2344 -2328 0
-2584 -2588 -668 -908 -460 -484 -1380 -1128 -3112 -3096 0
-2584 -2588 -668 -908 -1420 -1444 -1380 -1128 -2152 -2136 0
-2584 -2588 -668 -1676 -1228 -1252 -1380 -360 -2344 -2328 0
-2584 -2588 -796 -844 -460 -484 -1252 -1192 -3112 -3096 0
-2584 -2588 -796 -908 -460 -484 -1252 -1128 -3112 -3096 0
-2584 -2588 -796 -1804 -1356 -1380 -1252 -232 -2216 -2200 0
-2584 -2588 -796 -1804 -1420 -1444 -1252 -232 -2152 -2136 0
-3096 -3100 -1116 -1612 -716 -740 -932 -424 -2344 -2328 0
-344 -372 -1332 -3364 -3236 -3212 -2700 -656 -592 -600 0
-344 -372 -2356 -3364 -3620 -3596 -1676 -656 -208 -216 0
-600 -628 -692 -932 -1444 -1420 -3340 -3088 -2128 -2136 0
-600 -628 -820 -1828 -3364 -3340 -3212 -2192 -208 -216 0
-2136 -2164 -2228 -2468 -932 -908 -1804 -1552 -1104 -1112 0
-2136 -2164 -2228 -2724 -932 -908 -1804 -1296 -1104 -1112 0
-2136 -2164 -2228 -3236 -1700 -1676 -1804 -784 -336 -344 0
-2136 -2164 -2356 -2852 -1828 -1804 -1676 -1168 -208 -216 0
-2136 -2164 -2356 -3364 -1444 -1420 -1676 -656 -592 -600 0
-2136 -2164 -2356 -3364 -1828 -1804 -1676 -656 -208 -216 0
-2136 -2164 -3124 -3364 -1444 -1420 -908 -656 -592 -600 0
-216 -244 -372 -2404 -3364 -3340 -3596 -1552 -656 -664 0
-216 -244 -628 -868 -1828 -1804 -3340 -3088 -2192 -2200 0
-216 -244 -628 -1636 -1828 -1804 -3340 -2320 -2192 -2200 0
-216 -244 -1140 -1380 -1828 -1804 -2828 -2576 -2192 -2200 0
-216 -244 -2164 -2404 -3364 -3340 -1804 -1552 -656 -664 0
-216 -244 -2164 -2660 -2852 -2828 -1804 -1296 -1168 -1176 0
-216 -244 -2164 -2660 -3620 -3596 -1804 -1296 -400 -408 0
-216 -244 -2164 -3172 -3620 -3596 -1804 -784 -400 -408 0
-408 -436 -372 -868 -2660 -2636 -3596 -3088 -1168 -1176 0
-664 -692 -1588 -1636 -3172 -3148 -2380 -2320 -400 -408 0
-1176 -1204 -1140 -1636 -868 -844 -2828 -2320 -2192 -2200 0
-1176 -1204 -1140 -3172 -2404 -2380 -2828 -784 -656 -664 0
-1176 -1204 -1332 -1380 -2404 -2380 -2636 -2576 -656 -664 0
-2200 -2228 -2356 -3364 -1828 -1804 -1612 -592 -208 -216 0
-2200 -2228 -2612 -2852 -1828 -1804 -1356 -1104 -208 -216 0
-344 -372 -244 -740 -1700 -1676 -3596 -3088 -2320 -2328 0
-344 -372 -628 -740 -2724 -2700 -3212 -3088 -1296 -1304 0
-344 -372 -628 -2660 -3620 -3596 -3212 -1168 -400 -408 0
-344 -372 -1140 -1252 -3236 -3212 -2700 -2576 -784 -792 0
-344 -372 -2164 -2276 -2724 -2700 -1676 -1552 -1296 -1304 0
-408 -436 -244 -740 -1636 -1612 -3596 -3088 -2320 -2328 0
-792 -820 -1588 -1700 -1252 -1228 -2252 -2128 -2320 -2328 0
-1304 -1332 -1140 -1252 -740 -716 -2700 -2576 -2320 -2328 0
-1304 -1332 -1140 -3172 -2276 -2252 -2700 -656 -784 -792 0
-1304 -1332 -1204 -1252 -740 -716 -2636 -2576 -2320 -2328 0
-1304 -1332 -3124 -3172 -2276 -2252 -716 -656 -784 -792 0
-1304 -1332 -3124 -3236 -2724 -2700 -716 -592 -336 -344 0
-2328 -2356 -2164 -2276 -1252 -1228 -1676 -1552 -784 -792 0
-600 -628 -244 -1252 -1444 -1420 -3340 -2320 -2576 -2584 0
-600 -628 -2164 -2276 -2468 -2444 -1420 -1296 -1552 -1560 0
-600 -628 -2164 -2276 -3236 -3212 -1420 -1296 -784 -792 0
-664 -692 -1204 -3236 -3172 -3148 -2380 -336 -784 -792 0
-792 -820 -1332 -1444 -1252 -1228 -2252 -2128 -2576 -2584 0
-792 -820 -2356 -3364 -3172 -3148 -1228 -208 -656 -664 0
-1560 -1588 -1140 -1252 -484 -460 -2444 -2320 -2576 -2584 0
-1560 -1588 -3124 -3236 -2276 -2252 -460 -336 -784 -792 0
-2584 -2612 -2164 -2404 -484 -460 -1420 -1168 -1552 -1560 0
-2584 -2612 -2164 -3172 -1252 -1228 -1420 -400 -784 -792 0
-2584 -2612 -2356 -2404 -1380 -1356 -1228 -1168 -656 -664 0
-1112 -1140 -372 -868 -932 -908 -2700 -2192 -3088 -3096 0
-1112 -1140 -628 -2660 -2852 -2828 -2444 -400 -1168 -1176 0
-1176 -1204 -436 -932 -2852 -2828 -2636 -2128 -1104 -1112 0
-1176 -1204 -692 -740 -868 -844 -2380 -2320 -3088 -3096 0
-1176 -1204 -692 -932 -2852 -2828 -2380 -2128 -1104 -1112 0
-1176 -1204 -692 -2724 -2852 -2828 -2380 -336 -1104 -1112 0
-1304 -1332 -372 -484 -2276 -2252 -2700 -2576 -1552 -1560 0
-1304 -1332 -372 -868 -740 -716 -2700 -2192 -3088 -3096 0
-1304 -1332 -372 -868 -2660 -2636 -2700 -2192 -1168 -1176 0
-1304 -1332 -820 -868 -2660 -2636 -2252 -2192 -1168 -1176 0
-1304 -1332 -2356 -2468 -2724 -2700 -716 -592 -1104 -1112 0
-1560 -1588 -628 -868 -2404 -2380 -2444 -2192 -1168 -1176 0
-1560 -1588 -692 -740 -2276 -2252 -2380 -2320 -1296 -1304 0
-1560 -1588 -2612 -2660 -2404 -2380 -460 -400 -1168 -1176 0
-3096 -3124 -2356 -2468 -932 -908 -716 -592 -1104 -1112 0
-2136 -2164 -244 -1252 -1700 -1676 -1804 -784 -2320 -2328 0
-2136 -2164 -372 -1380 -1828 -1804 -1676 -656 -2192 -2200 0
-2136 -2164 -628 -1636 -1828 -1804 -1420 -400 -2192 -2200 0
-2136 -2164 -1140 -1252 -1700 -1676 -908 -784 -2320 -2328 0
-2136 -2164 -1140 -1380 -1828 -1804 -908 -656 -2192 -2200 0
-2200 -2228 -244 -1252 -1380 -1356 -1804 -784 -2576 -2584 0
-2200 -2228 -244 -1252 -1636 -1612 -1804 -784 -2320 -2328 0
-2200 -2228 -692 -932 -1828 -1804 -1356 -1104 -2128 -2136 0
-2328 -2356 -372 -868 -740 -716 -1676 -1168 -3088 -3096 0
-2584 -2612 -628 -1636 -1252 -1228 -1420 -400 -2320 -2328 0
-2584 -2612 -820 -1828 -1444 -1420 -1228 -208 -2128 -2136 0
-2584 -2612 -1588 -1636 -1252 -1228 -460 -400 -2320 -2328 0
-3096 -3124 -1140 -1252 -484 -460 -908 -784 -2576 -2584 0
-3096 -3124 -1140 -1380 -868 -844 -908 -656 -2192 -2200 0
-232 -236 -684 -1676 -1804 -1812 -3348 -2328 -2136 -2152 0
-232 -236 -1196 -1420 -3340 -3348 -2836 -2584 -600 -616 0
-232 -236 -1196 -3212 -3340 -3348 -2836 -792 -600 -616 0
-232 -236 -2220 -2444 -3340 -3348 -1812 -1560 -600 -616 0
-360 -364 -428 -2444 -2700 -2708 -3604 -1560 -1112 -1128 0
-360 -364 -812 -2828 -3596 -3604 -3220 -1176 -216 -232 0
-360 -364 -1324 -1420 -1676 -1684 -2708 -2584 -2136 -2152 0
-360 -364 -1324 -3340 -3596 -3604 -2708 -664 -216 -232 0
-360 -364 -2348 -3340 -3596 -3604 -1684 -664 -216 -232 0
-616 -620 -684 -908 -1420 -1428 -3348 -3096 -2136 -2152 0
-616 -620 -812 -908 -1420 -1428 -3220 -3096 -2136 -2152 0
-616 -620 -1580 -1804 -3340 -3348 -2452 -2200 -216 -232 0
-1128 -1132 -1196 -3212 -2700 -2708 -2836 -792 -344 -360 0
-1128 -1132 -1580 -1804 -908 -916 -2452 -2200 -2136 -2152 0
-1128 -1132 -1580 -3596 -2700 -2708 -2452 -408 -344 -360 0
-1128 -1132 -3116 -3596 -2700 -2708 -916 -408 -344 -360 0
-2152 -2156 -2220 -2700 -1676 -1684 -1812 -1304 -344 -360 0
-2152 -2156 -2220 -3212 -1420 -1428 -1812 -792 -600 -616 0
-2152 -2156 -2604 -2828 -908 -916 -1428 -1176 -1112 -1128 0
-2152 -2156 -3116 -3212 -1676 -1684 -916 -792 -344 -360 0
-2152 -2156 -3116 -3340 -1420 -1428 -916 -664 -600 -616 0
-2152 -2156 -3116 -3340 -1804 -1812 -916 -664 -216 -232 0
-424 -428 -364 -1356 -3148 -3156 -3604 -2584 -664 -680 0
-424 -428 -364 -2380 -3148 -3156 -3604 -1560 -664 -680 0
-424 -428 -812 -1804 -1612 -1620 -3156 -2136 -2200 -2216 0
-680 -684 -620 -844 -1356 -1364 -3348 -3096 -2200 -2216 0
-680 -684 -812 -844 -1356 -1364 -3156 -3096 -2200 -2216 0
-680 -684 -812 -844 -2380 -2388 -3156 -3096 -1176 -1192 0
-680 -684 -1580 -1612 -1356 -1364 -2388 -2328 -2200 -2216 0
-680 -684 -1580 -1804 -1356 -1364 -2388 -2136 -2200 -2216 0
-680 -684 -1580 -3596 -3340 -3348 -2388 -344 -216 -232 0
-1192 -1196 -1132 -1356 -844 -852 -2836 -2584 -2200 -2216 0
-1192 -1196 -1324 -1804 -2828 -2836 -2644 -2136 -216 -232 0
-1192 -1196 -1324 -3340 -2828 -2836 -2644 -600 -216 -232 0
-1192 -1196 -1580 -3596 -2828 -2836 -2388 -344 -216 -232 0
-2216 -2220 -2348 -2828 -844 -852 -1620 -1112 -1176 -1192 0
-2216 -2220 -2348 -3340 -1356 -1364 -1620 -600 -664 -680 0
-360 -364 -620 -1612 -1676 -1684 -3220 -2200 -2328 -2344 0
-360 -364 -1132 -1228 -3212 -3220 -2708 -2584 -792 -808 0
-424 -428 -684 -2700 -2636 -2644 -3156 -1112 -1304 -1320 0
-424 -428 -684 -2700 -3596 -3604 -3156 -1112 -344 -360 0
-424 -428 -1196 -1228 -1612 -1620 -2644 -2584 -2328 -2344 0
-424 -428 -1196 -1676 -1612 -1620 -2644 -2136 -2328 -2344 0
-424 -428 -2220 -2700 -3596 -3604 -1620 -1112 -344 -360 0
-808 -812 -620 -2636 -2252 -2260 -3220 -1176 -1304 -1320 0
-808 -812 -684 -716 -2252 -2260 -3156 -3096 -1304 -1320 0
-808 -812 -1580 -3596 -3212 -3220 -2260 -216 -344 -360 0
-1320 -1324 -1132 -3148 -2636 -2644 -2708 -664 -408 -424 0
-1320 -1324 -1196 -1676 -2700 -2708 -2644 -2136 -344 -360 0
-1320 -1324 -1580 -3596 -2700 -2708 -2260 -216 -344 -360 0
-2344 -2348 -2156 -3148 -1612 -1620 -1684 -664 -408 -424 0
-2344 -2348 -2604 -2700 -716 -724 -1236 -1112 -1304 -1320 0
-2344 -2348 -3116 -3212 -1676 -1684 -724 -600 -344 -360 0
-616 -620 -236 -1228 -3212 -3220 -3348 -2328 -792 -808 0
-616 -620 -364 -1356 -1420 -1428 -3220 -2200 -2584 -2600 0
-616 -620 -1132 -1228 -1420 -1428 -2452 -2328 -2584 -2600 0
-616 -620 -1132 -1356 -1420 -1428 -2452 -2200 -2584 -2600 0
-680 -684 -236 -1228 -1356 -1364 -3348 -2328 -2584 -2600 0
-680 -684 -428 -460 -2380 -2388 -3156 -3096 -1560 -1576 0
-680 -684 -2220 -3212 -3340 -3348 -1364 -344 -600 -616 0
-808 -812 -364 -1356 -3148 -3156 -3220 -2200 -664 -680 0
-808 -812 -1324 -1356 -3148 -3156 -2260 -2200 -664 -680 0
-2600 -2604 -2156 -2380 -1356 -1364 -1428 -1176 -664 -680 0
-2600 -2604 -2220 -3212 -1420 -1428 -1364 -344 -600 -616 0
-2600 -2604 -2348 -2444 -460 -468 -1236 -1112 -1560 -1576 0
-1320 -1324 -428 -908 -716 -724 -2644 -2136 -3096 -3112 0
-1320 -1324 -428 -2444 -2252 -2260 -2644 -600 -1560 -1576 0
-1320 -1324 -428 -2444 -2700 -2708 -2644 -600 -1112 -1128 0
-3112 -3116 -2220 -2700 -908 -916 -852 -344 -1112 -1128 0
-3112 -3116 -2348 -2444 -460 -468 -724 -600 -1560 -1576 0
-3112 -3116 -2348 -2828 -844 -852 -724 -216 -1176 -1192 0
-3112 -3116 -2604 -2636 -844 -852 -468 -408 -1176 -1192 0
-2152 -2156 -620 -716 -1676 -1684 -1428 -1304 -2328 -2344 0
-2152 -2156 -1132 -1356 -1804 -1812 -916 -664 -2200 -2216 0
-2216 -2220 -236 -460 -1356 -1364 -1812 -1560 -2584 -2600 0
-2216 -2220 -236 -1228 -1612 -1620 -1812 -792 -2328 -2344 0
-2216 -2220 -428 -1420 -1356 -1364 -1620 -600 -2584 -2600 0
-2216 -2220 -684 -716 -844 -852 -1364 -1304 -3096 -3112 0
-2216 -2220 -684 -716 -1612 -1620 -1364 -1304 -2328 -2344 0
-2344 -2348 -428 -460 -716 -724 -1620 -1560 -3096 -3112 0
-2344 -2348 -428 -908 -1676 -1684 -1620 -1112 -2136 -2152 0
-2344 -2348 -812 -908 -1676 -1684 -1236 -1112 -2136 -2152 0
-2344 -2348 -812 -1804 -1612 -1620 -1236 -216 -2200 -2216 0
-2344 -2348 -1324 -1356 -1612 -1620 -724 -664 -2200 -2216 0
-2344 -2348 -1324 -1420 -1676 -1684 -724 -600 -2136 -2152 0
-2344 -2348 -1324 -1804 -1612 -1620 -724 -216 -2200 -2216 0
-2344 -2348 -1324 -1804 -1676 -1684 -724 -216 -2136 -2152 0
-2600 -2604 -620 -716 -460 -468 -1428 -1304 -3096 -3112 0
-2600 -2604 -620 -1612 -1356 -1364 -1428 -408 -2200 -2216 0
-2600 -2604 -812 -844 -460 -468 -1236 -1176 -3096 -3112 0
-2600 -2604 -812 -1804 -1356 -1364 -1236 -216 -2200 -2216 0
-2600 -2604 -1580 -1676 -1228 -1236 -468 -344 -2328 -2344 0
-3112 -3116 -1580 -1612 -716 -724 -468 -408 -2328 -2344 0
-232 -244 -436 -2452 -2836 -2828 -3596 -1552 -1104 -1128 0
-232 -244 -436 -2452 -3348 -3340 -3596 -1552 -592 -616 0
-232 -244 -692 -916 -2836 -2828 -3340 -3088 -1104 -1128 0
-232 -244 -2228 -2708 -2836 -2828 -1804 -1296 -1104 -1128 0
-360 -372 -820 -1812 -3604 -3596 -3212 -2192 -208 -232 0
-360 -372 -2356 -2452 -2708 -2700 -1676 -1552 -1104 -1128 0
-360 -372 -2356 -3348 -3604 -3596 -1676 -656 -208 -232 0
-616 -628 -692 -916 -2452 -2444 -3340 -3088 -1104 -1128 0
-616 -628 -820 -916 -1428 -1420 -3212 -3088 -2128 -2152 0
-616 -628 -2612 -2836 -3348 -3340 -1420 -1168 -208 -232 0
-1128 -1140 -1204 -1684 -916 -908 -2828 -2320 -2128 -2152 0
-2152 -2164 -2356 -2836 -916 -908 -1676 -1168 -1104 -1128 0
-2152 -2164 -2612 -2708 -916 -908 -1420 -1296 -1104 -1128 0
-2152 -2164 -2612 -2836 -1812 -1804 -1420 -1168 -208 -232 0
-2152 -2164 -2612 -3604 -1812 -1804 -1420 -400 -208 -232 0
-2152 -2164 -3124 -3604 -1684 -1676 -908 -400 -336 -360 0
-2152 -2164 -3124 -3604 -1812 -1804 -908 -400 -208 -232 0
-232 -244 -372 -2388 -2836 -2828 -3596 -1552 -1168 -1192 0
-232 -244 -628 -2644 -2836 -2828 -3340 -1296 -1168 -1192 0
-424 -436 -820 -852 -1620 -1612 -3148 -3088 -2192 -2216 0
-424 -436 -820 -1812 -1620 -1612 -3148 -2128 -2192 -2216 0
-424 -436 -1332 -1364 -1620 -1612 -2636 -2576 -2192 -2216 0
-424 -436 -2356 -2388 -3156 -3148 -1612 -1552 -656 -680 0
-680 -692 -628 -2644 -2388 -2380 -3340 -1296 -1168 -1192 0
-680 -692 -820 -2836 -2388 -2380 -3148 -1104 -1168 -1192 0
-680 -692 -2612 -2644 -2388 -2380 -1356 -1296 -1168 -1192 0
-680 -692 -2612 -2836 -2388 -2380 -1356 -1104 -1168 -1192 0
-1192 -1204 -1588 -3604 -2836 -2828 -2380 -336 -208 -232 0
-2216 -2228 -2164 -2644 -1620 -1612 -1804 -1296 -400 -424 0
-2216 -2228 -2164 -3156 -1364 -1356 -1804 -784 -656 -680 0
-360 -372 -628 -724 -1684 -1676 -3212 -3088 -2320 -2344 0
-360 -372 -628 -1620 -1684 -1676 -3212 -2192 -2320 -2344 0
-360 -372 -628 -2644 -2708 -2700 -3212 -1168 -1296 -1320 0
-424 -436 -692 -724 -2644 -2636 -3148 -3088 -1296 -1320 0
-808 -820 -692 -724 -2260 -2252 -3148 -3088 -1296 -1320 0
-808 -820 -2612 -2644 -2260 -2252 -1228 -1168 -1296 -1320 0
-1320 -1332 -1140 -1236 -724 -716 -2700 -2576 -2320 -2344 0
-1320 -1332 -1588 -3604 -2708 -2700 -2252 -208 -336 -360 0
-1320 -1332 -3124 -3604 -2644 -2636 -716 -208 -400 -424 0
-2344 -2356 -2164 -2644 -724 -716 -1676 -1168 -1296 -1320 0
-2344 -2356 -3124 -3156 -1620 -1612 -716 -656 -400 -424 0
-680 -692 -244 -1236 -1364 -1356 -3340 -2320 -2576 -2600 0
-680 -692 -436 -2452 -2388 -2380 -3148 -1104 -1552 -1576 0
-808 -820 -436 -1428 -3220 -3212 -3148 -2128 -592 -616 0
-1576 -1588 -1140 -3156 -2388 -2380 -2444 -400 -656 -680 0
-1576 -1588 -1332 -1428 -468 -460 -2252 -2128 -2576 -2600 0
-2600 -2612 -2164 -3156 -1236 -1228 -1420 -400 -784 -808 0
-2600 -2612 -2356 -3348 -1364 -1356 -1228 -208 -656 -680 0
-1192 -1204 -436 -468 -852 -844 -2636 -2576 -3088 -3112 0
-1320 -1332 -372 -468 -724 -716 -2700 -2576 -3088 -3112 0
-1320 -1332 -436 -468 -724 -716 -2636 -2576 -3088 -3112 0
-1576 -1588 -692 -724 -468 -460 -2380 -2320 -3088 -3112 0
-1576 -1588 -692 -916 -468 -460 -2380 -2128 -3088 -3112 0
-1576 -1588 -820 -852 -2388 -2380 -2252 -2192 -1168 -1192 0
-3112 -3124 -2228 -2708 -724 -716 -844 -336 -1296 -1320 0
-3112 -3124 -2356 -2388 -468 -460 -716 -656 -1552 -1576 0
-3112 -3124 -2356 -2388 -852 -844 -716 -656 -1168 -1192 0
-3112 -3124 -2612 -2836 -852 -844 -460 -208 -1168 -1192 0
-2152 -2164 -244 -468 -1428 -1420 -1804 -1552 -2576 -2600 0
-2152 -2164 -372 -852 -916 -908 -1676 -1168 -3088 -3112 0
-2152 -2164 -628 -1620 -1812 -1804 -1420 -400 -2192 -2216 0
-2216 -2228 -244 -724 -852 -844 -1804 -1296 -3088 -3112 0
-2216 -2228 -1204 -1236 -1364 -1356 -844 -784 -2576 -2600 0
-2344 -2356 -372 -468 -724 -716 -1676 -1552 -3088 -3112 0
-2344 -2356 -372 -468 -1236 -1228 -1676 -1552 -2576 -2600 0
-2344 -2356 -372 -852 -724 -716 -1676 -1168 -3088 -3112 0
-2344 -2356 -436 -1428 -1684 -1676 -1612 -592 -2128 -2152 0
-3112 -3124 -1140 -1364 -468 -460 -908 -656 -2576 -2600 0
-3112 -3124 -1332 -1812 -916 -908 -716 -208 -2128 -2152 0
-3112 -3124 -1588 -1812 -916 -908 -460 -208 -2128 -2152 0
-336 -460 -412 -436 -692 -2612 -3620 -3592 -3144 -1104 0
-592 -716 -668 -692 -1204 -1332 -3364 -3336 -2376 -2128 0
-2128 -2380 -2332 -2356 -1332 -1588 -1700 -1672 -712 -208 0
-208 -460 -348 -372 -2356 -3124 -3620 -3592 -1672 -656 0
-208 -2252 -2140 -2164 -3124 -1332 -1828 -1800 -904 -656 0
-656 -716 -604 -628 -372 -1332 -3364 -3336 -3208 -2192 0
-656 -908 -796 -820 -1332 -3124 -3172 -3144 -2248 -208 0
-1168 -1228 -1116 -1140 -2164 -2356 -2852 -2824 -904 -656 0
-2192 -2252 -2140 -2164 -372 -820 -1828 -1800 -1672 -1168 0
-400 -460 -220 -244 -628 -2612 -3620 -3592 -3336 -1296 0
-2320 -2828 -2588 -2612 -628 -1140 -1252 -1224 -1416 -400 0
-592 -716 -220 -244 -1204 -1332 -3364 -3336 -2824 -2576 0
-656 -1676 -1180 -1204 -1140 -2164 -2404 -2376 -2824 -784 0
-784 -908 -412 -436 -244 -2164 -3172 -3144 -3592 -1552 0
-1552 -1804 -1308 -1332 -2356 -2164 -2276 -2248 -712 -656 0
-2128 -3148 -1116 -1140 -1204 -692 -932 -904 -2824 -2320 0
-1168 -3212 -3116 -3124 -2164 -372 -852 -840 -904 -656 0
-336 -460 -236 -244 -1204 -1588 -3604 -3592 -2824 -2320 0
-400 -460 -236 -244 -628 -2612 -3604 -3592 -3336 -1296 0
-1104 -1228 -236 -244 -692 -820 -2836 -2824 -3336 -3088 0
-1104 -3148 -2156 -2164 -2228 -436 -916 -904 -1800 -1552 0
-2128 -3148 -1132 -1140 -1588 -692 -916 -904 -2440 -2320 0
-2192 -2444 -428 -436 -820 -628 -1620 -1608 -3144 -3088 0
-216 -2260 -2204 -2220 -2604 -812 -1828 -1800 -1352 -1112 0
-216 -2260 -2204 -2220 -3116 -1324 -1828 -1800 -840 -600 0
-1112 -1236 -1180 -1196 -684 -2604 -2852 -2824 -2376 -344 0
-216 -2260 -2140 -2156 -2604 -1580 -1828 -1800 -1416 -408 0
-1176 -1236 -1116 -1132 -620 -2604 -2852 -2824 -2440 -408 0
-344 -852 -604 -620 -1580 -1196 -3236 -3208 -2440 -2328 0
-1304 -3348 -3100 -3116 -2604 -620 -740 -712 -456 -408 0
-2328 -2388 -2140 -2156 -236 -1196 -1700 -1672 -1800 -792 0
-664 -1684 -1180 -1196 -1132 -2156 -2404 -2376 -2824 -792 0
-792 -1812 -1308 -1324 -3116 -2220 -2276 -2248 -712 -600 0
-1560 -1812 -1308 -1324 -2348 -2156 -2276 -2248 -712 -664 0
-1560 -3604 -3100 -3116 -2348 -428 -484 -456 -712 -600 0
-1112 -1236 -220 -236 -428 -2348 -2852 -2824 -3592 -1560 0
-1112 -3156 -2140 -2156 -2604 -684 -932 -904 -1416 -1304 0
-1304 -3348 -2332 -2348 -2604 -684 -740 -712 -1224 -1112 0
-3096 -3348 -2332 -2348 -812 -684 -740 -712 -1224 -1112 0
-3096 -3604 -2588 -2604 -684 -428 -484 -456 -1352 -1112 0
-2136 -2388 -348 -364 -812 -1580 -1700 -1672 -3208 -2200 0
-2136 -3156 -1116 -1132 -1196 -684 -932 -904 -2824 -2328 0
-3096 -3348 -1308 -1324 -812 -684 -740 -712 -2248 -2136 0
-3096 -3604 -1564 -1580 -684 -428 -484 -456 -2376 -2136 0
-216 -2260 -2228 -2220 -3116 -1580 -1804 -1800 -840 -344 0
-344 -2388 -2356 -2348 -2604 -684 -1676 -1672 -1224 -1112 0
-600 -724 -692 -684 -1196 -3116 -3340 -3336 -2376 -344 0
-600 -852 -820 -812 -1324 -3116 -3212 -3208 -2248 -216 0
-600 -2644 -2612 -2604 -3116 -1196 -1420 -1416 -456 -344 0
-2136 -2260 -2228 -2220 -684 -1580 -1804 -1800 -1352 -344 0
-2136 -2260 -2228 -2220 -1196 -1580 -1804 -1800 -840 -344 0
-2136 -2388 -2356 -2348 -1324 -1580 -1676 -1672 -712 -216 0
-408 -468 -372 -364 -620 -1580 -3596 -3592 -3208 -2200 0
-664 -724 -628 -620 -1132 -1324 -3340 -3336 -2440 -2200 0
-344 -2388 -2164 -2156 -3116 -1196 -1676 -1672 -904 -792 0
-1304 -1812 -1588 -1580 -2604 -2220 -2252 -2248 -456 -344 0
-1560 -1812 -1332 -1324 -428 -236 -2252 -2248 -2632 -2584 0
-1560 -1812 -1332 -1324 -2348 -2156 -2252 -2248 -712 -664 0
-1304 -3348 -2356 -2348 -2156 -236 -716 -712 -1672 -1560 0
-2328 -2388 -372 -364 -1132 -1580 -1676 -1672 -2696 -2200 0
-2584 -2708 -692 -684 -428 -364 -1356 -1352 -3144 -3096 0
-2584 -3604 -1588 -1580 -1132 -364 -460 -456 -2440 -2200 0
-3096 -3156 -1140 -1132 -364 -812 -908 -904 -2696 -2200 0
-232 -484 -428 -412 -2332 -2588 -3604 -3592 -1608 -1128 0
-2152 -2404 -2348 -2332 -412 -668 -1684 -1672 -1608 -1128 0
-2152 -2404 -2348 -2332 -1308 -1564 -1684 -1672 -712 -232 0
-2152 -3172 -3116 -3100 -1564 -668 -916 -904 -456 -360 0
-232 -2276 -2156 -2140 -3100 -1308 -1812 -1800 -904 -680 0
-424 -484 -364 -348 -2140 -3100 -3604 -3592 -1672 -680 0
-680 -740 -620 -604 -348 -1308 -3348 -3336 -3208 -2216 0
-1192 -1444 -1324 -1308 -2332 -2588 -2644 -2632 -712 -232 0
-2216 -2276 -2156 -2140 -348 -1308 -1812 -1800 -1672 -680 0
-360 -1380 -1132 -1116 -1180 -2204 -2708 -2696 -2824 -808 0
-424 -932 -684 -668 -1564 -1116 -3156 -3144 -2376 -2344 0
-1320 -1828 -1580 -1564 -2588 -2140 -2260 -2248 -456 -424 0
-616 -2660 -2156 -2140 -3100 -1308 -1428 -1416 -904 -680 0
-808 -1828 -1324 -1308 -3100 -2140 -2260 -2248 -712 -680 0
-1576 -1828 -1324 -1308 -412 -2204 -2260 -2248 -2632 -616 0
-1128 -1252 -236 -220 -668 -796 -2836 -2824 -3336 -3112 0
-2152 -2276 -236 -220 -668 -796 -1812 -1800 -3336 -3112 0
-2152 -2404 -364 -348 -796 -668 -1684 -1672 -3208 -3112 0
-2216 -2724 -684 -668 -604 -348 -1364 -1352 -3336 -3112 0
-1128 -1380 -1332 -1308 -2332 -2588 -2700 -2696 -712 -232 0
-2152 -2276 -2228 -2204 -412 -796 -1804 -1800 -1608 -1128 0
-232 -2276 -2164 -2140 -2588 -796 -1804 -1800 -1416 -1192 0
-232 -2276 -2164 -2140 -3100 -1308 -1804 -1800 -904 -680 0
-2216 -2276 -2164 -2140 -348 -796 -1804 -1800 -1672 -1192 0
-2216 -2276 -2164 -2140 -604 -796 -1804 -1800 -1416 -1192 0
-360 -484 -244 -220 -2204 -3100 -3596 -3592 -1800 -808 0
-360 -868 -628 -604 -1564 -3100 -3212 -3208 -2440 -424 0
-2344 -2468 -2228 -2204 -1180 -1116 -1612 -1608 -840 -808 0
-616 -2660 -2164 -2140 -2332 -1308 -1420 -1416 -1672 -680 0
-2152 -3172 -1140 -1116 -1564 -796 -908 -904 -2440 -2216 0
-2216 -2468 -436 -412 -348 -604 -1612 -1608 -3592 -3112 0
-2344 -2852 -820 -796 -1564 -1116 -1228 -1224 -2248 -2216 0
-208 -1228 -1116 -1364 -1812 -820 -2852 -2600 -2216 -2192 0
-2192 -2444 -2332 -2836 -1812 -1588 -1636 -1128 -232 -208 0
-400 -2444 -2204 -2708 -3604 -1588 -1636 -1128 -360 -336 0
-656 -716 -236 -484 -2404 -2356 -3348 -3096 -1560 -1552 0
-664 -916 -412 -2444 -2380 -2156 -3172 -1128 -1576 -1560 0
-1560 -1812 -1308 -1420 -2444 -2220 -2276 -2152 -616 -600 0
-2584 -2644 -2140 -3148 -1228 -1196 -1444 -424 -808 -792 0
-1176 -1684 -1588 -1828 -2852 -2348 -2380 -2128 -208 -216 0
-408 -2452 -2228 -2276 -2660 -620 -1612 -1552 -1296 -1304 0
-2584 -3604 -3124 -3364 -1380 -364 -460 -208 -656 -664 0
-1560 -1684 -692 -740 -484 -364 -2380 -2320 -3088 -3096 0
-2200 -2452 -436 -932 -1828 -1580 -1612 -1104 -2128 -2136 0
-2216 -3236 -3116 -3148 -1356 -348 -852 -792 -664 -680 0
-360 -2404 -2356 -2836 -2708 -668 -1676 -1168 -1104 -1128 0
-616 -1636 -1588 -3604 -3348 -2332 -2444 -400 -208 -232 0
-680 -740 -628 -852 -1364 -1308 -3340 -3088 -2192 -2216 0
-808 -2852 -2612 -2644 -2260 -220 -1228 -1168 -1296 -1320 0
-1128 -3172 -2164 -2388 -2452 -412 -908 -656 -1552 -1576 0
-1104 -3148 -3340 -3348 -2356 -436 -692 -680 -712 -592 0
-2128 -2252 -2444 -2452 -436 -820 -1588 -1576 -1608 -1104 0
-208 -460 -1356 -1364 -1332 -1588 -2612 -2600 -2696 -2192 0
-400 -1420 -3340 -3348 -3124 -2164 -628 -616 -712 -656 0
-656 -716 -2636 -2644 -2164 -3124 -1332 -1320 -1416 -400 0
-336 -2380 -2252 -2260 -2228 -1204 -1588 -1576 -1800 -784 0
-336 -2380 -3148 -3156 -3124 -1588 -692 -680 -904 -400 0
-400 -908 -2700 -2708 -2612 -2164 -1140 -1128 -1352 -1296 0
-784 -1804 -1676 -1684 -1204 -2228 -2164 -2152 -2376 -336 0
-1296 -1804 -3596 -3604 -2612 -2228 -244 -232 -456 -336 0
-592 -1612 -3148 -3156 -3124 -2356 -436 -424 -904 -656 0
-784 -844 -1356 -1364 -1140 -3124 -2228 -2216 -2696 -656 0
-784 -1804 -3340 -3348 -3124 -2164 -244 -232 -712 -656 0
-1104 -3148 -2252 -2260 -2228 -436 -820 -808 -1800 -1552 0
-1296 -1804 -2828 -2836 -2612 -2228 -244 -232 -1224 -1104 0
-2128 -2252 -716 -724 -692 -820 -1332 -1320 -3336 -3088 0
-2192 -2252 -716 -724 -628 -820 -1332 -1320 -3336 -3088 0
-2192 -3212 -1420 -1428 -1332 -820 -628 -616 -2632 -2128 0
-208 -460 -908 -932 -820 -2612 -3124 -3096 -3144 -1104 0
-336 -460 -908 -932 -692 -1588 -3124 -3096 -3144 -2128 0
-1104 -1356 -1804 -1828 -820 -692 -2228 -2200 -2248 -2128 0
-656 -1676 -3596 -3620 -3124 -2356 -372 -344 -456 -208 0
-400 -460 -2252 -2276 -2164 -2612 -1588 -1560 -1800 -1296 0
-1296 -1356 -3148 -3172 -2164 -2612 -692 -664 -904 -400 0
-1296 -1804 -1612 -1636 -628 -2164 -2228 -2200 -2440 -400 0
-1296 -1804 -3596 -3620 -2612 -2228 -244 -216 -456 -336 0
-2320 -2444 -2252 -2276 -244 -1140 -1588 -1560 -1800 -784 0
-592 -1612 -1356 -1380 -1332 -2356 -2228 -2200 -2696 -656 0
-656 -716 -1228 -1252 -1140 -3124 -2356 -2328 -2824 -784 0
-656 -716 -2252 -2276 -2164 -3124 -1332 -1304 -1800 -784 0
-1104 -1228 -460 -484 -436 -820 -2612 -2584 -3592 -3088 0
-1296 -1804 -908 -932 -692 -2228 -2164 -2136 -3144 -1104 0
-2128 -2252 -1228 -1252 -1204 -1332 -820 -792 -2824 -2576 0
-2192 -2252 -716 -740 -628 -820 -1332 -1304 -3336 -3088 0
-3088 -3340 -1804 -1828 -820 -692 -244 -216 -2248 -2128 0
-344 -1364 -1812 -1804 -1580 -2604 -2220 -2216 -2248 -216 0
-344 -1364 -3348 -3340 -3116 -2604 -684 -680 -712 -216 0
-600 -724 -1684 -1676 -1196 -1324 -2348 -2344 -2376 -2136 0
-1112 -1364 -1812 -1804 -812 -684 -2220 -2216 -2248 -2136 0
-2136 -2644 -2708 -2700 -684 -428 -1324 -1320 -1352 -1112 0
-2136 -2644 -3604 -3596 -1580 -1324 -428 -424 -456 -216 0
-1176 -1428 -1364 -1356 -364 -2156 -2604 -2600 -2696 -664 0
-1176 -3220 -3604 -3596 -2604 -620 -364 -360 -456 -408 0
-344 -468 -2260 -2252 -2220 -2604 -1580 -1576 -1800 -1304 0
-408 -916 -1684 -1676 -1580 -1132 -2156 -2152 -2376 -2328 0
-408 -916 -1684 -1676 -1580 -3116 -2156 -2152 -2376 -344 0
-1304 -1428 -3220 -3212 -2220 -2604 -620 -616 -840 -344 0
-600 -724 -1236 -1228 -1196 -3116 -2348 -2344 -2824 -792 0
-664 -1684 -3220 -3212 -3116 -2348 -364 -360 -840 -600 0
-2584 -2708 -3220 -3212 -1196 -1132 -364 -360 -840 -792 0
-1112 -3156 -2388 -2380 -2348 -428 -684 -680 -1672 -1560 0
-1176 -1684 -916 -908 -812 -364 -2156 -2152 -3144 -3096 0
-3096 -3348 -1812 -1804 -812 -684 -236 -232 -2248 -2136 0
-1176 -1684 -1812 -1828 -812 -2348 -2156 -2128 -2248 -216 0
-344 -1364 -3156 -3172 -3116 -2604 -684 -656 -904 -408 0
-1304 -3348 -3156 -3172 -2156 -620 -684 -656 -904 -408 0
-2328 -2388 -3156 -3172 -1132 -1196 -684 -656 -904 -792 0
-2328 -2388 -3156 -3172 -1132 -1580 -684 -656 -904 -408 0
-2328 -3348 -3156 -3172 -1132 -236 -684 -656 -904 -792 0
-600 -1620 -1364 -1380 -1324 -428 -2220 -2192 -2696 -2584 0
-600 -2644 -2388 -2404 -2348 -428 -1196 -1168 -1672 -1560 0
-664 -916 -468 -484 -364 -2156 -3116 -3088 -3592 -1560 0
-792 -852 -2388 -2404 -2156 -2220 -1196 -1168 -1672 -1560 0
-1112 -3156 -2260 -2276 -2220 -684 -812 -784 -1800 -1304 0
-1112 -3156 -2388 -2404 -2348 -428 -684 -656 -1672 -1560 0
-1112 -3156 -2388 -2404 -2348 -812 -684 -656 -1672 -1176 0
-1176 -1428 -2452 -2468 -2348 -2604 -620 -592 -1608 -1112 0
-1304 -3348 -2388 -2404 -2156 -236 -684 -656 -1672 -1560 0
-3096 -3348 -2388 -2404 -364 -236 -684 -656 -1672 -1560 0
-2136 -2388 -852 -868 -812 -1580 -1196 -1168 -3208 -2200 0
-2328 -2388 -852 -868 -620 -1580 -1196 -1168 -3208 -2200 0
-232 -2276 -2468 -2444 -2332 -1308 -1564 -1560 -1608 -616 0
-360 -868 -1828 -1804 -1564 -1180 -2204 -2200 -2248 -2152 0
-616 -740 -2724 -2700 -2204 -2332 -1308 -1304 -1352 -1128 0
-1128 -1252 -3236 -3212 -2204 -2588 -796 -792 -840 -360 0
-1128 -1636 -1700 -1676 -668 -2204 -2332 -2328 -2376 -360 0
-1128 -1636 -3620 -3596 -2588 -2204 -412 -408 -456 -360 0
-1128 -3172 -3236 -3212 -2204 -412 -796 -792 -840 -616 0
-424 -932 -1828 -1804 -1564 -1116 -2140 -2136 -2248 -2216 0
-424 -1444 -3364 -3340 -3100 -2588 -604 -600 -712 -232 0
-1192 -1444 -3364 -3340 -2332 -2588 -604 -600 -712 -232 0
-2216 -2468 -2404 -2380 -348 -604 -1564 -1560 -1672 -1192 0
-360 -2404 -2276 -2252 -2204 -668 -1564 -1560 -1800 -1320 0
-424 -484 -2276 -2252 -2140 -2588 -1564 -1560 -1800 -1320 0
-424 -484 -2276 -2252 -2140 -3100 -1564 -1560 -1800 -808 0
-1320 -1444 -3236 -3212 -2204 -2140 -604 -600 -840 -808 0
-616 -868 -484 -460 -412 -2204 -3100 -3096 -3592 -1576 0
-680 -740 -2276 -2252 -2140 -3100 -1308 -1304 -1800 -808 0
-1576 -3620 -3172 -3148 -2140 -220 -412 -408 -904 -808 0
-1576 -3620 -3364 -3340 -2332 -412 -220 -216 -712 -616 0
-2600 -2852 -3364 -3340 -1308 -1116 -220 -216 -712 -680 0
-1320 -1444 -484 -460 -220 -604 -2588 -2584 -3592 -3112 0
-1320 -1444 -2468 -2444 -2204 -2140 -604 -600 -1608 -1576 0
-1320 -3364 -2404 -2380 -2140 -604 -668 -664 -1672 -1192 0
-3112 -3172 -2276 -2252 -220 -668 -796 -792 -1800 -1320 0
-2152 -3172 -1252 -1228 -1180 -668 -796 -792 -2824 -2344 0
-3112 -3236 -1252 -1228 -220 -348 -796 -792 -2824 -2600 0
-2152 -2660 -2852 -2836 -796 -412 -1180 -1168 -1224 -1128 0
-1192 -1444 -1828 -1812 -796 -604 -2140 -2128 -2248 -2216 0
-1192 -3236 -3172 -3156 -2140 -348 -796 -784 -904 -680 0
-360 -1380 -3172 -3156 -3100 -2204 -668 -656 -904 -808 0
-424 -484 -1252 -1236 -1116 -3100 -2588 -2576 -2824 -808 0
-808 -1828 -1636 -1620 -1116 -2140 -2204 -2192 -2440 -424 0
-1320 -3364 -3172 -3156 -2140 -604 -668 -656 -904 -424 0
-616 -868 -484 -468 -412 -2204 -3100 -3088 -3592 -1576 0
-616 -1636 -3172 -3156 -3100 -2332 -412 -400 -904 -680 0
-2600 -2660 -2276 -2260 -220 -1180 -1308 -1296 -1800 -808 0
-2600 -2660 -3172 -3156 -1116 -1308 -412 -400 -904 -680 0
-1128 -3172 -2276 -2260 -2204 -668 -796 -784 -1800 -1320 0
-1192 -1252 -2276 -2260 -2140 -2332 -796 -784 -1800 -1576 0
-1192 -1444 -2468 -2452 -2332 -2588 -604 -592 -1608 -1128 0
-1320 -1444 -484 -468 -220 -604 -2588 -2576 -3592 -3112 0
-3112 -3172 -2276 -2260 -220 -668 -796 -784 -1800 -1320 0
-3112 -3620 -2724 -2708 -668 -412 -348 -336 -1352 -1128 0
-2152 -2276 -484 -468 -412 -796 -1564 -1552 -3592 -3112 0
-2216 -2276 -740 -724 -604 -796 -1308 -1296 -3336 -3112 0
-208 -716 -908 -916 -1812 -1332 -3124 -3112 -2152 -2128 0
-208 -2252 -2700 -2708 -2836 -820 -1332 -1320 -1128 -1104 0
-336 -844 -2828 -2836 -2708 -2228 -1204 -1192 -1128 -1104 0
-336 -1356 -3340 -3348 -3604 -2612 -692 -680 -232 -208 0
-592 -716 -908 -916 -2452 -2356 -3124 -3112 -1128 -1104 0
-592 -844 -1804 -1812 -1428 -1204 -2228 -2216 -2152 -2128 0
-592 -844 -2828 -2836 -3348 -3124 -1204 -1192 -232 -208 0
-592 -1612 -1676 -1684 -3220 -2228 -2356 -2344 -360 -336 0
-592 -2636 -2700 -2708 -2452 -436 -1332 -1320 -1128 -1104 0
-1104 -1356 -3340 -3348 -2836 -2612 -692 -680 -232 -208 0
-1104 -3148 -3340 -3348 -2452 -436 -692 -680 -616 -592 0
-1104 -3148 -3340 -3348 -2836 -820 -692 -680 -232 -208 0
-2128 -2636 -2828 -2836 -1812 -1332 -1204 -1192 -232 -208 0
-208 -1228 -1356 -1364 -3348 -2356 -2612 -2600 -680 -656 0
-400 -460 -844 -852 -1620 -1588 -3124 -3112 -2216 -2192 0
-400 -908 -1804 -1812 -3604 -3124 -2164 -2152 -232 -208 0
-400 -1420 -1804 -1812 -1620 -628 -2164 -2152 -2216 -2192 0
-656 -1676 -1612 -1620 -3156 -2164 -2356 -2344 -424 -400 0
-1168 -1228 -1356 -1364 -2388 -2356 -2612 -2600 -680 -656 0
-1168 -1420 -3340 -3348 -2836 -2612 -628 -616 -232 -208 0
-1168 -1676 -1612 -1620 -2644 -2164 -2356 -2344 -424 -400 0
-400 -908 -2700 -2708 -2644 -2164 -1140 -1128 -1320 -1296 0
-400 -1420 -1228 -1236 -1620 -628 -2612 -2600 -2344 -2320 0
-400 -1420 -1676 -1684 -3604 -2612 -2164 -2152 -360 -336 0
-784 -908 -1676 -1684 -3220 -3124 -2164 -2152 -360 -336 0
-784 -1804 -1612 -1620 -3156 -2164 -2228 -2216 -424 -400 0
-784 -1804 -1676 -1684 -3220 -2228 -2164 -2152 -360 -336 0
-784 -1804 -3596 -3604 -3156 -2164 -244 -232 -424 -400 0
-784 -2828 -2700 -2708 -3220 -1204 -1140 -1128 -360 -336 0
-784 -2828 -3596 -3604 -3220 -1204 -244 -232 -360 -336 0
-1296 -1420 -3212 -3220 -2260 -2164 -628 -616 -808 -784 0
-1296 -1420 -3212 -3220 -2708 -2612 -628 -616 -360 -336 0
-1296 -1804 -1612 -1620 -724 -244 -2228 -2216 -2344 -2320 0
-1296 -1804 -1612 -1620 -2644 -2164 -2228 -2216 -424 -400 0
-1296 -1804 -1676 -1684 -724 -244 -2164 -2152 -2344 -2320 0
-1296 -1804 -3596 -3604 -2708 -2228 -244 -232 -360 -336 0
-1296 -3340 -3212 -3220 -2708 -692 -628 -616 -360 -336 0
-2320 -2828 -2700 -2708 -724 -244 -1140 -1128 -1320 -1296 0
-592 -716 -460 -468 -1428 -1332 -3124 -3112 -2600 -2576 0
-592 -844 -460 -468 -1428 -1204 -3124 -3112 -2600 -2576 0
-656 -1676 -1228 -1236 -1364 -372 -2356 -2344 -2600 -2576 0
-784 -2828 -3340 -3348 -3220 -1204 -244 -232 -616 -592 0
-2576 -3596 -3212 -3220 -1236 -244 -372 -360 -808 -784 0
-1104 -1356 -844 -852 -2836 -2612 -2228 -2216 -1192 -1168 0
-1168 -1228 -716 -724 -852 -820 -2356 -2344 -3112 -3088 0
-1168 -1228 -716 -724 -2644 -2612 -2356 -2344 -1320 -1296 0
-1168 -1420 -460 -468 -2388 -2164 -2612 -2600 -1576 -1552 0
-1168 -1676 -2700 -2708 -2836 -2356 -372 -360 -1128 -1104 0
-1296 -1356 -460 -468 -724 -692 -2612 -2600 -3112 -3088 0
-1552 -1612 -844 -852 -468 -436 -2228 -2216 -3112 -3088 0
-3088 -3148 -2252 -2260 -724 -692 -820 -808 -1320 -1296 0
-3088 -3148 -2380 -2388 -468 -436 -692 -680 -1576 -1552 0
-3088 -3340 -2380 -2388 -468 -244 -692 -680 -1576 -1552 0
-2128 -2252 -716 -724 -916 -820 -1332 -1320 -3112 -3088 0
-2192 -2252 -460 -468 -1364 -1332 -1588 -1576 -2600 -2576 0
-2192 -2252 -716 -724 -852 -820 -1332 -1320 -3112 -3088 0
-2192 -3212 -1676 -1684 -1812 -820 -372 -360 -2152 -2128 0
-2320 -2380 -844 -852 -724 -692 -1204 -1192 -3112 -3088 0
-2320 -2444 -908 -916 -724 -628 -1140 -1128 -3112 -3088 0
-2320 -2444 -1420 -1428 -1236 -1140 -628 -616 -2600 -2576 0
-2320 -3340 -1804 -1812 -1620 -628 -244 -232 -2216 -2192 0
-2576 -2636 -716 -724 -468 -436 -1332 -1320 -3112 -3088 0
-2576 -2828 -908 -916 -1428 -1204 -1140 -1128 -2152 -2128 0
-2576 -3596 -1804 -1812 -1428 -436 -244 -232 -2152 -2128 0
-3088 -3212 -1676 -1684 -724 -628 -372 -360 -2344 -2320 0
-3088 -3212 -1676 -1684 -916 -820 -372 -360 -2152 -2128 0
-3088 -3596 -1676 -1684 -724 -244 -372 -360 -2344 -2320 0
-208 -460 -908 -932 -1828 -1588 -3124 -3096 -2136 -2128 0
-208 -460 -1420 -1444 -1828 -1588 -2612 -2584 -2136 -2128 0
-208 -716 -908 -932 -2852 -2356 -3124 -3096 -1112 -1104 0
-208 -1228 -1676 -1700 -1828 -820 -2356 -2328 -2136 -2128 0
-208 -2252 -2444 -2468 -3364 -1332 -1588 -1560 -600 -592 0
-336 -844 -2828 -2852 -3620 -3124 -1204 -1176 -216 -208 0
-336 -1356 -1804 -1828 -1700 -692 -2228 -2200 -2136 -2128 0
-336 -1356 -3340 -3364 -3620 -2612 -692 -664 -216 -208 0
-592 -844 -2828 -2852 -2468 -2228 -1204 -1176 -1112 -1104 0
-1104 -1228 -3212 -3236 -2468 -2356 -820 -792 -600 -592 0
-1104 -1356 -1420 -1444 -932 -692 -2612 -2584 -2136 -2128 0
-2128 -2380 -3340 -3364 -1444 -1204 -692 -664 -600 -592 0
-2128 -2636 -2828 -2852 -932 -436 -1204 -1176 -1112 -1104 0
-2128 -3148 -3212 -3236 -1444 -436 -820 -792 -600 -592 0
-208 -460 -2380 -2404 -2852 -2612 -1588 -1560 -1176 -1168 0
-208 -716 -1612 -1636 -1828 -1332 -2356 -2328 -2200 -2192 0
-208 -1228 -3148 -3172 -3620 -2612 -820 -792 -408 -400 0
-208 -2252 -3148 -3172 -3364 -1332 -820 -792 -664 -656 0
-400 -908 -1804 -1828 -1636 -1140 -2164 -2136 -2200 -2192 0
-400 -1420 -1356 -1380 -3172 -2164 -2612 -2584 -664 -656 0
-400 -1420 -1804 -1828 -3620 -2612 -2164 -2136 -216 -208 0
-400 -1420 -3340 -3364 -3620 -2612 -628 -600 -216 -208 0
-656 -716 -844 -868 -2404 -2356 -3124 -3096 -1176 -1168 0
-1168 -1420 -1804 -1828 -2852 -2612 -2164 -2136 -216 -208 0
-1168 -1420 -3340 -3364 -2852 -2612 -628 -600 -216 -208 0
-1168 -1676 -1612 -1636 -868 -372 -2356 -2328 -2200 -2192 0
-1168 -1676 -1804 -1828 -868 -372 -2164 -2136 -2200 -2192 0
-1168 -1676 -3596 -3620 -2852 -2356 -372 -344 -216 -208 0
-2192 -3212 -3596 -3620 -1828 -820 -372 -344 -216 -208 0
-336 -2380 -3148 -3172 -3620 -1588 -692 -664 -408 -400 0
-400 -460 -716 -740 -1636 -1588 -3124 -3096 -2328 -2320 0
-400 -460 -716 -740 -2660 -2612 -3124 -3096 -1304 -1296 0
-400 -460 -2252 -2276 -2660 -2612 -1588 -1560 -1304 -1296 0
-400 -908 -2700 -2724 -2660 -2164 -1140 -1112 -1304 -1296 0
-784 -908 -1676 -1700 -1252 -1140 -2164 -2136 -2328 -2320 0
-784 -1804 -1676 -1700 -1252 -244 -2164 -2136 -2328 -2320 0
-784 -2828 -2636 -2660 -2276 -244 -1204 -1176 -1304 -1296 0
-1296 -1356 -1228 -1252 -2276 -2228 -2612 -2584 -792 -784 0
-1296 -1420 -1228 -1252 -2276 -2164 -2612 -2584 -792 -784 0
-1296 -1420 -3212 -3236 -2724 -2612 -628 -600 -344 -336 0
-1296 -1804 -1612 -1636 -2660 -2164 -2228 -2200 -408 -400 0
-2320 -2380 -2636 -2660 -1636 -1588 -1204 -1176 -408 -400 0
-2320 -2828 -2636 -2660 -740 -244 -1204 -1176 -1304 -1296 0
-2320 -2828 -2700 -2724 -740 -244 -1140 -1112 -1304 -1296 0
-2320 -3340 -3212 -3236 -1252 -244 -628 -600 -792 -784 0
-592 -844 -460 -484 -1444 -1204 -3124 -3096 -2584 -2576 0
-656 -716 -2252 -2276 -3172 -3124 -1332 -1304 -792 -784 0
-656 -908 -460 -484 -1380 -1140 -3124 -3096 -2584 -2576 0
-656 -1676 -1228 -1252 -1380 -372 -2356 -2328 -2584 -2576 0
-656 -1676 -1420 -1444 -3364 -2356 -2164 -2136 -600 -592 0
-1552 -3596 -3212 -3236 -2468 -436 -372 -344 -600 -592 0
-2576 -3596 -3148 -3172 -1252 -244 -436 -408 -792 -784 0
-1104 -1228 -2252 -2276 -2468 -2356 -820 -792 -1560 -1552 0
-1104 -1228 -2252 -2276 -2724 -2612 -820 -792 -1304 -1296 0
-1104 -1356 -844 -868 -932 -692 -2228 -2200 -3096 -3088 0
-1104 -1612 -716 -740 -932 -436 -2356 -2328 -3096 -3088 0
-1104 -3148 -2380 -2404 -2852 -820 -692 -664 -1176 -1168 0
-1168 -1228 -2252 -2276 -2404 -2356 -820 -792 -1560 -1552 0
-1168 -1228 -2252 -2276 -2660 -2612 -820 -792 -1304 -1296 0
-1168 -1676 -2700 -2724 -2660 -2164 -372 -344 -1304 -1296 0
-1296 -1356 -460 -484 -2276 -2228 -2612 -2584 -1560 -1552 0
-1296 -3340 -2444 -2468 -2276 -244 -628 -600 -1560 -1552 0
-1552 -1676 -716 -740 -484 -372 -2356 -2328 -3096 -3088 0
-1552 -1676 -2700 -2724 -2276 -2164 -372 -344 -1304 -1296 0
-1552 -1804 -908 -932 -484 -244 -2164 -2136 -3096 -3088 0
-3088 -3148 -2380 -2404 -484 -436 -692 -664 -1560 -1552 0
-3088 -3212 -2252 -2276 -484 -372 -820 -792 -1560 -1552 0
-3088 -3212 -2252 -2276 -740 -628 -820 -792 -1304 -1296 0
-3088 -3212 -2700 -2724 -740 -628 -372 -344 -1304 -1296 0
-3088 -3340 -2380 -2404 -484 -244 -692 -664 -1560 -1552 0
-3088 -3596 -2636 -2660 -868 -372 -436 -408 -1176 -1168 0
-3088 -3596 -2700 -2724 -740 -244 -372 -344 -1304 -1296 0
-2128 -2380 -460 -484 -932 -692 -1588 -1560 -3096 -3088 0
-2128 -3148 -1356 -1380 -1828 -820 -692 -664 -2200 -2192 0
-2192 -2252 -716 -740 -1636 -1588 -1332 -1304 -2328 -2320 0
-2192 -2444 -908 -932 -1828 -1588 -1140 -1112 -2136 -2128 0
-2192 -2444 -1420 -1444 -1380 -1140 -628 -600 -2584 -2576 0
-2192 -2444 -1420 -1444 -1828 -1588 -628 -600 -2136 -2128 0
-2192 -2700 -1676 -1700 -1828 -1332 -372 -344 -2136 -2128 0
-2192 -3212 -1676 -1700 -1636 -628 -372 -344 -2328 -2320 0
-2320 -2380 -844 -868 -1636 -1588 -1204 -1176 -2200 -2192 0
-2320 -2828 -1804 -1828 -1700 -1204 -244 -216 -2136 -2128 0
-2320 -3340 -1356 -1380 -1252 -244 -692 -664 -2584 -2576 0
-2320 -3340 -1420 -1444 -1700 -692 -628 -600 -2136 -2128 0
-2576 -2700 -716 -740 -484 -372 -1332 -1304 -3096 -3088 0
-2576 -2700 -908 -932 -484 -372 -1140 -1112 -3096 -3088 0
-2576 -2700 -1676 -1700 -1252 -1140 -372 -344 -2328 -2320 0
-2576 -3596 -1676 -1700 -1252 -244 -372 -344 -2328 -2320 0
-2576 -3596 -1804 -1828 -1444 -436 -244 -216 -2136 -2128 0
-3088 -3212 -1676 -1700 -740 -628 -372 -344 -2328 -2320 0
-3088 -3340 -1804 -1828 -868 -628 -244 -216 -2200 -2192 0
-3088 -3340 -1804 -1828 -932 -692 -244 -216 -2136 -2128 0
-3088 -3596 -1612 -1636 -868 -372 -436 -408 -2200 -2192 0
-3088 -3596 -1676 -1700 -740 -244 -372 -344 -2328 -2320 0
-3088 -3596 -1804 -1828 -868 -372 -244 -216 -2200 -2192 0
-216 -468 -916 -908 -1804 -1580 -3116 -3112 -2152 -2136 0
-216 -468 -916 -908 -2828 -2604 -3116 -3112 -1128 -1112 0
-216 -724 -1684 -1676 -3596 -3116 -2348 -2344 -360 -344 0
-216 -1236 -1684 -1676 -1804 -812 -2348 -2344 -2152 -2136 0
-216 -1236 -1684 -1676 -3596 -2604 -2348 -2344 -360 -344 0
-344 -852 -1812 -1804 -3596 -3116 -2220 -2216 -232 -216 0
-344 -1364 -1812 -1804 -1676 -684 -2220 -2216 -2152 -2136 0
-344 -1364 -1812 -1804 -3596 -2604 -2220 -2216 -232 -216 0
-600 -724 -1684 -1676 -1420 -1324 -2348 -2344 -2152 -2136 0
-600 -724 -2708 -2700 -2444 -2348 -1324 -1320 -1128 -1112 0
-600 -724 -2708 -2700 -3212 -3116 -1324 -1320 -360 -344 0
-600 -852 -916 -908 -2444 -2220 -3116 -3112 -1128 -1112 0
-600 -852 -1812 -1804 -3340 -3116 -2220 -2216 -232 -216 0
-600 -2644 -3604 -3596 -3340 -1324 -428 -424 -232 -216 0
-1112 -1364 -1812 -1804 -908 -684 -2220 -2216 -2152 -2136 0
-1112 -1364 -1812 -1804 -2828 -2604 -2220 -2216 -232 -216 0
-1112 -3156 -3348 -3340 -2444 -428 -684 -680 -616 -600 0
-2136 -2260 -3220 -3212 -1676 -1580 -812 -808 -360 -344 0
-2136 -2644 -3604 -3596 -1676 -1196 -428 -424 -360 -344 0
-216 -468 -852 -844 -1804 -1580 -3116 -3112 -2216 -2200 0
-216 -468 -1364 -1356 -1804 -1580 -2604 -2600 -2216 -2200 0
-216 -468 -2388 -2380 -3340 -3116 -1580 -1576 -680 -664 0
-216 -724 -852 -844 -1804 -1324 -3116 -3112 -2216 -2200 0
-216 -1236 -1364 -1356 -3340 -2348 -2604 -2600 -680 -664 0
-408 -468 -852 -844 -2636 -2604 -3116 -3112 -1192 -1176 0
-408 -916 -1812 -1804 -1612 -1132 -2156 -2152 -2216 -2200 0
-408 -916 -1812 -1804 -3596 -3116 -2156 -2152 -232 -216 0
-408 -1428 -1364 -1356 -3148 -2156 -2604 -2600 -680 -664 0
-408 -1428 -1812 -1804 -1612 -620 -2156 -2152 -2216 -2200 0
-408 -2452 -2388 -2380 -2636 -620 -1580 -1576 -1192 -1176 0
-408 -2452 -2388 -2380 -3148 -1132 -1580 -1576 -680 -664 0
-664 -724 -852 -844 -2380 -2348 -3116 -3112 -1192 -1176 0
-664 -724 -2644 -2636 -2380 -2348 -1324 -1320 -1192 -1176 0
-664 -916 -852 -844 -1356 -1132 -3116 -3112 -2216 -2200 0
-664 -2708 -2644 -2636 -3148 -1132 -1324 -1320 -424 -408 0
-664 -2708 -2836 -2828 -3340 -1324 -1132 -1128 -232 -216 0
-664 -2708 -3604 -3596 -3148 -1132 -364 -360 -424 -408 0
-1176 -1236 -1364 -1356 -2380 -2348 -2604 -2600 -680 -664 0
-2200 -3220 -3604 -3596 -1804 -812 -364 -360 -232 -216 0
-344 -468 -724 -716 -1676 -1580 -3116 -3112 -2344 -2328 0
-344 -852 -724 -716 -1676 -1196 -3116 -3112 -2344 -2328 0
-344 -852 -1620 -1612 -3596 -3116 -2220 -2216 -424 -408 0
-344 -1364 -1236 -1228 -3212 -2220 -2604 -2600 -808 -792 0
-408 -916 -1684 -1676 -3596 -3116 -2156 -2152 -360 -344 0
-408 -1428 -1684 -1676 -3596 -2604 -2156 -2152 -360 -344 0
-408 -1428 -3220 -3212 -3596 -2604 -620 -616 -360 -344 0
-408 -2452 -2260 -2252 -2636 -620 -1580 -1576 -1320 -1304 0
-792 -852 -724 -716 -2252 -2220 -3116 -3112 -1320 -1304 0
-792 -916 -1684 -1676 -1228 -1132 -2156 -2152 -2344 -2328 0
-792 -916 -1684 -1676 -3212 -3116 -2156 -2152 -360 -344 0
-792 -2836 -3604 -3596 -3148 -1132 -236 -232 -424 -408 0
-1304 -1812 -1684 -1676 -716 -236 -2156 -2152 -2344 -2328 0
-1304 -3348 -3220 -3212 -2252 -236 -620 -616 -808 -792 0
-2328 -2388 -2260 -2252 -716 -684 -1580 -1576 -1320 -1304 0
-2328 -2388 -3156 -3148 -1612 -1580 -684 -680 -424 -408 0
-2328 -2836 -3604 -3596 -1676 -1196 -236 -232 -360 -344 0
-600 -852 -1364 -1356 -1420 -1196 -2220 -2216 -2600 -2584 0
-600 -1620 -1364 -1356 -1420 -428 -2220 -2216 -2600 -2584 0
-600 -2644 -2388 -2380 -2444 -428 -1196 -1192 -1576 -1560 0
-600 -2644 -3156 -3148 -3212 -1196 -428 -424 -808 -792 0
-664 -916 -1428 -1420 -3340 -3116 -2156 -2152 -616 -600 0
-664 -916 -2452 -2444 -3340 -3116 -1132 -1128 -616 -600 0
-664 -1684 -1236 -1228 -1356 -364 -2348 -2344 -2600 -2584 0
-664 -2708 -3220 -3212 -3148 -1132 -364 -360 -808 -792 0
-792 -916 -468 -460 -1228 -1132 -3116 -3112 -2600 -2584 0
-792 -1812 -1364 -1356 -3148 -2156 -2220 -2216 -680 -664 0
-1560 -1620 -1364 -1356 -460 -428 -2220 -2216 -2600 -2584 0
-1560 -1812 -1364 -1356 -460 -236 -2220 -2216 -2600 -2584 0
-1560 -1812 -1428 -1420 -2444 -2220 -2156 -2152 -616 -600 0
-1560 -1812 -3348 -3340 -2444 -2220 -236 -232 -616 -600 0
-2584 -2708 -3220 -3212 -1420 -1324 -364 -360 -616 -600 0
-2584 -2836 -2452 -2444 -1420 -1196 -1132 -1128 -616 -600 0
-1176 -1236 -468 -460 -844 -812 -2604 -2600 -3112 -3096 0
-1176 -1428 -916 -908 -844 -620 -2156 -2152 -3112 -3096 0
-1176 -1428 -916 -908 -2828 -2604 -2156 -2152 -1128 -1112 0
-1176 -1684 -916 -908 -844 -364 -2156 -2152 -3112 -3096 0
-1176 -3220 -2452 -2444 -2380 -364 -620 -616 -1576 -1560 0
-1304 -1364 -468 -460 -716 -684 -2604 -2600 -3112 -3096 0
-1304 -1428 -468 -460 -716 -620 -2604 -2600 -3112 -3096 0
-1304 -3348 -2836 -2828 -2700 -684 -236 -232 -1128 -1112 0
-1560 -1620 -852 -844 -460 -428 -2220 -2216 -3112 -3096 0
-1560 -1684 -916 -908 -460 -364 -2156 -2152 -3112 -3096 0
-1560 -1812 -916 -908 -2444 -2220 -2156 -2152 -1128 -1112 0
-1560 -3604 -2644 -2636 -2252 -236 -428 -424 -1320 -1304 0
-3096 -3156 -2260 -2252 -716 -684 -812 -808 -1320 -1304 0
-3096 -3220 -2260 -2252 -460 -364 -812 -808 -1576 -1560 0
-2136 -2260 -724 -716 -1676 -1580 -1324 -1320 -2344 -2328 0
-2136 -2388 -468 -460 -908 -684 -1580 -1576 -3112 -3096 0
-2136 -2388 -468 -460 -1420 -1196 -1580 -1576 -2600 -2584 0
-2136 -3156 -1364 -1356 -1420 -428 -684 -680 -2600 -2584 0
-2136 -3156 -1364 -1356 -1804 -812 -684 -680 -2216 -2200 0
-2136 -3156 -1620 -1612 -1676 -684 -428 -424 -2344 -2328 0
-2136 -3156 -1620 -1612 -1804 -812 -428 -424 -2216 -2200 0
-2200 -2452 -916 -908 -1804 -1580 -1132 -1128 -2152 -2136 0
-2200 -2452 -1428 -1420 -1804 -1580 -620 -616 -2152 -2136 0
-2200 -2708 -1684 -1676 -1612 -1132 -364 -360 -2344 -2328 0
-2328 -2388 -468 -460 -716 -684 -1580 -1576 -3112 -3096 0
-2328 -2388 -1364 -1356 -1228 -1196 -684 -680 -2600 -2584 0
-2328 -2836 -916 -908 -1676 -1196 -1132 -1128 -2152 -2136 0
-2328 -2836 -1812 -1804 -1612 -1132 -236 -232 -2216 -2200 0
-2328 -3348 -1364 -1356 -1612 -620 -684 -680 -2216 -2200 0
-2328 -3348 -1812 -1804 -1612 -620 -236 -232 -2216 -2200 0
-2584 -2644 -852 -844 -1356 -1324 -1196 -1192 -2216 -2200 0
-2584 -2708 -724 -716 -460 -364 -1324 -1320 -3112 -3096 0
-2584 -2708 -916 -908 -1420 -1324 -1132 -1128 -2152 -2136 0
-2584 -2836 -916 -908 -1420 -1196 -1132 -1128 -2152 -2136 0
-3096 -3156 -1364 -1356 -460 -428 -684 -680 -2600 -2584 0
-3096 -3348 -1364 -1356 -844 -620 -684 -680 -2216 -2200 0
-3096 -3604 -1684 -1676 -716 -236 -364 -360 -2344 -2328 0
-216 -468 -916 -932 -2852 -2604 -3116 -3088 -1104 -1112 0
-216 -724 -916 -932 -1828 -1324 -3116 -3088 -2128 -2136 0
-216 -1236 -1428 -1444 -1828 -812 -2604 -2576 -2128 -2136 0
-216 -1236 -1684 -1700 -1828 -812 -2348 -2320 -2128 -2136 0
-216 -1236 -1684 -1700 -3620 -2604 -2348 -2320 -336 -344 0
-216 -2260 -2452 -2468 -2852 -812 -1580 -1552 -1104 -1112 0
-344 -468 -916 -932 -1700 -1580 -3116 -3088 -2128 -2136 0
-344 -1364 -1812 -1828 -3620 -2604 -2220 -2192 -208 -216 0
-344 -2388 -2452 -2468 -2724 -684 -1580 -1552 -1104 -1112 0
-600 -724 -2708 -2724 -3236 -3116 -1324 -1296 -336 -344 0
-600 -852 -1812 -1828 -1444 -1196 -2220 -2192 -2128 -2136 0
-600 -852 -1812 -1828 -3364 -3116 -2220 -2192 -208 -216 0
-600 -852 -2836 -2852 -2468 -2220 -1196 -1168 -1104 -1112 0
-600 -1620 -3604 -3620 -3364 -2348 -428 -400 -208 -216 0
-1112 -1364 -1812 -1828 -932 -684 -2220 -2192 -2128 -2136 0
-1112 -1620 -1812 -1828 -932 -428 -2220 -2192 -2128 -2136 0
-1112 -1620 -1812 -1828 -2852 -2348 -2220 -2192 -208 -216 0
-2136 -2388 -2452 -2468 -1444 -1196 -1580 -1552 -592 -600 0
-2136 -2388 -3348 -3364 -1444 -1196 -684 -656 -592 -600 0
-2136 -2388 -3348 -3364 -1828 -1580 -684 -656 -208 -216 0
-2136 -2644 -2836 -2852 -1828 -1324 -1196 -1168 -208 -216 0
-2136 -3156 -3220 -3236 -1444 -428 -812 -784 -592 -600 0
-2136 -3156 -3348 -3364 -1828 -812 -684 -656 -208 -216 0
-2136 -3156 -3604 -3620 -1700 -684 -428 -400 -336 -344 0
-216 -468 -852 -868 -2852 -2604 -3116 -3088 -1168 -1176 0
-216 -2260 -2388 -2404 -2852 -812 -1580 -1552 -1168 -1176 0
-408 -916 -1812 -1828 -1636 -1132 -2156 -2128 -2192 -2200 0
-408 -916 -2836 -2852 -2660 -2156 -1132 -1104 -1168 -1176 0
-664 -1684 -1812 -1828 -3364 -2348 -2156 -2128 -208 -216 0
-664 -2708 -2836 -2852 -2404 -364 -1132 -1104 -1168 -1176 0
-1176 -1236 -3156 -3172 -2660 -2604 -812 -784 -400 -408 0
-1176 -1684 -1812 -1828 -868 -364 -2156 -2128 -2192 -2200 0
-1176 -1684 -1812 -1828 -2852 -2348 -2156 -2128 -208 -216 0
-2200 -2260 -2388 -2404 -868 -812 -1580 -1552 -1168 -1176 0
-344 -852 -724 -740 -1700 -1196 -3116 -3088 -2320 -2328 0
-408 -468 -1236 -1252 -1636 -1580 -2604 -2576 -2320 -2328 0
-408 -916 -1684 -1700 -1636 -1132 -2156 -2128 -2320 -2328 0
-408 -2452 -2708 -2724 -2660 -620 -1132 -1104 -1296 -1304 0
-792 -2836 -3604 -3620 -3172 -1132 -236 -208 -400 -408 0
-1304 -1812 -3604 -3620 -2660 -2156 -236 -208 -400 -408 0
-1304 -3348 -3604 -3620 -2660 -620 -236 -208 -400 -408 0
-2328 -2388 -3156 -3172 -1252 -1196 -684 -656 -784 -792 0
-2328 -2388 -3156 -3172 -1636 -1580 -684 -656 -400 -408 0
-2328 -2452 -2260 -2276 -740 -620 -1580 -1552 -1296 -1304 0
-2328 -3348 -3156 -3172 -1636 -620 -684 -656 -400 -408 0
-600 -724 -2260 -2276 -2468 -2348 -1324 -1296 -1552 -1560 0
-600 -852 -1364 -1380 -3364 -3116 -2220 -2192 -656 -664 0
-600 -1620 -3156 -3172 -3236 -2220 -428 -400 -784 -792 0
-792 -916 -468 -484 -2276 -2156 -3116 -3088 -1552 -1560 0
-1560 -1812 -1428 -1444 -484 -236 -2156 -2128 -2576 -2584 0
-2584 -2644 -2260 -2276 -1252 -1196 -1324 -1296 -784 -792 0
-2584 -3604 -3348 -3364 -1444 -428 -236 -208 -592 -600 0
-1112 -1236 -468 -484 -932 -812 -2604 -2576 -3088 -3096 0
-1112 -1236 -2260 -2276 -2724 -2604 -812 -784 -1296 -1304 0
-1112 -1620 -724 -740 -2724 -2220 -2348 -2320 -1296 -1304 0
-1112 -3156 -2644 -2660 -2852 -812 -428 -400 -1168 -1176 0
-1304 -1428 -468 -484 -740 -620 -2604 -2576 -3088 -3096 0
-1304 -1428 -2452 -2468 -2724 -2604 -620 -592 -1104 -1112 0
-1304 -1812 -852 -868 -2660 -2156 -2220 -2192 -1168 -1176 0
-1304 -3348 -2388 -2404 -2276 -236 -684 -656 -1552 -1560 0
-1560 -1620 -852 -868 -2404 -2348 -2220 -2192 -1168 -1176 0
-1560 -1684 -724 -740 -484 -364 -2348 -2320 -3088 -3096 0
-1560 -1812 -916 -932 -484 -236 -2156 -2128 -3088 -3096 0
-1560 -1812 -2836 -2852 -2404 -2156 -236 -208 -1168 -1176 0
-1560 -3604 -2836 -2852 -2404 -364 -236 -208 -1168 -1176 0
-3096 -3220 -2260 -2276 -740 -620 -812 -784 -1296 -1304 0
-3096 -3604 -2644 -2660 -740 -236 -428 -400 -1296 -1304 0
-3096 -3604 -2644 -2660 -868 -364 -428 -400 -1168 -1176 0
-2136 -2260 -724 -740 -1700 -1580 -1324 -1296 -2320 -2328 0
-2136 -2388 -468 -484 -1444 -1196 -1580 -1552 -2576 -2584 0
-2136 -3156 -1236 -1252 -1444 -428 -812 -784 -2576 -2584 0
-2136 -3156 -1364 -1380 -1828 -812 -684 -656 -2192 -2200 0
-2200 -2708 -916 -932 -868 -364 -1132 -1104 -3088 -3096 0
-2200 -3220 -1236 -1252 -1636 -620 -812 -784 -2320 -2328 0
-2328 -2388 -1364 -1380 -1252 -1196 -684 -656 -2576 -2584 0
-2328 -2836 -1812 -1828 -1636 -1132 -236 -208 -2192 -2200 0
-2328 -3348 -1428 -1444 -1700 -684 -620 -592 -2128 -2136 0
-2328 -3348 -1812 -1828 -1700 -684 -236 -208 -2128 -2136 0
-2584 -2836 -852 -868 -1380 -1132 -1196 -1168 -2192 -2200 0
-2584 -3604 -1620 -1636 -1252 -236 -428 -400 -2320 -2328 0
-2584 -3604 -1620 -1636 -1380 -364 -428 -400 -2192 -2200 0
-2584 -3604 -1684 -1700 -1444 -428 -364 -336 -2128 -2136 0
-3096 -3156 -1364 -1380 -868 -812 -684 -656 -2192 -2200 0
-3096 -3348 -1812 -1828 -868 -620 -236 -208 -2192 -2200 0
-3096 -3348 -1812 -1828 -932 -684 -236 -208 -2128 -2136 0
-3096 -3604 -1812 -1828 -868 -364 -236 -208 -2192 -2200 0
-232 -484 -932 -908 -1804 -1564 -3100 -3096 -2136 -2152 0
-232 -484 -1444 -1420 -3340 -3100 -2588 -2584 -600 -616 0
-232 -740 -932 -908 -1804 -1308 -3100 -3096 -2136 -2152 0
-232 -740 -2724 -2700 -2828 -2332 -1308 -1304 -1112 -1128 0
-232 -1252 -1444 -1420 -3340 -2332 -2588 -2584 -600 -616 0
-360 -484 -932 -908 -2700 -2588 -3100 -3096 -1112 -1128 0
-360 -484 -2468 -2444 -3212 -3100 -1564 -1560 -600 -616 0
-360 -868 -1828 -1804 -1676 -1180 -2204 -2200 -2136 -2152 0
-360 -1380 -1828 -1804 -3596 -2588 -2204 -2200 -216 -232 0
-360 -1380 -3364 -3340 -3596 -2588 -668 -664 -216 -232 0
-360 -2404 -2468 -2444 -2700 -668 -1564 -1560 -1112 -1128 0
-360 -2404 -3364 -3340 -3596 -1564 -668 -664 -216 -232 0
-616 -740 -1700 -1676 -3212 -3100 -2332 -2328 -344 -360 0
-616 -1636 -1828 -1804 -1420 -412 -2204 -2200 -2136 -2152 0
-616 -1636 -1828 -1804 -3340 -2332 -2204 -2200 -216 -232 0
-616 -2660 -2852 -2828 -2444 -412 -1180 -1176 -1112 -1128 0
-1128 -1380 -1828 -1804 -908 -668 -2204 -2200 -2136 -2152 0
-1128 -3172 -3620 -3596 -2700 -668 -412 -408 -344 -360 0
-1128 -3172 -3620 -3596 -2828 -796 -412 -408 -216 -232 0
-2152 -2276 -2468 -2444 -1420 -1308 -1564 -1560 -600 -616 0
-2152 -2276 -3236 -3212 -1420 -1308 -796 -792 -600 -616 0
-2152 -2404 -2468 -2444 -908 -668 -1564 -1560 -1112 -1128 0
-232 -484 -1380 -1356 -1804 -1564 -2588 -2584 -2200 -2216 0
-232 -484 -1380 -1356 -3340 -3100 -2588 -2584 -664 -680 0
-232 -484 -2404 -2380 -3340 -3100 -1564 -1560 -664 -680 0
-232 -740 -1636 -1612 -1804 -1308 -2332 -2328 -2200 -2216 0
-232 -1252 -3172 -3148 -3340 -2332 -796 -792 -664 -680 0
-232 -2276 -2404 -2380 -2828 -796 -1564 -1560 -1176 -1192 0
-232 -2276 -2404 -2380 -3340 -1308 -1564 -1560 -664 -680 0
-424 -484 -2404 -2380 -3148 -3100 -1564 -1560 -664 -680 0
-424 -932 -1828 -1804 -1612 -1116 -2140 -2136 -2200 -2216 0
-424 -932 -2852 -2828 -3596 -3100 -1116 -1112 -216 -232 0
-424 -1444 -1380 -1356 -1612 -604 -2588 -2584 -2200 -2216 0
-424 -1444 -1828 -1804 -3596 -2588 -2140 -2136 -216 -232 0
-424 -1444 -3364 -3340 -3148 -2140 -604 -600 -664 -680 0
-424 -1444 -3364 -3340 -3596 -2588 -604 -600 -216 -232 0
-424 -2468 -2404 -2380 -2636 -604 -1564 -1560 -1176 -1192 0
-680 -740 -868 -844 -1356 -1308 -3100 -3096 -2200 -2216 0
-680 -932 -1828 -1804 -3340 -3100 -2140 -2136 -216 -232 0
-680 -932 -2852 -2828 -3340 -3100 -1116 -1112 -216 -232 0
-680 -1700 -1828 -1804 -1356 -348 -2140 -2136 -2200 -2216 0
-2216 -2276 -3172 -3148 -1356 -1308 -796 -792 -664 -680 0
-2216 -2276 -3172 -3148 -1612 -1564 -796 -792 -408 -424 0
-2216 -2468 -3364 -3340 -1356 -1116 -604 -600 -664 -680 0
-2216 -2724 -2660 -2636 -844 -348 -1308 -1304 -1176 -1192 0
-2216 -3236 -3172 -3148 -1356 -348 -796 -792 -664 -680 0
-2216 -3236 -3364 -3340 -1804 -796 -604 -600 -216 -232 0
-360 -2404 -2276 -2252 -2700 -668 -1564 -1560 -1304 -1320 0
-360 -2404 -2276 -2252 -3212 -1180 -1564 -1560 -792 -808 0
-424 -932 -740 -716 -1612 -1116 -3100 -3096 -2328 -2344 0
-424 -1444 -1700 -1676 -3596 -2588 -2140 -2136 -344 -360 0
-424 -2468 -2276 -2252 -2636 -604 -1564 -1560 -1304 -1320 0
-808 -1828 -3620 -3596 -3212 -2204 -220 -216 -344 -360 0
-808 -2852 -2660 -2636 -2252 -220 -1180 -1176 -1304 -1320 0
-808 -2852 -3620 -3596 -3212 -1180 -220 -216 -344 -360 0
-1320 -1380 -3172 -3148 -2252 -2204 -668 -664 -792 -808 0
-1320 -1828 -1636 -1612 -2636 -2140 -2204 -2200 -408 -424 0
-1320 -3364 -3172 -3148 -2252 -220 -668 -664 -792 -808 0
-1320 -3364 -3620 -3596 -2700 -668 -220 -216 -344 -360 0
-2344 -2468 -3236 -3212 -1228 -1116 -604 -600 -792 -808 0
-2344 -2852 -3620 -3596 -1612 -1116 -220 -216 -408 -424 0
-2344 -2852 -3620 -3596 -1676 -1180 -220 -216 -344 -360 0
-2344 -3364 -3620 -3596 -1612 -604 -220 -216 -408 -424 0
-2344 -3364 -3620 -3596 -1676 -668 -220 -216 -344 -360 0
-616 -740 -484 -460 -1420 -1308 -3100 -3096 -2584 -2600 0
-616 -740 -1252 -1228 -1420 -1308 -2332 -2328 -2584 -2600 0
-616 -868 -1380 -1356 -3340 -3100 -2204 -2200 -664 -680 0
-616 -1636 -1252 -1228 -1420 -412 -2332 -2328 -2584 -2600 0
-680 -740 -484 -460 -1356 -1308 -3100 -3096 -2584 -2600 0
-680 -740 -484 -460 -2380 -2332 -3100 -3096 -1560 -1576 0
-680 -740 -1252 -1228 -3148 -3100 -2332 -2328 -792 -808 0
-808 -2852 -2468 -2444 -2252 -220 -1116 -1112 -1560 -1576 0
-1576 -1700 -1252 -1228 -460 -348 -2332 -2328 -2584 -2600 0
-1576 -1828 -1444 -1420 -460 -220 -2140 -2136 -2584 -2600 0
-1576 -1828 -1444 -1420 -2444 -2204 -2140 -2136 -600 -616 0
-2600 -2660 -2276 -2252 -1228 -1180 -1308 -1304 -792 -808 0
-2600 -2660 -2404 -2380 -460 -412 -1180 -1176 -1560 -1576 0
-2600 -3620 -3236 -3212 -1228 -220 -348 -344 -792 -808 0
-1128 -1252 -484 -460 -908 -796 -2588 -2584 -3096 -3112 0
-1128 -1252 -484 -460 -2444 -2332 -2588 -2584 -1560 -1576 0
-1128 -1252 -740 -716 -908 -796 -2332 -2328 -3096 -3112 0
-1128 -1252 -2276 -2252 -2700 -2588 -796 -792 -1304 -1320 0
-1128 -1380 -2404 -2380 -2444 -2204 -668 -664 -1560 -1576 0
-1128 -1380 -2404 -2380 -2828 -2588 -668 -664 -1176 -1192 0
-1128 -1636 -740 -716 -2700 -2204 -2332 -2328 -1304 -1320 0
-1128 -1636 -868 -844 -908 -412 -2204 -2200 -3096 -3112 0
-1128 -3172 -2276 -2252 -2444 -412 -796 -792 -1560 -1576 0
-1128 -3172 -2276 -2252 -2700 -668 -796 -792 -1304 -1320 0
-1128 -3172 -2404 -2380 -2444 -412 -668 -664 -1560 -1576 0
-1128 -3172 -2660 -2636 -2700 -668 -412 -408 -1304 -1320 0
-1192 -1252 -2276 -2252 -2380 -2332 -796 -792 -1560 -1576 0
-1192 -1252 -2276 -2252 -2636 -2588 -796 -792 -1304 -1320 0
-1192 -1444 -484 -460 -844 -604 -2588 -2584 -3096 -3112 0
-1192 -3236 -2276 -2252 -2636 -604 -796 -792 -1304 -1320 0
-1192 -3236 -2724 -2700 -2828 -796 -348 -344 -1112 -1128 0
-1320 -1380 -484 -460 -2252 -2204 -2588 -2584 -1560 -1576 0
-1320 -1444 -2468 -2444 -2252 -2140 -604 -600 -1560 -1576 0
-1320 -1828 -932 -908 -716 -220 -2140 -2136 -3096 -3112 0
-1320 -1828 -932 -908 -2700 -2204 -2140 -2136 -1112 -1128 0
-1320 -3364 -2404 -2380 -2252 -220 -668 -664 -1560 -1576 0
-1320 -3364 -2468 -2444 -2700 -668 -604 -600 -1112 -1128 0
-1576 -1700 -932 -908 -2444 -2332 -2140 -2136 -1112 -1128 0
-3112 -3172 -2276 -2252 -460 -412 -796 -792 -1560 -1576 0
-3112 -3172 -2276 -2252 -716 -668 -796 -792 -1304 -1320 0
-3112 -3236 -2276 -2252 -716 -604 -796 -792 -1304 -1320 0
-3112 -3364 -2468 -2444 -460 -220 -604 -600 -1560 -1576 0
-3112 -3620 -2660 -2636 -716 -220 -412 -408 -1304 -1320 0
-2152 -2276 -484 -460 -908 -796 -1564 -1560 -3096 -3112 0
-2152 -2276 -484 -460 -1420 -1308 -1564 -1560 -2584 -2600 0
-2152 -2276 -1252 -1228 -1420 -1308 -796 -792 -2584 -2600 0
-2152 -2276 -1252 -1228 -1676 -1564 -796 -792 -2328 -2344 0
-2152 -2404 -484 -460 -1420 -1180 -1564 -1560 -2584 -2600 0
-2152 -2660 -740 -716 -908 -412 -1308 -1304 -3096 -3112 0
-2152 -3172 -1380 -1356 -1804 -796 -668 -664 -2200 -2216 0
-2216 -2276 -484 -460 -844 -796 -1564 -1560 -3096 -3112 0
-2216 -2468 -484 -460 -1356 -1116 -1564 -1560 -2584 -2600 0
-2216 -2468 -1444 -1420 -1804 -1564 -604 -600 -2136 -2152 0
-2216 -3236 -1252 -1228 -1356 -348 -796 -792 -2584 -2600 0
-2216 -3236 -1444 -1420 -1356 -348 -604 -600 -2584 -2600 0
-2344 -2404 -484 -460 -1228 -1180 -1564 -1560 -2584 -2600 0
-2344 -2468 -484 -460 -1228 -1116 -1564 -1560 -2584 -2600 0
-2344 -2852 -868 -844 -716 -220 -1180 -1176 -3096 -3112 0
-2344 -2852 -932 -908 -716 -220 -1116 -1112 -3096 -3112 0
-2344 -2852 -1828 -1804 -1676 -1180 -220 -216 -2136 -2152 0
-2344 -3364 -1828 -1804 -1676 -668 -220 -216 -2136 -2152 0
-2600 -2724 -932 -908 -460 -348 -1116 -1112 -3096 -3112 0
-3112 -3236 -1444 -1420 -460 -348 -604 -600 -2584 -2600 0
-3112 -3364 -1380 -1356 -460 -220 -668 -664 -2584 -2600 0
-3112 -3364 -1828 -1804 -844 -604 -220 -216 -2200 -2216 0
-3112 -3364 -1828 -1804 -908 -668 -220 -216 -2136 -2152 0
-3112 -3620 -1828 -1804 -844 -348 -220 -216 -2200 -2216 0
-232 -484 -932 -916 -2836 -2588 -3100 -3088 -1104 -1128 0
-232 -484 -1444 -1428 -1812 -1564 -2588 -2576 -2128 -2152 0
-232 -484 -1444 -1428 -3348 -3100 -2588 -2576 -592 -616 0
-232 -740 -932 -916 -2836 -2332 -3100 -3088 -1104 -1128 0
-360 -484 -1444 -1428 -1684 -1564 -2588 -2576 -2128 -2152 0
-360 -484 -1444 -1428 -3220 -3100 -2588 -2576 -592 -616 0
-360 -868 -932 -916 -1684 -1180 -3100 -3088 -2128 -2152 0
-360 -868 -1828 -1812 -1684 -1180 -2204 -2192 -2128 -2152 0
-360 -868 -1828 -1812 -3604 -3100 -2204 -2192 -208 -232 0
-360 -868 -2852 -2836 -2708 -2204 -1180 -1168 -1104 -1128 0
-360 -1380 -1444 -1428 -1684 -668 -2588 -2576 -2128 -2152 0
-360 -2404 -2468 -2452 -3220 -1180 -1564 -1552 -592 -616 0
-616 -740 -2724 -2708 -3220 -3100 -1308 -1296 -336 -360 0
-616 -868 -932 -916 -1428 -1180 -3100 -3088 -2128 -2152 0
-616 -2660 -2852 -2836 -2452 -412 -1180 -1168 -1104 -1128 0
-616 -2660 -3620 -3604 -3220 -1180 -412 -400 -336 -360 0
-1128 -1252 -1444 -1428 -916 -796 -2588 -2576 -2128 -2152 0
-1128 -1380 -1444 -1428 -916 -668 -2588 -2576 -2128 -2152 0
-1128 -1636 -3620 -3604 -2708 -2204 -412 -400 -336 -360 0
-2152 -2276 -2468 -2452 -916 -796 -1564 -1552 -1104 -1128 0
-2152 -2276 -2724 -2708 -916 -796 -1308 -1296 -1104 -1128 0
-2152 -2276 -3236 -3220 -1428 -1308 -796 -784 -592 -616 0
-2152 -2404 -2852 -2836 -916 -668 -1180 -1168 -1104 -1128 0
-2152 -2660 -2852 -2836 -916 -412 -1180 -1168 -1104 -1128 0
-2152 -3172 -3364 -3348 -1428 -412 -668 -656 -592 -616 0
-2152 -3172 -3364 -3348 -1812 -796 -668 -656 -208 -232 0
-232 -484 -1380 -1364 -3348 -3100 -2588 -2576 -656 -680 0
-232 -1252 -3172 -3156 -3348 -2332 -796 -784 -656 -680 0
-424 -484 -1380 -1364 -3156 -3100 -2588 -2576 -656 -680 0
-424 -932 -868 -852 -2644 -2140 -3100 -3088 -1168 -1192 0
-424 -1444 -1380 -1364 -3156 -2140 -2588 -2576 -656 -680 0
-680 -932 -1828 -1812 -3348 -3100 -2140 -2128 -208 -232 0
-680 -1700 -1828 -1812 -3348 -2332 -2140 -2128 -208 -232 0
-680 -2724 -2660 -2644 -3156 -1116 -1308 -1296 -400 -424 0
-1192 -1444 -1828 -1812 -2836 -2588 -2140 -2128 -208 -232 0
-1192 -1700 -3620 -3604 -2836 -2332 -348 -336 -208 -232 0
-1192 -3236 -3172 -3156 -2644 -604 -796 -784 -400 -424 0
-2216 -2276 -3172 -3156 -1364 -1308 -796 -784 -656 -680 0
-2216 -2468 -2404 -2388 -1364 -1116 -1564 -1552 -656 -680 0
-2216 -2468 -3364 -3348 -1812 -1564 -604 -592 -208 -232 0
-360 -484 -1252 -1236 -1684 -1564 -2588 -2576 -2320 -2344 0
-360 -484 -1252 -1236 -3220 -3100 -2588 -2576 -784 -808 0
-360 -868 -1636 -1620 -1684 -1180 -2204 -2192 -2320 -2344 0
-360 -1380 -1252 -1236 -1684 -668 -2588 -2576 -2320 -2344 0
-360 -2404 -2276 -2260 -2708 -668 -1564 -1552 -1296 -1320 0
-360 -2404 -2276 -2260 -3220 -1180 -1564 -1552 -784 -808 0
-424 -484 -1252 -1236 -1620 -1564 -2588 -2576 -2320 -2344 0
-424 -932 -1700 -1684 -3604 -3100 -2140 -2128 -336 -360 0
-424 -932 -2724 -2708 -3604 -3100 -1116 -1104 -336 -360 0
-424 -1444 -1700 -1684 -3604 -2588 -2140 -2128 -336 -360 0
-424 -2468 -3236 -3220 -3156 -1116 -604 -592 -784 -808 0
-808 -868 -2660 -2644 -2260 -2204 -1180 -1168 -1296 -1320 0
-1320 -1444 -1252 -1236 -724 -604 -2588 -2576 -2320 -2344 0
-2344 -2404 -2276 -2260 -724 -668 -1564 -1552 -1296 -1320 0
-2344 -2404 -2276 -2260 -1236 -1180 -1564 -1552 -784 -808 0
-2344 -2852 -3620 -3604 -1620 -1116 -220 -208 -400 -424 0
-2344 -3364 -3620 -3604 -1620 -604 -220 -208 -400 -424 0
-616 -740 -484 -468 -1428 -1308 -3100 -3088 -2576 -2600 0
-616 -740 -484 -468 -2452 -2332 -3100 -3088 -1552 -1576 0
-616 -740 -1252 -1236 -1428 -1308 -2332 -2320 -2576 -2600 0
-616 -740 -2276 -2260 -2452 -2332 -1308 -1296 -1552 -1576 0
-616 -740 -2276 -2260 -3220 -3100 -1308 -1296 -784 -808 0
-680 -740 -484 -468 -1364 -1308 -3100 -3088 -2576 -2600 0
-680 -740 -1252 -1236 -3156 -3100 -2332 -2320 -784 -808 0
-680 -740 -2276 -2260 -3156 -3100 -1308 -1296 -784 -808 0
-680 -1700 -1444 -1428 -1364 -348 -2140 -2128 -2576 -2600 0
-680 -1700 -3236 -3220 -3348 -2332 -348 -336 -592 -616 0
-808 -1828 -1380 -1364 -3156 -2140 -2204 -2192 -656 -680 0
-1576 -1700 -1252 -1236 -468 -348 -2332 -2320 -2576 -2600 0
-1576 -1828 -1380 -1364 -468 -220 -2204 -2192 -2576 -2600 0
-1576 -3620 -3364 -3348 -2388 -348 -220 -208 -656 -680 0
-2600 -2660 -2404 -2388 -468 -412 -1180 -1168 -1552 -1576 0
-2600 -3620 -3236 -3220 -1428 -412 -348 -336 -592 -616 0
-1128 -1252 -484 -468 -916 -796 -2588 -2576 -3088 -3112 0
-1128 -1380 -868 -852 -916 -668 -2204 -2192 -3088 -3112 0
-1128 -1380 -2404 -2388 -2452 -2204 -668 -656 -1552 -1576 0
-1128 -1636 -740 -724 -2708 -2204 -2332 -2320 -1296 -1320 0
-1128 -1636 -2660 -2644 -2708 -2204 -412 -400 -1296 -1320 0
-1128 -3172 -2404 -2388 -2452 -412 -668 -656 -1552 -1576 0
-1192 -1252 -484 -468 -852 -796 -2588 -2576 -3088 -3112 0
-1192 -1252 -2276 -2260 -2388 -2332 -796 -784 -1552 -1576 0
-1320 -1380 -2404 -2388 -2260 -2204 -668 -656 -1552 -1576 0
-1320 -1444 -484 -468 -724 -604 -2588 -2576 -3088 -3112 0
-1320 -1444 -2468 -2452 -2260 -2140 -604 -592 -1552 -1576 0
-1320 -3364 -2404 -2388 -2260 -220 -668 -656 -1552 -1576 0
-1576 -1636 -740 -724 -2260 -2204 -2332 -2320 -1296 -1320 0
-1576 -1828 -2852 -2836 -2388 -2140 -220 -208 -1168 -1192 0
-3112 -3172 -2276 -2260 -468 -412 -796 -784 -1552 -1576 0
-3112 -3172 -2276 -2260 -724 -668 -796 -784 -1296 -1320 0
-3112 -3364 -2852 -2836 -852 -604 -220 -208 -1168 -1192 0
-3112 -3620 -2852 -2836 -916 -412 -220 -208 -1104 -1128 0
-2152 -2276 -740 -724 -1684 -1564 -1308 -1296 -2320 -2344 0
-2152 -3172 -1252 -1236 -1428 -412 -796 -784 -2576 -2600 0
-2216 -2276 -484 -468 -852 -796 -1564 -1552 -3088 -3112 0
-2216 -2276 -1252 -1236 -1364 -1308 -796 -784 -2576 -2600 0
-2216 -3236 -1252 -1236 -1364 -348 -796 -784 -2576 -2600 0
-2344 -2404 -484 -468 -1236 -1180 -1564 -1552 -2576 -2600 0
-2344 -2468 -484 -468 -1236 -1116 -1564 -1552 -2576 -2600 0
-2344 -2852 -932 -916 -724 -220 -1116 -1104 -3088 -3112 0
-2344 -2852 -932 -916 -1684 -1180 -1116 -1104 -2128 -2152 0
-2600 -2660 -740 -724 -468 -412 -1308 -1296 -3088 -3112 0
-2600 -2852 -1828 -1812 -1428 -1180 -220 -208 -2128 -2152 0
-3112 -3172 -1380 -1364 -468 -412 -668 -656 -2576 -2600 0
-3112 -3236 -1444 -1428 -468 -348 -604 -592 -2576 -2600 0
-3112 -3364 -1380 -1364 -468 -220 -668 -656 -2576 -2600 0
-208 -220 -1180 -1564 -1588 -3620 -2852 -2344 -2376 -456 0
-208 -220 -2204 -2588 -2612 -3620 -1828 -1320 -1352 -456 0
-336 -348 -412 -2204 -2228 -2724 -3620 -1576 -1608 -1352 0
-336 -348 -1308 -3100 -3124 -3236 -2724 -680 -712 -840 0
-2128 -2140 -2204 -1180 -1204 -1444 -1828 -808 -840 -2632 0
-2128 -2140 -2332 -1308 -1332 -1828 -1700 -680 -712 -2248 0
-2128 -2140 -3100 -1564 -1588 -1828 -932 -424 -456 -2248 0
-208 -220 -2140 -2332 -2356 -2852 -1828 -1576 -1672 -1224 0
-400 -412 -348 -1116 -1140 -1636 -3620 -2600 -2696 -2440 0
-400 -412 -348 -2140 -2164 -2660 -3620 -1576 -1672 -1416 0
-400 -412 -1308 -1116 -1140 -1636 -2660 -2600 -2696 -2440 0
-400 -412 -1308 -3100 -3124 -3172 -2660 -616 -712 -904 0
-656 -668 -604 -1116 -1140 -1380 -3364 -2344 -2440 -2696 0
-656 -668 -604 -2140 -2164 -2404 -3364 -1320 -1416 -1672 0
-656 -668 -604 -2140 -2164 -3172 -3364 -1320 -1416 -904 0
-656 -668 -1564 -1308 -1332 -1380 -2404 -2152 -2248 -2696 0
-1168 -1180 -1116 -604 -628 -868 -2852 -2344 -2440 -3208 0
-1168 -1180 -1116 -2140 -2164 -2660 -2852 -808 -904 -1416 0
-1168 -1180 -1308 -348 -372 -868 -2660 -2600 -2696 -3208 0
-2192 -2204 -3100 -1116 -1140 -1636 -868 -808 -904 -2440 0
-336 -348 -1116 -1180 -1204 -1700 -2724 -2600 -2824 -2376 0
-336 -348 -2140 -3100 -3124 -3236 -1700 -680 -904 -840 0
-400 -412 -1180 -1116 -1140 -3172 -2660 -2600 -2824 -904 0
-400 -412 -2204 -2140 -2164 -2660 -1636 -1576 -1800 -1416 0
-400 -412 -2204 -3100 -3124 -3620 -1636 -616 -840 -456 0
-784 -796 -604 -220 -244 -2276 -3236 -3112 -3336 -1800 0
-784 -796 -604 -2140 -2164 -2276 -3236 -1192 -1416 -1800 0
-784 -796 -604 -2140 -2164 -3172 -3236 -1192 -1416 -904 0
-784 -796 -668 -220 -244 -2276 -3172 -3112 -3336 -1800 0
-784 -796 -668 -1180 -1204 -1252 -3172 -2152 -2376 -2824 0
-784 -796 -1564 -3100 -3124 -3236 -2276 -232 -456 -840 0
-1296 -1308 -1116 -604 -628 -740 -2724 -2216 -2440 -3336 0
-1296 -1308 -1116 -2140 -2164 -2276 -2724 -680 -904 -1800 0
-1296 -1308 -1116 -2140 -2164 -2660 -2724 -680 -904 -1416 0
-1296 -1308 -1180 -220 -244 -2276 -2660 -2600 -2824 -1800 0
-1296 -1308 -1564 -604 -628 -2660 -2276 -2216 -2440 -1416 0
-1296 -1308 -1564 -2588 -2612 -2660 -2276 -232 -456 -1416 0
-1296 -1308 -3100 -2140 -2164 -2660 -740 -680 -904 -1416 0
-1296 -1308 -3100 -2588 -2612 -2724 -740 -232 -456 -1352 0
-2320 -2332 -2204 -1180 -1204 -1700 -1636 -616 -840 -2376 0
-2320 -2332 -3100 -1564 -1588 -1700 -740 -232 -456 -2376 0
-592 -604 -220 -1180 -1204 -1444 -3364 -2344 -2824 -2632 0
-592 -604 -1116 -3100 -3124 -3236 -2468 -424 -904 -840 0
-592 -604 -2140 -2332 -2356 -3364 -1444 -1192 -1672 -712 0
-656 -668 -220 -2140 -2164 -3172 -3364 -1320 -1800 -904 0
-656 -668 -412 -1308 -1332 -3364 -3172 -2152 -2632 -712 0
-656 -668 -412 -2332 -2356 -2404 -3172 -1128 -1608 -1672 0
-656 -668 -1180 -1116 -1140 -1380 -2404 -2344 -2824 -2696 0
-656 -668 -1180 -1116 -1140 -3172 -2404 -2344 -2824 -904 0
-656 -668 -1180 -1308 -1332 -1380 -2404 -2152 -2632 -2696 0
-656 -668 -1180 -3100 -3124 -3172 -2404 -360 -840 -904 0
-656 -668 -1180 -3100 -3124 -3364 -2404 -360 -840 -712 0
-656 -668 -2204 -2140 -2164 -2404 -1380 -1320 -1800 -1672 0
-656 -668 -2204 -3100 -3124 -3172 -1380 -360 -840 -904 0
-784 -796 -348 -2140 -2164 -3172 -3236 -1192 -1672 -904 0
-784 -796 -1308 -3100 -3124 -3172 -2276 -232 -712 -904 0
-784 -796 -1308 -3100 -3124 -3236 -2276 -232 -712 -840 0
-784 -796 -2332 -3100 -3124 -3172 -1252 -232 -712 -904 0
-784 -796 -2332 -3100 -3124 -3236 -1252 -232 -712 -840 0
-1552 -1564 -1116 -220 -244 -2276 -2468 -2344 -2824 -1800 0
-1552 -1564 -1116 -2140 -2164 -2276 -2468 -424 -904 -1800 0
-1552 -1564 -1180 -220 -244 -2276 -2404 -2344 -2824 -1800 0
-1552 -1564 -1180 -2204 -2228 -2276 -2404 -360 -840 -1800 0
-1552 -1564 -1180 -2204 -2228 -2468 -2404 -360 -840 -1608 0
-1552 -1564 -1308 -2332 -2356 -2404 -2276 -232 -712 -1672 0
-1552 -1564 -3100 -2204 -2228 -2276 -484 -360 -840 -1800 0
-1552 -1564 -3100 -2204 -2228 -2468 -484 -360 -840 -1608 0
-2576 -2588 -2204 -1180 -1204 -1444 -1380 -360 -840 -2632 0
-2576 -2588 -2332 -348 -372 -484 -1252 -1192 -1672 -3592 0
-2576 -2588 -2332 -1308 -1332 -1380 -1252 -232 -712 -2696 0
-2576 -2588 -2332 -1308 -1332 -1444 -1252 -232 -712 -2632 0
-2576 -2588 -3100 -1116 -1140 -1252 -484 -424 -904 -2824 0
-2576 -2588 -3100 -1308 -1332 -1444 -484 -232 -712 -2632 0
-1104 -1116 -348 -412 -436 -2468 -2724 -2600 -3592 -1608 0
-1104 -1116 -604 -668 -692 -2724 -2468 -2344 -3336 -1352 0
-1168 -1180 -412 -348 -372 -868 -2660 -2600 -3592 -3208 0
-1168 -1180 -2204 -2332 -2356 -2852 -868 -616 -1608 -1224 0
-1296 -1308 -348 -220 -244 -2276 -2724 -2600 -3592 -1800 0
-1296 -1308 -348 -604 -628 -740 -2724 -2216 -3208 -3336 0
-1296 -1308 -348 -604 -628 -2660 -2724 -2216 -3208 -1416 0
-1296 -1308 -348 -2140 -2164 -2276 -2724 -680 -1672 -1800 0
-1296 -1308 -412 -668 -692 -2724 -2660 -2152 -3144 -1352 0
-1296 -1308 -796 -604 -628 -2660 -2276 -2216 -3208 -1416 0
-1296 -1308 -2332 -2204 -2228 -2276 -740 -616 -1608 -1800 0
-1552 -1564 -604 -220 -244 -2276 -2468 -2344 -3336 -1800 0
-1552 -1564 -604 -348 -372 -2404 -2468 -2216 -3208 -1672 0
-1552 -1564 -604 -2140 -2164 -2404 -2468 -424 -1416 -1672 0
-1552 -1564 -668 -220 -244 -2276 -2404 -2344 -3336 -1800 0
-1552 -1564 -668 -2204 -2228 -2468 -2404 -360 -1352 -1608 0
-1552 -1564 -796 -2332 -2356 -2404 -2276 -232 -1224 -1672 0
-1552 -1564 -2588 -2140 -2164 -2276 -484 -424 -1416 -1800 0
-1552 -1564 -2588 -2140 -2164 -2404 -484 -424 -1416 -1672 0
-3088 -3100 -2140 -348 -372 -484 -932 -680 -1672 -3592 0
-3088 -3100 -2140 -348 -372 -868 -932 -680 -1672 -3208 0
-3088 -3100 -2140 -604 -628 -868 -932 -424 -1416 -3208 0
-3088 -3100 -2332 -348 -372 -868 -740 -680 -1672 -3208 0
-2128 -2140 -348 -1308 -1332 -1444 -1700 -680 -2696 -2632 0
-2128 -2140 -348 -1308 -1332 -1828 -1700 -680 -2696 -2248 0
-2128 -2140 -1116 -1564 -1588 -1700 -932 -424 -2440 -2376 0
-2192 -2204 -220 -604 -628 -868 -1828 -1320 -3336 -3208 0
-2192 -2204 -220 -1116 -1140 -1380 -1828 -808 -2824 -2696 0
-2192 -2204 -412 -348 -372 -868 -1636 -1576 -3592 -3208 0
-2192 -2204 -412 -1308 -1332 -1380 -1636 -616 -2632 -2696 0
-2320 -2332 -348 -1116 -1140 -1252 -1700 -680 -2696 -2824 0
-2320 -2332 -412 -668 -692 -1700 -1636 -1128 -3144 -2376 0
-2320 -2332 -412 -1180 -1204 -1700 -1636 -616 -2632 -2376 0
-2320 -2332 -796 -604 -628 -1636 -1252 -1192 -3208 -2440 0
-2320 -2332 -796 -668 -692 -1700 -1252 -1128 -3144 -2376 0
-2320 -2332 -1308 -1116 -1140 -1252 -740 -680 -2696 -2824 0
-2320 -2332 -1308 -1180 -1204 -1700 -740 -616 -2632 -2376 0
-2576 -2588 -796 -1308 -1332 -1444 -1252 -232 -2248 -2632 0
-3088 -3100 -1308 -796 -820 -932 -740 -232 -2248 -3144 0
-3088 -3100 -1564 -604 -628 -740 -484 -424 -2440 -3336 0
-3088 -3100 -1564 -668 -692 -740 -484 -360 -2376 -3336 0
-208 -236 -2220 -2604 -2612 -2836 -1812 -1304 -1352 -1224 0
-592 -620 -812 -1324 -1332 -1428 -3220 -2200 -2248 -2632 0
-592 -620 -2604 -2348 -2356 -3348 -1428 -1176 -1224 -712 0
-2128 -2156 -2220 -684 -692 -1684 -1812 -1304 -1352 -2376 0
-2128 -2156 -2348 -812 -820 -916 -1684 -1176 -1224 -3144 0
-2128 -2156 -3116 -1196 -1204 -1428 -916 -792 -840 -2632 0
-208 -236 -1132 -1324 -1332 -1812 -2836 -2584 -2696 -2248 0
-208 -236 -1132 -3116 -3124 -3348 -2836 -792 -904 -712 0
-208 -236 -2156 -2604 -2612 -2836 -1812 -1304 -1416 -1224 0
-400 -428 -812 -2604 -2612 -3604 -3156 -1112 -1224 -456 0
-400 -428 -2348 -3116 -3124 -3604 -1620 -600 -712 -456 0
-656 -684 -1580 -1132 -1140 -1364 -2388 -2328 -2440 -2696 0
-656 -684 -1580 -1132 -1140 -3156 -2388 -2328 -2440 -904 0
-656 -684 -2604 -2348 -2356 -3348 -1364 -1112 -1224 -712 0
-656 -684 -2604 -3116 -3124 -3156 -1364 -344 -456 -904 0
-1168 -1196 -1132 -2156 -2164 -2644 -2836 -792 -904 -1416 0
-2192 -2220 -2156 -1132 -1140 -1364 -1812 -792 -904 -2696 0
-2192 -2220 -2156 -1132 -1140 -1620 -1812 -792 -904 -2440 0
-336 -364 -620 -684 -692 -1684 -3220 -3096 -3336 -2376 0
-336 -364 -620 -2604 -2612 -3604 -3220 -1176 -1416 -456 0
-336 -364 -1132 -1196 -1204 -1684 -2708 -2584 -2824 -2376 0
-336 -364 -1132 -1580 -1588 -1684 -2708 -2200 -2440 -2376 0
-336 -364 -1132 -3116 -3124 -3220 -2708 -664 -904 -840 0
-336 -364 -2156 -2604 -2612 -2708 -1684 -1176 -1416 -1352 0
-336 -364 -2156 -3116 -3124 -3604 -1684 -664 -904 -456 0
-400 -428 -236 -2156 -2164 -2644 -3604 -1560 -1800 -1416 0
-400 -428 -684 -2604 -2612 -2644 -3156 -1112 -1352 -1416 0
-400 -428 -2220 -2156 -2164 -2644 -1620 -1560 -1800 -1416 0
-400 -428 -2220 -2156 -2164 -3156 -1620 -1560 -1800 -904 0
-400 -428 -2220 -3116 -3124 -3156 -1620 -600 -840 -904 0
-784 -812 -684 -2220 -2228 -3220 -3156 -1112 -1352 -840 0
-784 -812 -1580 -1196 -1204 -1236 -2260 -2136 -2376 -2824 0
-1296 -1324 -1196 -2220 -2228 -2708 -2644 -600 -840 -1352 0
-1296 -1324 -3116 -2156 -2164 -2260 -724 -664 -904 -1800 0
-2320 -2348 -2156 -236 -244 -724 -1684 -1560 -1800 -3336 0
-2320 -2348 -2156 -236 -244 -1236 -1684 -1560 -1800 -2824 0
-2320 -2348 -2156 -1132 -1140 -1236 -1684 -664 -904 -2824 0
-2320 -2348 -2220 -1196 -1204 -1236 -1620 -600 -840 -2824 0
-2320 -2348 -3116 -1196 -1204 -1236 -724 -600 -840 -2824 0
-592 -620 -236 -1196 -1204 -1428 -3348 -2328 -2824 -2632 0
-592 -620 -236 -2220 -2228 -3220 -3348 -1304 -1800 -840 0
-592 -620 -1132 -1196 -1204 -1428 -2452 -2328 -2824 -2632 0
-592 -620 -1132 -1196 -1204 -3220 -2452 -2328 -2824 -840 0
-592 -620 -2156 -2220 -2228 -3220 -1428 -1304 -1800 -840 0
-656 -684 -236 -2156 -2164 -3156 -3348 -1304 -1800 -904 0
-656 -684 -1196 -1132 -1140 -1364 -2388 -2328 -2824 -2696 0
-656 -684 -1196 -3116 -3124 -3156 -2388 -344 -840 -904 0
-784 -812 -2348 -2156 -2164 -2260 -1236 -1176 -1672 -1800 0
-784 -812 -2348 -2220 -2228 -2260 -1236 -1112 -1608 -1800 0
-784 -812 -2348 -3116 -3124 -3220 -1236 -216 -712 -840 0
-1552 -1580 -1132 -236 -244 -2260 -2452 -2328 -2824 -1800 0
-1552 -1580 -1132 -2156 -2164 -2388 -2452 -408 -904 -1672 0
-1552 -1580 -1196 -2220 -2228 -2260 -2388 -344 -840 -1800 0
-1552 -1580 -3116 -2156 -2164 -2388 -468 -408 -904 -1672 0
-1104 -1132 -620 -684 -692 -2708 -2452 -2328 -3336 -1352 0
-1296 -1324 -428 -2220 -2228 -2260 -2644 -600 -1608 -1800 0
-1552 -1580 -620 -2156 -2164 -2260 -2452 -408 -1416 -1800 0
-1552 -1580 -620 -2156 -2164 -2388 -2452 -408 -1416 -1672 0
-1552 -1580 -812 -364 -372 -2388 -2260 -2200 -3208 -1672 0
-3088 -3116 -2220 -236 -244 -724 -852 -792 -1800 -3336 0
-3088 -3116 -2348 -428 -436 -468 -724 -600 -1608 -3592 0
-3088 -3116 -2604 -620 -628 -724 -468 -408 -1416 -3336 0
-2128 -2156 -236 -1196 -1204 -1684 -1812 -792 -2824 -2376 0
-2192 -2220 -236 -1132 -1140 -1364 -1812 -792 -2824 -2696 0
-2192 -2220 -428 -1324 -1332 -1812 -1620 -600 -2632 -2248 0
-2192 -2220 -684 -620 -628 -1620 -1364 -1304 -3336 -2440 0
-2192 -2220 -684 -1580 -1588 -1620 -1364 -344 -2376 -2440 0
-2320 -2348 -364 -236 -244 -724 -1684 -1560 -3592 -3336 0
-2320 -2348 -428 -1196 -1204 -1236 -1620 -600 -2632 -2824 0
-2320 -2348 -1324 -1132 -1140 -1236 -724 -664 -2696 -2824 0
-2576 -2604 -620 -1132 -1140 -1364 -1428 -408 -2440 -2696 0
-2576 -2604 -684 -236 -244 -468 -1364 -1304 -3336 -3592 0
-2576 -2604 -812 -1324 -1332 -1364 -1236 -216 -2248 -2696 0
-3088 -3116 -1132 -236 -244 -468 -916 -792 -2824 -3592 0
-3088 -3116 -1132 -364 -372 -468 -916 -664 -2696 -3592 0
-3088 -3116 -1324 -812 -820 -916 -724 -216 -2248 -3144 0
-3088 -3116 -1580 -684 -692 -724 -468 -344 -2376 -3336 0
-216 -220 -412 -2332 -2348 -3364 -3620 -1576 -1608 -712 0
-216 -220 -668 -1564 -1580 -1828 -3364 -2344 -2376 -2248 0
-216 -220 -1180 -1308 -1324 -1828 -2852 -2600 -2632 -2248 0
-216 -220 -1180 -3100 -3116 -3364 -2852 -808 -840 -712 0
-344 -348 -1308 -3100 -3116 -3236 -2724 -680 -712 -840 0
-600 -604 -668 -1180 -1196 -1444 -3364 -2344 -2376 -2632 0
-600 -604 -668 -1180 -1196 -3236 -3364 -2344 -2376 -840 0
-600 -604 -796 -1308 -1324 -3364 -3236 -2216 -2248 -712 0
-600 -604 -796 -2332 -2348 -2468 -3236 -1192 -1224 -1608 0
-600 -604 -796 -2332 -2348 -3364 -3236 -1192 -1224 -712 0
-600 -604 -1564 -3100 -3116 -3236 -2468 -424 -456 -840 0
-600 -604 -1564 -3100 -3116 -3364 -2468 -424 -456 -712 0
-600 -604 -2588 -3100 -3116 -3364 -1444 -424 -456 -712 0
-216 -220 -348 -1308 -1324 -1828 -3620 -2600 -2696 -2248 0
-216 -220 -604 -1564 -1580 -1828 -3364 -2344 -2440 -2248 0
-216 -220 -1116 -1308 -1324 -1828 -2852 -2600 -2696 -2248 0
-216 -220 -2140 -3100 -3116 -3620 -1828 -808 -904 -456 0
-408 -412 -796 -604 -620 -1636 -3172 -3112 -3208 -2440 0
-408 -412 -796 -1564 -1580 -1636 -3172 -2152 -2248 -2440 0
-408 -412 -796 -2588 -2604 -3620 -3172 -1128 -1224 -456 0
-408 -412 -2332 -3100 -3116 -3172 -1636 -616 -712 -904 0
-408 -412 -2332 -3100 -3116 -3620 -1636 -616 -712 -456 0
-664 -668 -604 -2140 -2156 -2404 -3364 -1320 -1416 -1672 0
-664 -668 -796 -1308 -1324 -3364 -3172 -2152 -2248 -712 0
-664 -668 -796 -2332 -2348 -2404 -3172 -1128 -1224 -1672 0
-664 -668 -796 -2332 -2348 -3364 -3172 -1128 -1224 -712 0
-664 -668 -1564 -3100 -3116 -3172 -2404 -360 -456 -904 0
-664 -668 -2588 -2332 -2348 -2404 -1380 -1128 -1224 -1672 0
-664 -668 -2588 -2332 -2348 -3364 -1380 -1128 -1224 -712 0
-664 -668 -2588 -3100 -3116 -3364 -1380 -360 -456 -712 0
-1176 -1180 -1116 -348 -364 -868 -2852 -2600 -2696 -3208 0
-1176 -1180 -1564 -604 -620 -2660 -2404 -2344 -2440 -1416 0
-1176 -1180 -1564 -2588 -2604 -2660 -2404 -360 -456 -1416 0
-1176 -1180 -1564 -2588 -2604 -2852 -2404 -360 -456 -1224 0
-2200 -2204 -2140 -604 -620 -868 -1828 -1320 -1416 -3208 0
-2200 -2204 -2140 -1116 -1132 -1636 -1828 -808 -904 -2440 0
-2200 -2204 -2332 -1308 -1324 -1380 -1636 -616 -712 -2696 0
-344 -348 -1116 -1564 -1580 -1700 -2724 -2216 -2440 -2376 0
-344 -348 -1116 -3100 -3116 -3620 -2724 -680 -904 -456 0
-344 -348 -2140 -2204 -2220 -2724 -1700 -1576 -1800 -1352 0
-408 -412 -1180 -1116 -1132 -3172 -2660 -2600 -2824 -904 0
-408 -412 -2204 -3100 -3116 -3620 -1636 -616 -840 -456 0
-792 -796 -604 -2140 -2156 -2276 -3236 -1192 -1416 -1800 0
-792 -796 -668 -1180 -1196 -3236 -3172 -2152 -2376 -840 0
-792 -796 -1564 -3100 -3116 -3172 -2276 -232 -456 -904 0
-792 -796 -1564 -3100 -3116 -3236 -2276 -232 -456 -840 0
-792 -796 -2588 -2204 -2220 -2276 -1252 -1128 -1352 -1800 0
-792 -796 -2588 -3100 -3116 -3172 -1252 -232 -456 -904 0
-1304 -1308 -1116 -2140 -2156 -2276 -2724 -680 -904 -1800 0
-1304 -1308 -1180 -220 -236 -2276 -2660 -2600 -2824 -1800 0
-1304 -1308 -1564 -2588 -2604 -2660 -2276 -232 -456 -1416 0
-1304 -1308 -1564 -2588 -2604 -2724 -2276 -232 -456 -1352 0
-1304 -1308 -3100 -2140 -2156 -2276 -740 -680 -904 -1800 0
-1304 -1308 -3100 -2140 -2156 -2660 -740 -680 -904 -1416 0
-1304 -1308 -3100 -2204 -2220 -2276 -740 -616 -840 -1800 0
-2328 -2332 -2204 -1180 -1196 -1252 -1636 -616 -840 -2824 0
-2328 -2332 -2588 -1564 -1580 -1636 -1252 -232 -456 -2440 0
-2328 -2332 -2588 -1564 -1580 -1700 -1252 -232 -456 -2376 0
-600 -604 -1116 -1180 -1196 -1444 -2468 -2344 -2824 -2632 0
-600 -604 -1116 -1308 -1324 -1444 -2468 -2216 -2696 -2632 0
-600 -604 -2140 -2332 -2348 -3364 -1444 -1192 -1672 -712 0
-600 -604 -2140 -3100 -3116 -3364 -1444 -424 -904 -712 0
-664 -668 -220 -348 -364 -1380 -3364 -3112 -3592 -2696 0
-664 -668 -220 -2140 -2156 -2404 -3364 -1320 -1800 -1672 0
-664 -668 -412 -348 -364 -2404 -3172 -3112 -3592 -1672 0
-664 -668 -412 -1308 -1324 -1380 -3172 -2152 -2632 -2696 0
-664 -668 -1180 -1308 -1324 -1380 -2404 -2152 -2632 -2696 0
-664 -668 -1180 -3100 -3116 -3172 -2404 -360 -840 -904 0
-664 -668 -1180 -3100 -3116 -3364 -2404 -360 -840 -712 0
-664 -668 -2204 -2140 -2156 -2404 -1380 -1320 -1800 -1672 0
-664 -668 -2204 -3100 -3116 -3172 -1380 -360 -840 -904 0
-664 -668 -2204 -3100 -3116 -3364 -1380 -360 -840 -712 0
-792 -796 -348 -2140 -2156 -3172 -3236 -1192 -1672 -904 0
-792 -796 -412 -220 -236 -2276 -3172 -3112 -3592 -1800 0
-792 -796 -412 -2204 -2220 -3236 -3172 -1128 -1608 -840 0
-792 -796 -1308 -1116 -1132 -1252 -2276 -2216 -2696 -2824 0
-792 -796 -1308 -3100 -3116 -3172 -2276 -232 -712 -904 0
-792 -796 -1308 -3100 -3116 -3236 -2276 -232 -712 -840 0
-792 -796 -2332 -2140 -2156 -2276 -1252 -1192 -1672 -1800 0
-792 -796 -2332 -2140 -2156 -3172 -1252 -1192 -1672 -904 0
-792 -796 -2332 -2204 -2220 -2276 -1252 -1128 -1608 -1800 0
-792 -796 -2332 -3100 -3116 -3236 -1252 -232 -712 -840 0
-1560 -1564 -1116 -2140 -2156 -2404 -2468 -424 -904 -1672 0
-1560 -1564 -1180 -2204 -2220 -2276 -2404 -360 -840 -1800 0
-1560 -1564 -1180 -2204 -2220 -2468 -2404 -360 -840 -1608 0
-1560 -1564 -1308 -348 -364 -2404 -2276 -2216 -2696 -1672 0
-1560 -1564 -1308 -2332 -2348 -2468 -2276 -232 -712 -1608 0
-1560 -1564 -3100 -2332 -2348 -2404 -484 -232 -712 -1672 0
-2584 -2588 -2140 -348 -364 -484 -1444 -1192 -1672 -3592 0
-2584 -2588 -2204 -220 -236 -484 -1380 -1320 -1800 -3592 0
-2584 -2588 -2332 -348 -364 -484 -1252 -1192 -1672 -3592 0
-1112 -1116 -2140 -2204 -2220 -2468 -932 -808 -1800 -1608 0
-1176 -1180 -220 -348 -364 -2404 -2852 -2600 -3592 -1672 0
-1176 -1180 -668 -604 -620 -2660 -2404 -2344 -3336 -1416 0
-1304 -1308 -348 -220 -236 -2276 -2724 -2600 -3592 -1800 0
-1304 -1308 -348 -2140 -2156 -2660 -2724 -680 -1672 -1416 0
-1304 -1308 -412 -2204 -2220 -2724 -2660 -616 -1608 -1352 0
-1304 -1308 -796 -604 -620 -740 -2276 -2216 -3208 -3336 0
-1304 -1308 -796 -2588 -2604 -2660 -2276 -232 -1224 -1416 0
-1304 -1308 -2332 -2140 -2156 -2276 -740 -680 -1672 -1800 0
-1560 -1564 -668 -412 -428 -2468 -2404 -2152 -3144 -1608 0
-1560 -1564 -668 -2204 -2220 -2468 -2404 -360 -1352 -1608 0
-1560 -1564 -2588 -2140 -2156 -2276 -484 -424 -1416 -1800 0
-1560 -1564 -2588 -2140 -2156 -2404 -484 -424 -1416 -1672 0
-1560 -1564 -2588 -2332 -2348 -2404 -484 -232 -1224 -1672 0
-3096 -3100 -2140 -604 -620 -868 -932 -424 -1416 -3208 0
-3096 -3100 -2204 -412 -428 -484 -868 -616 -1608 -3592 0
-3096 -3100 -2204 -412 -428 -932 -868 -616 -1608 -3144 0
-3096 -3100 -2588 -668 -684 -740 -484 -360 -1352 -3336 0
-3096 -3100 -2588 -796 -812 -868 -484 -232 -1224 -3208 0
-2136 -2140 -220 -412 -428 -1444 -1828 -1576 -3592 -2632 0
-2136 -2140 -220 -668 -684 -932 -1828 -1320 -3336 -3144 0
-2136 -2140 -220 -1180 -1196 -1700 -1828 -808 -2824 -2376 0
-2136 -2140 -604 -1564 -1580 -1700 -1444 -424 -2440 -2376 0
-2136 -2140 -1116 -1180 -1196 -1700 -932 -808 -2824 -2376 0
-2200 -2204 -220 -1116 -1132 -1380 -1828 -808 -2824 -2696 0
-2200 -2204 -1180 -1116 -1132 -1380 -868 -808 -2824 -2696 0
-2200 -2204 -1180 -1116 -1132 -1636 -868 -808 -2824 -2440 0
-2328 -2332 -348 -220 -236 -1252 -1700 -1576 -3592 -2824 0
-2328 -2332 -412 -1180 -1196 -1700 -1636 -616 -2632 -2376 0
-2328 -2332 -1308 -1116 -1132 -1636 -740 -680 -2696 -2440 0
-2328 -2332 -1308 -1564 -1580 -1700 -740 -232 -2248 -2376 0
-2584 -2588 -604 -220 -236 -484 -1444 -1320 -3336 -3592 0
-2584 -2588 -796 -1308 -1324 -1444 -1252 -232 -2248 -2632 0
-2584 -2588 -1564 -1180 -1196 -1252 -484 -360 -2376 -2824 0
-3096 -3100 -1180 -220 -236 -484 -868 -808 -2824 -3592 0
-3096 -3100 -1308 -348 -364 -484 -740 -680 -2696 -3592 0
-3096 -3100 -1564 -604 -620 -740 -484 -424 -2440 -3336 0
-216 -244 -436 -2356 -2348 -3340 -3596 -1552 -1608 -712 0
-216 -244 -692 -820 -812 -1804 -3340 -3088 -3144 -2248 0
-216 -244 -2228 -3124 -3116 -3340 -1804 -784 -840 -712 0
-344 -372 -436 -692 -684 -1676 -3596 -3088 -3144 -2376 0
-344 -372 -820 -692 -684 -1676 -3212 -3088 -3144 -2376 0
-344 -372 -1332 -1204 -1196 -1676 -2700 -2576 -2632 -2376 0
-344 -372 -2356 -3124 -3116 -3596 -1676 -656 -712 -456 0
-600 -628 -692 -1204 -1196 -1420 -3340 -2320 -2376 -2632 0
-600 -628 -1588 -1204 -1196 -1420 -2444 -2320 -2376 -2632 0
-600 -628 -2612 -3124 -3116 -3340 -1420 -400 -456 -712 0
-1112 -1140 -1332 -436 -428 -908 -2700 -2576 -2632 -3144 0
-1112 -1140 -3124 -2612 -2604 -2700 -908 -400 -456 -1352 0
-2136 -2164 -2228 -436 -428 -908 -1804 -1552 -1608 -3144 0
-2136 -2164 -2356 -1332 -1324 -1804 -1676 -656 -712 -2248 0
-2136 -2164 -2612 -1588 -1580 -1676 -1420 -400 -456 -2376 0
-2136 -2164 -3124 -1332 -1324 -1420 -908 -656 -712 -2632 0
-2136 -2164 -3124 -1332 -1324 -1804 -908 -656 -712 -2248 0
-216 -244 -1140 -1588 -1580 -3596 -2828 -2320 -2440 -456 0
-216 -244 -1140 -3124 -3116 -3596 -2828 -784 -904 -456 0
-216 -244 -2164 -3124 -3116 -3596 -1804 -784 -904 -456 0
-408 -436 -372 -1140 -1132 -3148 -3596 -2576 -2696 -904 0
-408 -436 -1332 -3124 -3116 -3596 -2636 -592 -712 -456 0
-408 -436 -2356 -2164 -2156 -3148 -1612 -1552 -1672 -904 0
-408 -436 -2356 -2612 -2604 -3596 -1612 -1104 -1224 -456 0
-664 -692 -628 -372 -364 -2380 -3340 -3088 -3208 -1672 0
-664 -692 -628 -2164 -2156 -2380 -3340 -1296 -1416 -1672 0
-664 -692 -628 -2164 -2156 -3148 -3340 -1296 -1416 -904 0
-664 -692 -1588 -3124 -3116 -3148 -2380 -336 -456 -904 0
-664 -692 -2612 -2164 -2156 -3148 -1356 -1296 -1416 -904 0
-664 -692 -2612 -3124 -3116 -3148 -1356 -336 -456 -904 0
-1176 -1204 -1332 -372 -364 -2380 -2636 -2576 -2696 -1672 0
-1176 -1204 -3124 -2612 -2604 -2636 -844 -336 -456 -1416 0
-2200 -2228 -2164 -1140 -1132 -1356 -1804 -784 -904 -2696 0
-2200 -2228 -2612 -820 -812 -1804 -1356 -1104 -1224 -2248 0
-2200 -2228 -3124 -1332 -1324 -1804 -844 -592 -712 -2248 0
-344 -372 -244 -2228 -2220 -2700 -3596 -1552 -1800 -1352 0
-344 -372 -628 -1588 -1580 -1676 -3212 -2192 -2440 -2376 0
-344 -372 -1140 -3124 -3116 -3596 -2700 -656 -904 -456 0
-344 -372 -2164 -3124 -3116 -3596 -1676 -656 -904 -456 0
-408 -436 -244 -2164 -2156 -2636 -3596 -1552 -1800 -1416 0
-408 -436 -692 -628 -620 -2636 -3148 -3088 -3336 -1416 0
-408 -436 -1204 -3124 -3116 -3148 -2636 -592 -840 -904 0
-408 -436 -2228 -2164 -2156 -3148 -1612 -1552 -1800 -904 0
-792 -820 -2612 -2228 -2220 -2252 -1228 -1104 -1352 -1800 0
-792 -820 -2612 -3124 -3116 -3148 -1228 -208 -456 -904 0
-1304 -1332 -1204 -2228 -2220 -2252 -2636 -592 -840 -1800 0
-1304 -1332 -1588 -2612 -2604 -2636 -2252 -208 -456 -1416 0
-2328 -2356 -2164 -1140 -1132 -1612 -1676 -656 -904 -2440 0
-2328 -2356 -2228 -1204 -1196 -1676 -1612 -592 -840 -2376 0
-2328 -2356 -2612 -628 -620 -716 -1228 -1168 -1416 -3336 0
-600 -628 -372 -436 -428 -1420 -3212 -3088 -3592 -2632 0
-600 -628 -372 -1332 -1324 -1420 -3212 -2192 -2696 -2632 0
-600 -628 -372 -2356 -2348 -2444 -3212 -1168 -1672 -1608 0
-600 -628 -372 -2356 -2348 -3340 -3212 -1168 -1672 -712 0
-600 -628 -1140 -3124 -3116 -3212 -2444 -400 -904 -840 0
-600 -628 -2164 -2228 -2220 -3212 -1420 -1296 -1800 -840 0
-600 -628 -2164 -3124 -3116 -3340 -1420 -400 -904 -712 0
-664 -692 -244 -372 -364 -1356 -3340 -3088 -3592 -2696 0
-664 -692 -244 -2164 -2156 -2380 -3340 -1296 -1800 -1672 0
-664 -692 -244 -2164 -2156 -3148 -3340 -1296 -1800 -904 0
-664 -692 -1204 -1140 -1132 -3148 -2380 -2320 -2824 -904 0
-664 -692 -2228 -3124 -3116 -3340 -1356 -336 -840 -712 0
-792 -820 -372 -1140 -1132 -3148 -3212 -2192 -2696 -904 0
-792 -820 -2356 -2228 -2220 -3212 -1228 -1104 -1608 -840 0
-1560 -1588 -1140 -244 -236 -460 -2444 -2320 -2824 -3592 0
-1560 -1588 -1140 -2164 -2156 -2380 -2444 -400 -904 -1672 0
-1560 -1588 -1332 -2356 -2348 -2380 -2252 -208 -712 -1672 0
-1560 -1588 -3124 -2356 -2348 -2444 -460 -208 -712 -1608 0
-2584 -2612 -2164 -244 -236 -1228 -1420 -1296 -1800 -2824 0
-2584 -2612 -3124 -1332 -1324 -1420 -460 -208 -712 -2632 0
-1560 -1588 -692 -2228 -2220 -2252 -2380 -336 -1352 -1800 0
-1560 -1588 -2612 -2164 -2156 -2380 -460 -400 -1416 -1672 0
-1560 -1588 -2612 -2356 -2348 -2380 -460 -208 -1224 -1672 0
-3096 -3124 -2164 -244 -236 -460 -908 -784 -1800 -3592 0
-3096 -3124 -2356 -372 -364 -844 -716 -656 -1672 -3208 0
-2136 -2164 -244 -436 -428 -908 -1804 -1552 -3592 -3144 0
-2136 -2164 -244 -1204 -1196 -1420 -1804 -784 -2824 -2632 0
-2136 -2164 -628 -692 -684 -1676 -1420 -1296 -3336 -2376 0
-2136 -2164 -1140 -1204 -1196 -1676 -908 -784 -2824 -2376 0
-2136 -2164 -1140 -1332 -1324 -1804 -908 -656 -2696 -2248 0
-2200 -2228 -244 -628 -620 -1612 -1804 -1296 -3336 -2440 0
-2328 -2356 -372 -244 -236 -716 -1676 -1552 -3592 -3336 0
-2328 -2356 -372 -1140 -1132 -1228 -1676 -656 -2696 -2824 0
-2328 -2356 -436 -1204 -1196 -1676 -1612 -592 -2632 -2376 0
-2328 -2356 -820 -692 -684 -1676 -1228 -1104 -3144 -2376 0
-2328 -2356 -1332 -1140 -1132 -1228 -716 -656 -2696 -2824 0
-2584 -2612 -692 -244 -236 -1228 -1356 -1296 -3336 -2824 0
-2584 -2612 -692 -436 -428 -460 -1356 -1104 -3144 -3592 0
-2584 -2612 -692 -1204 -1196 -1228 -1356 -336 -2376 -2824 0
-3096 -3124 -1140 -244 -236 -460 -908 -784 -2824 -3592 0
-3096 -3124 -1588 -692 -684 -908 -460 -336 -2376 -3144 0
-232 -236 -428 -1324 -1308 -3348 -3604 -2584 -2632 -712 0
-616 -620 -1580 -3116 -3100 -3348 -2452 -408 -456 -712 0
-2152 -2156 -2220 -684 -668 -916 -1812 -1304 -1352 -3144 0
-2152 -2156 -2220 -1196 -1180 -1428 -1812 -792 -840 -2632 0
-2152 -2156 -3116 -1580 -1564 -1684 -916 -408 -456 -2376 0
-232 -236 -620 -2604 -2588 -2836 -3348 -1304 -1416 -1224 0
-232 -236 -620 -2604 -2588 -3604 -3348 -1304 -1416 -456 0
-232 -236 -1132 -3116 -3100 -3348 -2836 -792 -904 -712 0
-424 -428 -2348 -2604 -2588 -2644 -1620 -1112 -1224 -1416 0
-680 -684 -620 -1132 -1116 -3156 -3348 -2328 -2440 -904 0
-680 -684 -812 -364 -348 -2388 -3156 -3096 -3208 -1672 0
-680 -684 -812 -1324 -1308 -1364 -3156 -2136 -2248 -2696 0
-680 -684 -812 -2348 -2332 -2388 -3156 -1112 -1224 -1672 0
-680 -684 -2604 -2156 -2140 -3156 -1364 -1304 -1416 -904 0
-680 -684 -2604 -2348 -2332 -2388 -1364 -1112 -1224 -1672 0
-680 -684 -2604 -2348 -2332 -3348 -1364 -1112 -1224 -712 0
-1192 -1196 -1324 -812 -796 -852 -2644 -2136 -2248 -3208 0
-2216 -2220 -2156 -364 -348 -1364 -1812 -1560 -1672 -2696 0
-2216 -2220 -2156 -1132 -1116 -1620 -1812 -792 -904 -2440 0
-2216 -2220 -2348 -812 -796 -852 -1620 -1112 -1224 -3208 0
-2216 -2220 -2604 -620 -604 -852 -1364 -1304 -1416 -3208 0
-360 -364 -1132 -1196 -1180 -3220 -2708 -2584 -2824 -840 0
-360 -364 -1132 -3116 -3100 -3220 -2708 -664 -904 -840 0
-360 -364 -2156 -3116 -3100 -3604 -1684 -664 -904 -456 0
-424 -428 -684 -2604 -2588 -3604 -3156 -1112 -1352 -456 0
-424 -428 -2220 -2156 -2140 -3156 -1620 -1560 -1800 -904 0
-808 -812 -1580 -3116 -3100 -3156 -2260 -216 -456 -904 0
-808 -812 -2604 -2156 -2140 -2260 -1236 -1176 -1416 -1800 0
-808 -812 -2604 -3116 -3100 -3220 -1236 -216 -456 -840 0
-1320 -1324 -1132 -620 -604 -724 -2708 -2200 -2440 -3336 0
-1320 -1324 -1580 -620 -604 -724 -2260 -2200 -2440 -3336 0
-2344 -2348 -3116 -1580 -1564 -1684 -724 -216 -456 -2376 0
-616 -620 -364 -428 -412 -2452 -3220 -3096 -3592 -1608 0
-616 -620 -2156 -3116 -3100 -3348 -1428 -408 -904 -712 0
-680 -684 -236 -2156 -2140 -2388 -3348 -1304 -1800 -1672 0
-680 -684 -1196 -1324 -1308 -3348 -2388 -2136 -2632 -712 0
-808 -812 -364 -236 -220 -2260 -3220 -3096 -3592 -1800 0
-808 -812 -364 -2156 -2140 -2260 -3220 -1176 -1672 -1800 0
-808 -812 -428 -236 -220 -2260 -3156 -3096 -3592 -1800 0
-808 -812 -428 -2220 -2204 -2260 -3156 -1112 -1608 -1800 0
-808 -812 -1324 -3116 -3100 -3220 -2260 -216 -712 -840 0
-808 -812 -2348 -2156 -2140 -3156 -1236 -1176 -1672 -904 0
-1576 -1580 -1132 -364 -348 -468 -2452 -2200 -2696 -3592 0
-1576 -1580 -1132 -2156 -2140 -2388 -2452 -408 -904 -1672 0
-1576 -1580 -1196 -428 -412 -2452 -2388 -2136 -2632 -1608 0
-1576 -1580 -1324 -364 -348 -2388 -2260 -2200 -2696 -1672 0
-1576 -1580 -1324 -2348 -2332 -2388 -2260 -216 -712 -1672 0
-2600 -2604 -2348 -428 -412 -1428 -1236 -1112 -1608 -2632 0
-2600 -2604 -3116 -1132 -1116 -1236 -468 -408 -904 -2824 0
-2600 -2604 -3116 -1324 -1308 -1364 -468 -216 -712 -2696 0
-1128 -1132 -236 -2220 -2204 -2708 -2836 -792 -1800 -1352 0
-1192 -1196 -236 -2156 -2140 -2644 -2836 -792 -1800 -1416 0
-1192 -1196 -2220 -2348 -2332 -2836 -852 -600 -1608 -1224 0
-1320 -1324 -364 -2156 -2140 -2260 -2708 -664 -1672 -1800 0
-1320 -1324 -428 -2220 -2204 -2260 -2644 -600 -1608 -1800 0
-1320 -1324 -812 -2604 -2588 -2644 -2260 -216 -1224 -1416 0
-1320 -1324 -2348 -2156 -2140 -2260 -724 -664 -1672 -1800 0
-1576 -1580 -620 -364 -348 -468 -2452 -2200 -3208 -3592 0
-1576 -1580 -684 -428 -412 -2452 -2388 -2136 -3144 -1608 0
-3112 -3116 -2348 -428 -412 -468 -724 -600 -1608 -3592 0
-2152 -2156 -236 -428 -412 -916 -1812 -1560 -3592 -3144 0
-2152 -2156 -1132 -1324 -1308 -1812 -916 -664 -2696 -2248 0
-2216 -2220 -684 -620 -604 -1620 -1364 -1304 -3336 -2440 0
-2216 -2220 -684 -1580 -1564 -1812 -1364 -344 -2376 -2248 0
-2216 -2220 -1196 -1132 -1116 -1364 -852 -792 -2824 -2696 0
-2216 -2220 -1196 -1132 -1116 -1620 -852 -792 -2824 -2440 0
-2216 -2220 -1196 -1580 -1564 -1812 -852 -344 -2376 -2248 0
-2344 -2348 -364 -1132 -1116 -1620 -1684 -664 -2696 -2440 0
-2600 -2604 -620 -1132 -1116 -1364 -1428 -408 -2440 -2696 0
-2600 -2604 -684 -428 -412 -468 -1364 -1112 -3144 -3592 0
-2600 -2604 -812 -1324 -1308 -1428 -1236 -216 -2248 -2632 0
-3112 -3116 -1132 -364 -348 -468 -916 -664 -2696 -3592 0
-3112 -3116 -1196 -428 -412 -468 -852 -600 -2632 -3592 0
-3112 -3116 -1196 -684 -668 -724 -852 -344 -2376 -3336 0
-3112 -3116 -1196 -684 -668 -916 -852 -344 -2376 -3144 0
-3112 -3116 -1580 -620 -604 -724 -468 -408 -2440 -3336 0
-3112 -3116 -1580 -684 -668 -724 -468 -344 -2376 -3336 0
-232 -244 -436 -2356 -2332 -3340 -3596 -1552 -1608 -712 0
-232 -244 -692 -2612 -2588 -2828 -3340 -1296 -1352 -1224 0
-232 -244 -1204 -1588 -1564 -1804 -2828 -2320 -2376 -2248 0
-232 -244 -2228 -2612 -2588 -2828 -1804 -1296 -1352 -1224 0
-232 -244 -2228 -2612 -2588 -3596 -1804 -1296 -1352 -456 0
-232 -244 -2228 -3124 -3100 -3340 -1804 -784 -840 -712 0
-360 -372 -436 -2228 -2204 -2700 -3596 -1552 -1608 -1352 0
-360 -372 -2356 -2612 -2588 -2700 -1676 -1168 -1224 -1352 0
-616 -628 -692 -436 -412 -1420 -3340 -3088 -3144 -2632 0
-616 -628 -1588 -3124 -3100 -3212 -2444 -400 -456 -840 0
-1128 -1140 -3124 -2356 -2332 -2444 -908 -656 -712 -1608 0
-2152 -2164 -2612 -820 -796 -1804 -1420 -1168 -1224 -2248 0
-232 -244 -372 -2356 -2332 -2828 -3596 -1552 -1672 -1224 0
-232 -244 -1140 -3124 -3100 -3596 -2828 -784 -904 -456 0
-424 -436 -372 -2164 -2140 -2636 -3596 -1552 -1672 -1416 0
-424 -436 -1332 -1588 -1564 -3596 -2636 -2128 -2248 -456 0
-424 -436 -2356 -2164 -2140 -2636 -1612 -1552 -1672 -1416 0
-680 -692 -2612 -3124 -3100 -3148 -1356 -336 -456 -904 0
-680 -692 -2612 -3124 -3100 -3340 -1356 -336 -456 -712 0
-1192 -1204 -1140 -2164 -2140 -2636 -2828 -784 -904 -1416 0
-360 -372 -628 -2612 -2588 -3596 -3212 -1168 -1416 -456 0
-360 -372 -1140 -1204 -1180 -3212 -2700 -2576 -2824 -840 0
-360 -372 -2164 -2228 -2204 -3212 -1676 -1552 -1800 -840 0
-424 -436 -244 -628 -604 -1612 -3596 -3088 -3336 -2440 0
-808 -820 -628 -2164 -2140 -2252 -3212 -1168 -1416 -1800 0
-808 -820 -1588 -1140 -1116 -3148 -2252 -2192 -2440 -904 0
-1320 -1332 -1140 -244 -220 -716 -2700 -2576 -2824 -3336 0
-1320 -1332 -1140 -628 -604 -716 -2700 -2192 -2440 -3336 0
-1320 -1332 -1140 -2164 -2140 -2252 -2700 -656 -904 -1800 0
-1320 -1332 -1204 -692 -668 -716 -2636 -2128 -2376 -3336 0
-1320 -1332 -1204 -2228 -2204 -2252 -2636 -592 -840 -1800 0
-1320 -1332 -1588 -2612 -2588 -2636 -2252 -208 -456 -1416 0
-1320 -1332 -3124 -2612 -2588 -2700 -716 -208 -456 -1352 0
-2344 -2356 -2164 -1140 -1116 -1228 -1676 -656 -904 -2824 0
-2344 -2356 -2164 -1140 -1116 -1612 -1676 -656 -904 -2440 0
-616 -628 -244 -436 -412 -1420 -3340 -3088 -3592 -2632 0
-616 -628 -2164 -2228 -2204 -2444 -1420 -1296 -1800 -1608 0
-680 -692 -244 -1140 -1116 -1356 -3340 -2320 -2824 -2696 0
-680 -692 -244 -2164 -2140 -2380 -3340 -1296 -1800 -1672 0
-680 -692 -436 -2356 -2332 -3340 -3148 -1104 -1608 -712 0
-680 -692 -2228 -2164 -2140 -2380 -1356 -1296 -1800 -1672 0
-680 -692 -2228 -2164 -2140 -3148 -1356 -1296 -1800 -904 0
-680 -692 -2228 -2356 -2332 -3340 -1356 -1104 -1608 -712 0
-808 -820 -436 -2228 -2204 -2252 -3148 -1104 -1608 -1800 0
-808 -820 -1332 -1204 -1180 -1228 -2252 -2128 -2632 -2824 0
-808 -820 -1332 -3124 -3100 -3212 -2252 -208 -712 -840 0
-1576 -1588 -1140 -244 -220 -460 -2444 -2320 -2824 -3592 0
-1576 -1588 -3124 -2164 -2140 -2252 -460 -400 -904 -1800 0
-1576 -1588 -3124 -2228 -2204 -2252 -460 -336 -840 -1800 0
-1576 -1588 -3124 -2356 -2332 -2444 -460 -208 -712 -1608 0
-2600 -2612 -2164 -244 -220 -1228 -1420 -1296 -1800 -2824 0
-2600 -2612 -2228 -244 -220 -1228 -1356 -1296 -1800 -2824 0
-2600 -2612 -2356 -1332 -1308 -1356 -1228 -208 -712 -2696 0
-1128 -1140 -244 -2228 -2204 -2444 -2828 -784 -1800 -1608 0
-1128 -1140 -244 -2228 -2204 -2700 -2828 -784 -1800 -1352 0
-1128 -1140 -628 -2612 -2588 -2700 -2444 -400 -1416 -1352 0
-1128 -1140 -2164 -2228 -2204 -2700 -908 -784 -1800 -1352 0
-1192 -1204 -436 -820 -796 -844 -2636 -2128 -3144 -3208 0
-1192 -1204 -692 -628 -604 -844 -2380 -2320 -3336 -3208 0
-1192 -1204 -2228 -2356 -2332 -2828 -844 -592 -1608 -1224 0
-1320 -1332 -820 -628 -604 -716 -2252 -2192 -3208 -3336 0
-1320 -1332 -820 -692 -668 -716 -2252 -2128 -3144 -3336 0
-1320 -1332 -2356 -2612 -2588 -2700 -716 -208 -1224 -1352 0
-1576 -1588 -692 -244 -220 -2252 -2380 -2320 -3336 -1800 0
-1576 -1588 -820 -436 -412 -460 -2252 -2128 -3144 -3592 0
-1576 -1588 -820 -436 -412 -2444 -2252 -2128 -3144 -1608 0
-1576 -1588 -820 -2356 -2332 -2380 -2252 -208 -1224 -1672 0
-3112 -3124 -2164 -372 -348 -844 -908 -656 -1672 -3208 0
-3112 -3124 -2356 -372 -348 -844 -716 -656 -1672 -3208 0
-3112 -3124 -2612 -820 -796 -844 -460 -208 -1224 -3208 0
-2152 -2164 -1140 -1588 -1564 -1676 -908 -400 -2440 -2376 0
-2216 -2228 -244 -372 -348 -1356 -1804 -1552 -3592 -2696 0
-2344 -2356 -372 -1140 -1116 -1228 -1676 -656 -2696 -2824 0
-2344 -2356 -372 -1140 -1116 -1612 -1676 -656 -2696 -2440 0
-2600 -2612 -692 -1204 -1180 -1420 -1356 -336 -2376 -2632 0
-3112 -3124 -1140 -244 -220 -716 -908 -784 -2824 -3336 0
-3112 -3124 -1140 -372 -348 -460 -908 -656 -2696 -3592 0
-3112 -3124 -1140 -372 -348 -844 -908 -656 -2696 -3208 0
-3112 -3124 -1204 -244 -220 -716 -844 -784 -2824 -3336 0
-3112 -3124 -1204 -692 -668 -908 -844 -336 -2376 -3144 0
-3112 -3124 -1332 -372 -348 -460 -716 -656 -2696 -3592 0
-3112 -3124 -1588 -692 -668 -908 -460 -336 -2376 -3144 0
-336 -348 -2332 -2588 -3604 -3620 -1700 -1192 -232 -456 0
-656 -668 -604 -2140 -3156 -3172 -3364 -1320 -424 -904 0
-1168 -1180 -1116 -348 -852 -868 -2852 -2600 -2216 -3208 0
-1296 -1308 -1116 -2140 -2260 -2276 -2724 -680 -808 -1800 0
-1296 -1308 -1180 -2204 -2260 -2276 -2660 -616 -808 -1800 0
-1296 -1308 -3100 -2140 -2260 -2276 -740 -680 -808 -1800 0
-656 -668 -412 -2332 -2388 -2404 -3172 -1128 -1576 -1672 0
-1552 -1564 -3100 -2204 -2452 -2468 -484 -360 -616 -1608 0
-1296 -1308 -2332 -2140 -2260 -2276 -740 -680 -1576 -1800 0
-1552 -1564 -604 -348 -468 -484 -2468 -2216 -3112 -3592 0
-1552 -1564 -668 -412 -468 -484 -2404 -2152 -3112 -3592 0
-1552 -1564 -796 -348 -468 -484 -2276 -2216 -3112 -3592 0
-2192 -2204 -412 -348 -852 -868 -1636 -1576 -3112 -3208 0
-336 -364 -428 -684 -2724 -2708 -3604 -3096 -1112 -1352 0
-1104 -1132 -1196 -428 -2468 -2452 -2836 -2584 -600 -1608 0
-400 -428 -364 -2156 -3172 -3156 -3604 -1560 -664 -904 0
-656 -684 -812 -364 -2404 -2388 -3156 -3096 -1176 -1672 0
-656 -684 -1580 -1132 -3172 -3156 -2388 -2328 -408 -904 0
-1168 -1196 -1324 -364 -2404 -2388 -2644 -2584 -664 -1672 0
-784 -812 -1580 -1132 -3172 -3156 -2260 -2200 -408 -904 0
-656 -684 -1196 -1132 -3172 -3156 -2388 -2328 -792 -904 0
-656 -684 -2220 -2348 -2404 -2388 -1364 -1112 -1560 -1672 0
-784 -812 -2348 -3116 -3172 -3156 -1236 -216 -664 -904 0
-216 -220 -412 -1308 -3340 -3364 -3620 -2600 -616 -712 0
-216 -220 -1180 -3100 -3340 -3364 -2852 -808 -616 -712 0
-216 -220 -2204 -2588 -3596 -3620 -1828 -1320 -360 -456 0
-344 -348 -412 -1180 -1676 -1700 -3620 -2600 -2152 -2376 0
-600 -604 -796 -2332 -3340 -3364 -3236 -1192 -232 -712 0
-1112 -1116 -1308 -2332 -2444 -2468 -2724 -680 -616 -1608 0
-2136 -2140 -2204 -1180 -1420 -1444 -1828 -808 -616 -2632 0
-2136 -2140 -2332 -1308 -1804 -1828 -1700 -680 -232 -2248 0
-2136 -2140 -2588 -1564 -1804 -1828 -1444 -424 -232 -2248 0
-216 -220 -348 -2332 -3340 -3364 -3620 -1576 -680 -712 0
-664 -668 -2588 -2332 -3340 -3364 -1380 -1128 -232 -712 0
-1176 -1180 -1308 -2332 -2380 -2404 -2660 -616 -680 -1672 0
-2328 -2332 -2204 -1180 -1228 -1252 -1636 -616 -808 -2824 0
-600 -604 -2140 -3100 -3340 -3364 -1444 -424 -680 -712 0
-792 -796 -348 -220 -2252 -2276 -3236 -3112 -1576 -1800 0
-792 -796 -412 -2204 -3212 -3236 -3172 -1128 -616 -840 0
-792 -796 -1308 -1116 -1228 -1252 -2276 -2216 -2600 -2824 0
-792 -796 -1308 -1180 -1228 -1252 -2276 -2152 -2600 -2824 0
-2584 -2588 -3100 -1180 -1228 -1252 -484 -360 -808 -2824 0
-1176 -1180 -2204 -2588 -2828 -2852 -868 -360 -1128 -1224 0
-1560 -1564 -604 -220 -2252 -2276 -2468 -2344 -1320 -1800 0
-1560 -1564 -668 -412 -460 -484 -2404 -2152 -3112 -3592 0
-1560 -1564 -796 -348 -460 -484 -2276 -2216 -3112 -3592 0
-1560 -1564 -2588 -2204 -2252 -2276 -484 -360 -1320 -1800 0
-2136 -2140 -604 -1564 -1804 -1828 -1444 -424 -2216 -2248 0
-2200 -2204 -412 -348 -1356 -1380 -1636 -1576 -2600 -2696 0
-2200 -2204 -412 -1308 -1356 -1380 -1636 -616 -2600 -2696 0
-2200 -2204 -668 -796 -1804 -1828 -1380 -1128 -2152 -2248 0
-2328 -2332 -796 -1564 -1676 -1700 -1252 -232 -2152 -2376 0
-600 -628 -692 -2228 -3236 -3212 -3340 -1296 -336 -840 0
-216 -244 -372 -2356 -3364 -3340 -3596 -1552 -656 -712 0
-664 -692 -2612 -3124 -3172 -3148 -1356 -336 -400 -904 0
-344 -372 -244 -2228 -3236 -3212 -3596 -1552 -784 -840 0
-344 -372 -1140 -1204 -3236 -3212 -2700 -2576 -784 -840 0
-408 -436 -244 -1140 -3172 -3148 -3596 -2576 -784 -904 0
-1304 -1332 -3124 -2228 -2276 -2252 -716 -592 -784 -1800 0
-600 -628 -1140 -1204 -1444 -1420 -2444 -2320 -2576 -2632 0
-664 -692 -244 -372 -1380 -1356 -3340 -3088 -2576 -2696 0
-1560 -1588 -1140 -372 -2404 -2380 -2444 -2192 -656 -1672 0
-1112 -1140 -628 -692 -932 -908 -2444 -2320 -3088 -3144 0
-1304 -1332 -372 -2164 -2276 -2252 -2700 -656 -1552 -1800 0
-1304 -1332 -436 -2228 -2276 -2252 -2636 -592 -1552 -1800 0
-1560 -1588 -692 -2228 -2276 -2252 -2380 -336 -1296 -1800 0
-2200 -2228 -244 -1140 -1636 -1612 -1804 -784 -2320 -2440 0
-3096 -3124 -1204 -244 -484 -460 -844 -784 -2576 -3592 0
-3096 -3124 -1332 -372 -484 -460 -716 -656 -2576 -3592 0
-232 -236 -2220 -3116 -3596 -3604 -1812 -792 -344 -456 0
-360 -364 -428 -1196 -1676 -1684 -3604 -2584 -2136 -2376 0
-616 -620 -1580 -1324 -1420 -1428 -2452 -2200 -2136 -2632 0
-616 -620 -1580 -3116 -3212 -3220 -2452 -408 -344 -840 0
-2152 -2156 -3116 -1196 -1676 -1684 -916 -792 -344 -2376 0
-360 -364 -1132 -3116 -3212 -3220 -2708 -664 -792 -840 0
-424 -428 -2220 -2156 -3148 -3156 -1620 -1560 -792 -904 0
-1576 -1580 -1132 -2156 -2380 -2388 -2452 -408 -664 -1672 0
-1192 -1196 -2220 -2604 -2828 -2836 -852 -344 -1112 -1224 0
-2216 -2220 -236 -364 -1356 -1364 -1812 -1560 -2584 -2696 0
-1192 -1204 -1140 -372 -2388 -2380 -2828 -2576 -656 -1672 0
-1192 -1204 -1140 -2164 -2388 -2380 -2828 -784 -656 -1672 0
-360 -372 -244 -1204 -1684 -1676 -3596 -2576 -2320 -2376 0
-424 -436 -244 -1140 -3156 -3148 -3596 -2576 -784 -904 0
-2344 -2356 -3124 -1140 -1236 -1228 -716 -656 -784 -2824 0
-808 -820 -436 -1204 -1236 -1228 -3148 -2128 -2576 -2824 0
-2600 -2612 -3124 -1332 -1428 -1420 -460 -208 -592 -2632 0
-1192 -1204 -244 -2164 -2644 -2636 -2828 -784 -1296 -1416 0
-2600 -2612 -820 -436 -468 -460 -1228 -1104 -3088 -3592 0
-3112 -3124 -1332 -372 -468 -460 -716 -656 -2576 -3592 0
-208 -220 -668 -796 -1812 -3844 -3364 -3112 -2152 -232 0
-336 -348 -796 -2588 -3604 -3716 -3236 -1192 -232 -360 0
-336 -348 -1308 -1564 -3604 -3716 -2724 -2216 -232 -360 0
-336 -348 -2332 -3100 -3220 -3716 -1700 -680 -616 -360 0
-592 -604 -668 -1180 -1428 -3460 -3364 -2344 -2152 -616 0
-592 -604 -2588 -2332 -2452 -3460 -1444 -1192 -1128 -616 0
-1104 -1116 -3100 -2588 -2708 -2948 -932 -424 -360 -1128 0
-2128 -2140 -2204 -412 -1428 -1924 -1828 -1576 -616 -2152 0
-2128 -2140 -2204 -668 -916 -1924 -1828 -1320 -1128 -2152 0
-2128 -2140 -2204 -668 -1684 -1924 -1828 -1320 -360 -2152 0
-2128 -2140 -2204 -1180 -1428 -1924 -1828 -808 -616 -2152 0
-2128 -2140 -2588 -796 -1812 -1924 -1444 -1192 -232 -2152 0
-2128 -2140 -3100 -1308 -1428 -1924 -932 -680 -616 -2152 0
-208 -220 -604 -796 -1812 -3844 -3364 -3112 -2216 -232 0
-208 -220 -604 -1564 -1812 -3844 -3364 -2344 -2216 -232 0
-208 -220 -604 -2588 -2836 -3844 -3364 -1320 -1192 -232 0
-400 -412 -796 -604 -1620 -3652 -3172 -3112 -2216 -424 0
-400 -412 -1308 -1116 -3156 -3652 -2660 -2600 -680 -424 0
-400 -412 -2332 -2140 -3156 -3652 -1636 -1576 -680 -424 0
-400 -412 -2332 -3100 -3156 -3652 -1636 -616 -680 -424 0
-656 -668 -604 -348 -2388 -3396 -3364 -3112 -1192 -680 0
-656 -668 -796 -2332 -3348 -3396 -3172 -1128 -232 -680 0
-656 -668 -1564 -1116 -3156 -3396 -2404 -2344 -424 -680 0
-656 -668 -2588 -2140 -2388 -3396 -1380 -1320 -1192 -680 0
-1168 -1180 -1116 -348 -852 -2884 -2852 -2600 -2216 -1192 0
-1168 -1180 -1308 -2332 -2836 -2884 -2660 -616 -232 -1192 0
-1168 -1180 -1564 -2588 -2644 -2884 -2404 -360 -424 -1192 0
-1168 -1180 -3100 -2588 -2836 -2884 -868 -360 -232 -1192 0
-336 -348 -220 -668 -2708 -3716 -3620 -3112 -1320 -360 0
-400 -412 -220 -1116 -1620 -3652 -3620 -2600 -2344 -424 0
-784 -796 -668 -1180 -1236 -3268 -3172 -2152 -2344 -808 0
-784 -796 -2588 -2140 -3156 -3268 -1252 -1192 -424 -808 0
-1296 -1308 -1180 -2204 -2260 -2756 -2660 -616 -808 -1320 0
-1296 -1308 -1564 -668 -724 -2756 -2276 -2152 -2344 -1320 0
-1296 -1308 -3100 -2140 -2260 -2756 -740 -680 -808 -1320 0
-2320 -2332 -2588 -668 -724 -1732 -1252 -1128 -1320 -2344 0
-2320 -2332 -2588 -668 -1684 -1732 -1252 -1128 -360 -2344 0
-2320 -2332 -2588 -1564 -1684 -1732 -1252 -232 -360 -2344 0
-592 -604 -2140 -2204 -2452 -3460 -1444 -1320 -1576 -616 0
-592 -604 -2140 -2204 -3220 -3460 -1444 -1320 -808 -616 0
-656 -668 -1180 -3100 -3348 -3396 -2404 -360 -616 -680 0
-656 -668 -2204 -3100 -3348 -3396 -1380 -360 -616 -680 0
-784 -796 -1308 -1116 -1236 -3268 -2276 -2216 -2600 -808 0
-784 -796 -1308 -1116 -3156 -3268 -2276 -2216 -680 -808 0
-784 -796 -1308 -3100 -3156 -3268 -2276 -232 -680 -808 0
-784 -796 -1308 -3100 -3220 -3268 -2276 -232 -616 -808 0
-1552 -1564 -1180 -220 -468 -2500 -2404 -2344 -2600 -1576 0
-1552 -1564 -1180 -220 -2260 -2500 -2404 -2344 -808 -1576 0
-1552 -1564 -1308 -412 -468 -2500 -2276 -2152 -2600 -1576 0
-1552 -1564 -1308 -412 -2452 -2500 -2276 -2152 -616 -1576 0
-1552 -1564 -3100 -2140 -2388 -2500 -484 -424 -680 -1576 0
-1552 -1564 -3100 -2204 -2260 -2500 -484 -360 -808 -1576 0
-1552 -1564 -3100 -2332 -2452 -2500 -484 -232 -616 -1576 0
-2576 -2588 -2140 -220 -468 -1476 -1444 -1320 -1576 -2600 0
-2576 -2588 -2140 -220 -1236 -1476 -1444 -1320 -808 -2600 0
-2576 -2588 -2204 -220 -1236 -1476 -1380 -1320 -808 -2600 0
-2576 -2588 -2204 -412 -1428 -1476 -1380 -1128 -616 -2600 0
-2576 -2588 -2332 -348 -468 -1476 -1252 -1192 -1576 -2600 0
-2576 -2588 -2332 -412 -1428 -1476 -1252 -1128 -616 -2600 0
-2576 -2588 -3100 -1180 -1236 -1476 -484 -360 -808 -2600 0
-2576 -2588 -3100 -1308 -1364 -1476 -484 -232 -680 -2600 0
-2576 -2588 -3100 -1308 -1428 -1476 -484 -232 -616 -2600 0
-1104 -1116 -348 -2332 -2836 -2948 -2724 -680 -1192 -1128 0
-1104 -1116 -604 -796 -916 -2948 -2468 -2216 -3112 -1128 0
-1104 -1116 -2140 -2332 -2452 -2948 -932 -680 -1576 -1128 0
-1104 -1116 -2140 -2332 -2836 -2948 -932 -680 -1192 -1128 0
-1168 -1180 -220 -2140 -2388 -2884 -2852 -808 -1576 -1192 0
-1168 -1180 -412 -796 -2836 -2884 -2660 -2152 -1128 -1192 0
-1168 -1180 -668 -796 -852 -2884 -2404 -2152 -3112 -1192 0
-1168 -1180 -668 -796 -2836 -2884 -2404 -2152 -1128 -1192 0
-1168 -1180 -2204 -2588 -2644 -2884 -868 -360 -1320 -1192 0
-1168 -1180 -2204 -2588 -2836 -2884 -868 -360 -1128 -1192 0
-1296 -1308 -348 -2140 -2260 -2756 -2724 -680 -1576 -1320 0
-1296 -1308 -412 -2204 -2260 -2756 -2660 -616 -1576 -1320 0
-1296 -1308 -796 -2588 -2708 -2756 -2276 -232 -1128 -1320 0
-1552 -1564 -604 -220 -468 -2500 -2468 -2344 -3112 -1576 0
-1552 -1564 -604 -2140 -2260 -2500 -2468 -424 -1320 -1576 0
-1552 -1564 -668 -220 -468 -2500 -2404 -2344 -3112 -1576 0
-1552 -1564 -668 -2204 -2260 -2500 -2404 -360 -1320 -1576 0
-1552 -1564 -796 -348 -468 -2500 -2276 -2216 -3112 -1576 0
-1552 -1564 -796 -2332 -2388 -2500 -2276 -232 -1192 -1576 0
-1552 -1564 -2588 -2140 -2388 -2500 -484 -424 -1192 -1576 0
-3088 -3100 -2140 -220 -468 -964 -932 -808 -1576 -3112 0
-3088 -3100 -2204 -220 -468 -964 -868 -808 -1576 -3112 0
-3088 -3100 -2204 -412 -468 -964 -868 -616 -1576 -3112 0
-3088 -3100 -2204 -668 -724 -964 -868 -360 -1320 -3112 0
-3088 -3100 -2588 -668 -916 -964 -484 -360 -1128 -3112 0
-2128 -2140 -348 -1308 -1812 -1924 -1700 -680 -2216 -2152 0
-2128 -2140 -604 -796 -1812 -1924 -1444 -1192 -2216 -2152 0
-2192 -2204 -220 -348 -852 -1860 -1828 -1576 -3112 -2216 0
-2192 -2204 -220 -604 -852 -1860 -1828 -1320 -3112 -2216 0
-2192 -2204 -668 -796 -1812 -1860 -1380 -1128 -2152 -2216 0
-2320 -2332 -348 -1116 -1236 -1732 -1700 -680 -2600 -2344 0
-2576 -2588 -604 -220 -1236 -1476 -1444 -1320 -2344 -2600 0
-2576 -2588 -668 -220 -1236 -1476 -1380 -1320 -2344 -2600 0
-2576 -2588 -796 -348 -468 -1476 -1252 -1192 -3112 -2600 0
-2576 -2588 -1564 -1116 -1236 -1476 -484 -424 -2344 -2600 0
-3088 -3100 -1116 -220 -468 -964 -932 -808 -2600 -3112 0
-3088 -3100 -1116 -348 -468 -964 -932 -680 -2600 -3112 0
-3088 -3100 -1180 -220 -468 -964 -868 -808 -2600 -3112 0
-3088 -3100 -1564 -604 -724 -964 -484 -424 -2344 -3112 0
-208 -236 -684 -812 -1828 -3844 -3348 -3096 -2136 -216 0
-208 -236 -1196 -1324 -1828 -3844 -2836 -2584 -2136 -216 0
-208 -236 -1196 -1324 -3364 -3844 -2836 -2584 -600 -216 0
-208 -236 -2220 -2604 -2852 -3844 -1812 -1304 -1112 -216 0
-336 -364 -428 -1196 -1700 -3716 -3604 -2584 -2136 -344 0
-336 -364 -1324 -1580 -1700 -3716 -2708 -2200 -2136 -344 0
-336 -364 -1324 -1580 -3620 -3716 -2708 -2200 -216 -344 0
-336 -364 -2348 -2220 -2724 -3716 -1684 -1560 -1112 -344 0
-336 -364 -2348 -2604 -3620 -3716 -1684 -1176 -216 -344 0
-336 -364 -2348 -3116 -3620 -3716 -1684 -664 -216 -344 0
-592 -620 -812 -2348 -2468 -3460 -3220 -1176 -1112 -600 0
-592 -620 -1580 -1196 -1444 -3460 -2452 -2328 -2136 -600 0
-1104 -1132 -1196 -684 -2724 -2948 -2836 -2328 -344 -1112 0
-1104 -1132 -1580 -812 -2852 -2948 -2452 -2200 -216 -1112 0
-2128 -2156 -2604 -684 -1700 -1924 -1428 -1304 -344 -2136 0
-208 -236 -364 -2348 -3364 -3844 -3604 -1560 -664 -216 0
-208 -236 -620 -812 -1828 -3844 -3348 -3096 -2200 -216 0
-208 -236 -620 -812 -2852 -3844 -3348 -3096 -1176 -216 0
-656 -684 -620 -1132 -3172 -3396 -3348 -2328 -408 -664 0
-656 -684 -812 -2348 -2404 -3396 -3156 -1112 -1176 -664 0
-1168 -1196 -1132 -364 -868 -2884 -2836 -2584 -2200 -1176 0
-1168 -1196 -1132 -364 -2404 -2884 -2836 -2584 -664 -1176 0
-1168 -1196 -1324 -364 -868 -2884 -2644 -2584 -2200 -1176 0
-1168 -1196 -1580 -812 -868 -2884 -2388 -2136 -2200 -1176 0
-1168 -1196 -1580 -812 -2852 -2884 -2388 -2136 -216 -1176 0
-1168 -1196 -1580 -2604 -2852 -2884 -2388 -344 -216 -1176 0
-1168 -1196 -3116 -2348 -2852 -2884 -852 -600 -216 -1176 0
-1168 -1196 -3116 -2604 -2852 -2884 -852 -344 -216 -1176 0
-2192 -2220 -2156 -364 -868 -1860 -1812 -1560 -1176 -2200 0
-2192 -2220 -2156 -620 -1636 -1860 -1812 -1304 -408 -2200 0
-2192 -2220 -3116 -1580 -1828 -1860 -852 -344 -216 -2200 0
-336 -364 -1132 -1580 -1700 -3716 -2708 -2200 -2328 -344 0
-400 -428 -684 -620 -1636 -3652 -3156 -3096 -2328 -408 0
-400 -428 -684 -1580 -1636 -3652 -3156 -2136 -2328 -408 0
-400 -428 -1196 -1580 -3620 -3652 -2644 -2136 -344 -408 0
-784 -812 -2604 -2156 -2276 -3268 -1236 -1176 -1304 -792 0
-1296 -1324 -1196 -236 -740 -2756 -2644 -2584 -2328 -1304 0
-1296 -1324 -1196 -236 -2276 -2756 -2644 -2584 -792 -1304 0
-1296 -1324 -1580 -2604 -2724 -2756 -2260 -216 -344 -1304 0
-1296 -1324 -3116 -2156 -2276 -2756 -724 -664 -792 -1304 0
-1296 -1324 -3116 -2604 -2724 -2756 -724 -216 -344 -1304 0
-2320 -2348 -2220 -684 -740 -1732 -1620 -1112 -1304 -2328 0
-592 -620 -1132 -3116 -3236 -3460 -2452 -408 -792 -600 0
-656 -684 -236 -1132 -3172 -3396 -3348 -2328 -792 -664 0
-656 -684 -428 -1324 -3364 -3396 -3156 -2136 -600 -664 0
-656 -684 -428 -2348 -2404 -3396 -3156 -1112 -1560 -664 0
-656 -684 -2220 -2156 -2404 -3396 -1364 -1304 -1560 -664 0
-656 -684 -2220 -3116 -3364 -3396 -1364 -344 -600 -664 0
-784 -812 -428 -1196 -1252 -3268 -3156 -2136 -2584 -792 0
-1552 -1580 -1196 -236 -484 -2500 -2388 -2328 -2584 -1560 0
-1104 -1132 -236 -428 -932 -2948 -2836 -2584 -3096 -1112 0
-1104 -1132 -236 -2220 -2724 -2948 -2836 -792 -1304 -1112 0
-1104 -1132 -620 -812 -2852 -2948 -2452 -2200 -1176 -1112 0
-1168 -1196 -236 -364 -2404 -2884 -2836 -2584 -1560 -1176 0
-1168 -1196 -236 -620 -2660 -2884 -2836 -2328 -1304 -1176 0
-1168 -1196 -236 -2156 -2404 -2884 -2836 -792 -1560 -1176 0
-1168 -1196 -236 -2156 -2660 -2884 -2836 -792 -1304 -1176 0
-1168 -1196 -428 -364 -868 -2884 -2644 -2584 -3096 -1176 0
-1168 -1196 -684 -620 -2660 -2884 -2388 -2328 -1304 -1176 0
-1168 -1196 -684 -2604 -2660 -2884 -2388 -344 -1304 -1176 0
-1168 -1196 -2220 -2156 -2404 -2884 -852 -792 -1560 -1176 0
-1552 -1580 -684 -236 -2276 -2500 -2388 -2328 -1304 -1560 0
-3088 -3116 -2156 -364 -868 -964 -916 -664 -1176 -3096 0
-3088 -3116 -2220 -236 -484 -964 -852 -792 -1560 -3096 0
-2128 -2156 -620 -1580 -1700 -1924 -1428 -408 -2328 -2136 0
-2128 -2156 -620 -1580 -1828 -1924 -1428 -408 -2200 -2136 0
-2128 -2156 -1132 -1324 -1828 -1924 -916 -664 -2200 -2136 0
-2128 -2156 -1132 -1580 -1828 -1924 -916 -408 -2200 -2136 0
-2192 -2220 -236 -620 -868 -1860 -1812 -1304 -3096 -2200 0
-2192 -2220 -236 -1132 -1380 -1860 -1812 -792 -2584 -2200 0
-2192 -2220 -428 -812 -1828 -1860 -1620 -1112 -2136 -2200 0
-2192 -2220 -1196 -1132 -1380 -1860 -852 -792 -2584 -2200 0
-2320 -2348 -364 -620 -1636 -1732 -1684 -1176 -2200 -2328 0
-2320 -2348 -1324 -1196 -1252 -1732 -724 -600 -2584 -2328 0
-2576 -2604 -684 -428 -1444 -1476 -1364 -1112 -2136 -2584 0
-2576 -2604 -684 -1196 -1252 -1476 -1364 -344 -2328 -2584 0
-2576 -2604 -1580 -1132 -1252 -1476 -468 -408 -2328 -2584 0
-2576 -2604 -1580 -1324 -1380 -1476 -468 -216 -2200 -2584 0
-3088 -3116 -1132 -236 -740 -964 -916 -792 -2328 -3096 0
-3088 -3116 -1132 -364 -868 -964 -916 -664 -2200 -3096 0
-3088 -3116 -1196 -684 -932 -964 -852 -344 -2136 -3096 0
-3088 -3116 -1580 -620 -740 -964 -468 -408 -2328 -3096 0
-216 -220 -1180 -1564 -3596 -3844 -2852 -2344 -360 -232 0
-216 -220 -2204 -2332 -2828 -3844 -1828 -1576 -1128 -232 0
-216 -220 -2204 -2588 -3596 -3844 -1828 -1320 -360 -232 0
-600 -604 -1564 -1180 -3212 -3460 -2468 -2344 -360 -616 0
-600 -604 -1564 -3100 -3340 -3460 -2468 -424 -232 -616 0
-2136 -2140 -2204 -668 -908 -1924 -1828 -1320 -1128 -2152 0
-2136 -2140 -2204 -668 -1676 -1924 -1828 -1320 -360 -2152 0
-2136 -2140 -2204 -1180 -1420 -1924 -1828 -808 -616 -2152 0
-2136 -2140 -2204 -1180 -1676 -1924 -1828 -808 -360 -2152 0
-2136 -2140 -2588 -1564 -1804 -1924 -1444 -424 -232 -2152 0
-2136 -2140 -3100 -1308 -1420 -1924 -932 -680 -616 -2152 0
-664 -668 -604 -348 -1356 -3396 -3364 -3112 -2216 -680 0
-1176 -1180 -1564 -796 -844 -2884 -2404 -2152 -2216 -1192 0
-2200 -2204 -2140 -348 -844 -1860 -1828 -1576 -1192 -2216 0
-2200 -2204 -2588 -604 -844 -1860 -1380 -1320 -1192 -2216 0
-2200 -2204 -2588 -1564 -1804 -1860 -1380 -360 -232 -2216 0
-344 -348 -2140 -2204 -2700 -3716 -1700 -1576 -1320 -360 0
-344 -348 -2140 -3100 -3596 -3716 -1700 -680 -424 -360 0
-792 -796 -2588 -2204 -3212 -3268 -1252 -1128 -360 -808 0
-1304 -1308 -1180 -668 -716 -2756 -2660 -2152 -2344 -1320 0
-1304 -1308 -1180 -2204 -2252 -2756 -2660 -616 -808 -1320 0
-2328 -2332 -2588 -668 -716 -1732 -1252 -1128 -1320 -2344 0
-2328 -2332 -3100 -1116 -1228 -1732 -740 -680 -808 -2344 0
-2328 -2332 -3100 -1180 -1228 -1732 -740 -616 -808 -2344 0
-2328 -2332 -3100 -1180 -1676 -1732 -740 -616 -360 -2344 0
-792 -796 -412 -2204 -2252 -3268 -3172 -1128 -1576 -808 0
-792 -796 -1308 -3100 -3148 -3268 -2276 -232 -680 -808 0
-1560 -1564 -1116 -220 -460 -2500 -2468 -2344 -2600 -1576 0
-1560 -1564 -1116 -348 -460 -2500 -2468 -2216 -2600 -1576 0
-1560 -1564 -1116 -2140 -2252 -2500 -2468 -424 -808 -1576 0
-1560 -1564 -1180 -220 -460 -2500 -2404 -2344 -2600 -1576 0
-1560 -1564 -1180 -412 -460 -2500 -2404 -2152 -2600 -1576 0
-1560 -1564 -1308 -348 -460 -2500 -2276 -2216 -2600 -1576 0
-1560 -1564 -1308 -412 -460 -2500 -2276 -2152 -2600 -1576 0
-1560 -1564 -1308 -2332 -2444 -2500 -2276 -232 -616 -1576 0
-1560 -1564 -3100 -2140 -2252 -2500 -484 -424 -808 -1576 0
-1560 -1564 -3100 -2140 -2380 -2500 -484 -424 -680 -1576 0
-1560 -1564 -3100 -2204 -2252 -2500 -484 -360 -808 -1576 0
-2584 -2588 -3100 -1308 -1356 -1476 -484 -232 -680 -2600 0
-1112 -1116 -348 -412 -908 -2948 -2724 -2600 -3112 -1128 0
-1112 -1116 -348 -796 -2828 -2948 -2724 -2216 -1192 -1128 0
-1112 -1116 -604 -796 -908 -2948 -2468 -2216 -3112 -1128 0
-1112 -1116 -2140 -2204 -2700 -2948 -932 -808 -1320 -1128 0
-1176 -1180 -220 -604 -844 -2884 -2852 -2344 -3112 -1192 0
-1304 -1308 -412 -668 -716 -2756 -2660 -2152 -3112 -1320 0
-1304 -1308 -796 -604 -716 -2756 -2276 -2216 -3112 -1320 0
-1304 -1308 -796 -604 -2636 -2756 -2276 -2216 -1192 -1320 0
-1304 -1308 -2332 -2140 -2252 -2756 -740 -680 -1576 -1320 0
-1560 -1564 -604 -220 -460 -2500 -2468 -2344 -3112 -1576 0
-1560 -1564 -604 -220 -2252 -2500 -2468 -2344 -1320 -1576 0
-1560 -1564 -668 -220 -460 -2500 -2404 -2344 -3112 -1576 0
-1560 -1564 -668 -412 -460 -2500 -2404 -2152 -3112 -1576 0
-1560 -1564 -668 -2204 -2444 -2500 -2404 -360 -1128 -1576 0
-1560 -1564 -796 -348 -2380 -2500 -2276 -2216 -1192 -1576 0
-1560 -1564 -2588 -2140 -2380 -2500 -484 -424 -1192 -1576 0
-1560 -1564 -2588 -2204 -2252 -2500 -484 -360 -1320 -1576 0
-3096 -3100 -2140 -348 -460 -964 -932 -680 -1576 -3112 0
-3096 -3100 -2204 -412 -460 -964 -868 -616 -1576 -3112 0
-3096 -3100 -2204 -668 -908 -964 -868 -360 -1128 -3112 0
-3096 -3100 -2332 -348 -460 -964 -740 -680 -1576 -3112 0
-3096 -3100 -2588 -604 -844 -964 -484 -424 -1192 -3112 0
-2136 -2140 -220 -668 -1676 -1924 -1828 -1320 -2344 -2152 0
-2136 -2140 -220 -1180 -1676 -1924 -1828 -808 -2344 -2152 0
-2136 -2140 -604 -796 -1804 -1924 -1444 -1192 -2216 -2152 0
-2136 -2140 -604 -1564 -1804 -1924 -1444 -424 -2216 -2152 0
-2136 -2140 -1116 -1180 -1420 -1924 -932 -808 -2600 -2152 0
-2200 -2204 -220 -348 -1356 -1860 -1828 -1576 -2600 -2216 0
-2200 -2204 -220 -604 -1612 -1860 -1828 -1320 -2344 -2216 0
-2200 -2204 -220 -1116 -1356 -1860 -1828 -808 -2600 -2216 0
-2200 -2204 -668 -604 -844 -1860 -1380 -1320 -3112 -2216 0
-2200 -2204 -668 -796 -844 -1860 -1380 -1128 -3112 -2216 0
-2328 -2332 -1308 -1116 -1228 -1732 -740 -680 -2600 -2344 0
-2584 -2588 -604 -220 -460 -1476 -1444 -1320 -3112 -2600 0
-2584 -2588 -668 -412 -460 -1476 -1380 -1128 -3112 -2600 0
-2584 -2588 -796 -412 -460 -1476 -1252 -1128 -3112 -2600 0
-2584 -2588 -1564 -1180 -1420 -1476 -484 -360 -2152 -2600 0
-2584 -2588 -1564 -1308 -1356 -1476 -484 -232 -2216 -2600 0
-3096 -3100 -1116 -220 -460 -964 -932 -808 -2600 -3112 0
-3096 -3100 -1180 -220 -460 -964 -868 -808 -2600 -3112 0
-3096 -3100 -1180 -412 -460 -964 -868 -616 -2600 -3112 0
-3096 -3100 -1308 -412 -460 -964 -740 -616 -2600 -3112 0
-3096 -3100 -1308 -796 -908 -964 -740 -232 -2152 -3112 0
-3096 -3100 -1564 -668 -716 -964 -484 -360 -2344 -3112 0
-216 -244 -692 -820 -2852 -3844 -3340 -3088 -1104 -208 0
-216 -244 -692 -1588 -3620 -3844 -3340 -2320 -336 -208 0
-216 -244 -2228 -2356 -3364 -3844 -1804 -1552 -592 -208 0
-344 -372 -2356 -2612 -3620 -3716 -1676 -1168 -208 -336 0
-600 -628 -1588 -1332 -3364 -3460 -2444 -2192 -208 -592 0
-600 -628 -2612 -2356 -3364 -3460 -1420 -1168 -208 -592 0
-2136 -2164 -2228 -692 -1700 -1924 -1804 -1296 -336 -2128 0
-2136 -2164 -2356 -436 -1444 -1924 -1676 -1552 -592 -2128 0
-2136 -2164 -2612 -1588 -1700 -1924 -1420 -400 -336 -2128 0
-2136 -2164 -2612 -1588 -1828 -1924 -1420 -400 -208 -2128 0
-2136 -2164 -3124 -1204 -1700 -1924 -908 -784 -336 -2128 0
-216 -244 -1140 -1588 -1828 -3844 -2828 -2320 -2192 -208 0
-216 -244 -2164 -2356 -2852 -3844 -1804 -1552 -1168 -208 0
-216 -244 -2164 -2356 -3364 -3844 -1804 -1552 -656 -208 0
-216 -244 -2164 -2612 -3620 -3844 -1804 -1296 -400 -208 0
-1176 -1204 -1140 -372 -868 -2884 -2828 -2576 -2192 -1168 0
-1176 -1204 -1332 -372 -2404 -2884 -2636 -2576 -656 -1168 0
-1176 -1204 -1588 -2612 -2852 -2884 -2380 -336 -208 -1168 0
-2200 -2228 -2164 -628 -868 -1860 -1804 -1296 -1168 -2192 0
-2200 -2228 -2164 -628 -1636 -1860 -1804 -1296 -400 -2192 0
-2200 -2228 -3124 -1588 -1636 -1860 -844 -336 -400 -2192 0
-344 -372 -244 -2228 -3236 -3716 -3596 -1552 -784 -336 0
-344 -372 -2164 -2612 -2724 -3716 -1676 -1168 -1296 -336 0
-1304 -1332 -1204 -2228 -2276 -2756 -2636 -592 -784 -1296 0
-1304 -1332 -3124 -2164 -2276 -2756 -716 -656 -784 -1296 0
-1304 -1332 -3124 -2612 -2724 -2756 -716 -208 -336 -1296 0
-2328 -2356 -2164 -244 -740 -1732 -1676 -1552 -1296 -2320 0
-2328 -2356 -2164 -1140 -1636 -1732 -1676 -656 -400 -2320 0
-600 -628 -2164 -3124 -3236 -3460 -1420 -400 -784 -592 0
-664 -692 -1204 -1140 -3172 -3396 -2380 -2320 -784 -656 0
-2584 -2612 -3124 -1140 -1380 -1476 -460 -400 -656 -2576 0
-1112 -1140 -244 -692 -2724 -2948 -2828 -2320 -1296 -1104 0
-1112 -1140 -372 -436 -932 -2948 -2700 -2576 -3088 -1104 0
-1112 -1140 -628 -2612 -2852 -2948 -2444 -400 -1168 -1104 0
-1112 -1140 -2164 -2612 -2724 -2948 -908 -400 -1296 -1104 0
-1176 -1204 -244 -628 -868 -2884 -2828 -2320 -3088 -1168 0
-1176 -1204 -244 -628 -2660 -2884 -2828 -2320 -1296 -1168 0
-1176 -1204 -692 -628 -2660 -2884 -2380 -2320 -1296 -1168 0
-1176 -1204 -2228 -2164 -2660 -2884 -844 -784 -1296 -1168 0
-1304 -1332 -372 -2164 -2276 -2756 -2700 -656 -1552 -1296 0
-1304 -1332 -436 -2228 -2276 -2756 -2636 -592 -1552 -1296 0
-1304 -1332 -820 -628 -2660 -2756 -2252 -2192 -1168 -1296 0
-1304 -1332 -820 -2612 -2660 -2756 -2252 -208 -1168 -1296 0
-1560 -1588 -628 -2164 -2276 -2500 -2444 -400 -1296 -1552 0
-1560 -1588 -820 -372 -2404 -2500 -2252 -2192 -1168 -1552 0
-3096 -3124 -2356 -436 -484 -964 -716 -592 -1552 -3088 0
-3096 -3124 -2356 -436 -932 -964 -716 -592 -1104 -3088 0
-3096 -3124 -2356 -820 -868 -964 -716 -208 -1168 -3088 0
-2136 -2164 -372 -820 -1828 -1924 -1676 -1168 -2192 -2128 0
-2136 -2164 -628 -692 -932 -1924 -1420 -1296 -3088 -2128 0
-2136 -2164 -628 -1588 -1700 -1924 -1420 -400 -2320 -2128 0
-2136 -2164 -1140 -1204 -1700 -1924 -908 -784 -2320 -2128 0
-2136 -2164 -1140 -1332 -1828 -1924 -908 -656 -2192 -2128 0
-2200 -2228 -244 -628 -868 -1860 -1804 -1296 -3088 -2192 0
-2200 -2228 -244 -628 -1636 -1860 -1804 -1296 -2320 -2192 0
-2200 -2228 -436 -1332 -1828 -1860 -1612 -592 -2128 -2192 0
-2200 -2228 -1204 -1332 -1828 -1860 -844 -592 -2128 -2192 0
-2200 -2228 -1204 -1588 -1828 -1860 -844 -336 -2128 -2192 0
-2328 -2356 -372 -244 -740 -1732 -1676 -1552 -3088 -2320 0
-2328 -2356 -1332 -1204 -1252 -1732 -716 -592 -2576 -2320 0
-2584 -2612 -628 -1140 -1252 -1476 -1420 -400 -2320 -2576 0
-2584 -2612 -692 -436 -484 -1476 -1356 -1104 -3088 -2576 0
-2584 -2612 -1588 -1332 -1444 -1476 -460 -208 -2128 -2576 0
-3096 -3124 -1140 -244 -484 -964 -908 -784 -2576 -3088 0
-3096 -3124 -1140 -628 -868 -964 -908 -400 -2192 -3088 0
-232 -236 -684 -1580 -3596 -3844 -3348 -2328 -344 -216 0
-232 -236 -1196 -1324 -3340 -3844 -2836 -2584 -600 -216 0
-616 -620 -812 -1324 -1420 -3460 -3220 -2200 -2136 -600 0
-1128 -1132 -3116 -2604 -2700 -2948 -916 -408 -344 -1112 0
-2152 -2156 -2220 -684 -908 -1924 -1812 -1304 -1112 -2136 0
-2152 -2156 -2348 -428 -908 -1924 -1684 -1560 -1112 -2136 0
-232 -236 -364 -2348 -3340 -3844 -3604 -1560 -664 -216 0
-2216 -2220 -2156 -364 -844 -1860 -1812 -1560 -1176 -2200 0
-808 -812 -620 -2156 -3148 -3268 -3220 -1176 -408 -792 0
-808 -812 -684 -236 -1228 -3268 -3156 -3096 -2328 -792 0
-1320 -1324 -1132 -2156 -2252 -2756 -2708 -664 -792 -1304 0
-1320 -1324 -1580 -620 -716 -2756 -2260 -2200 -2328 -1304 0
-2344 -2348 -2604 -684 -1676 -1732 -1236 -1112 -344 -2328 0
-2344 -2348 -3116 -1196 -1228 -1732 -724 -600 -792 -2328 0
-616 -620 -236 -428 -1420 -3460 -3348 -3096 -2584 -600 0
-616 -620 -1132 -1196 -1420 -3460 -2452 -2328 -2584 -600 0
-1576 -1580 -1324 -428 -460 -2500 -2260 -2136 -2584 -1560 0
-2600 -2604 -2156 -1132 -1356 -1476 -1428 -408 -664 -2584 0
-2600 -2604 -2348 -428 -1420 -1476 -1236 -1112 -600 -2584 0
-2600 -2604 -3116 -1132 -1228 -1476 -468 -408 -792 -2584 0
-2600 -2604 -3116 -1132 -1356 -1476 -468 -408 -664 -2584 0
-1128 -1132 -236 -2220 -2700 -2948 -2836 -792 -1304 -1112 0
-1128 -1132 -364 -428 -908 -2948 -2708 -2584 -3096 -1112 0
-1128 -1132 -620 -812 -2828 -2948 -2452 -2200 -1176 -1112 0
-1192 -1196 -428 -812 -2828 -2884 -2644 -2136 -1112 -1176 0
-1192 -1196 -428 -2348 -2828 -2884 -2644 -600 -1112 -1176 0
-1320 -1324 -812 -620 -716 -2756 -2260 -2200 -3096 -1304 0
-3112 -3116 -2220 -236 -460 -964 -852 -792 -1560 -3096 0
-3112 -3116 -2220 -684 -908 -964 -852 -344 -1112 -3096 0
-2152 -2156 -236 -428 -908 -1924 -1812 -1560 -3096 -2136 0
-2152 -2156 -236 -428 -1420 -1924 -1812 -1560 -2584 -2136 0
-2152 -2156 -236 -1196 -1420 -1924 -1812 -792 -2584 -2136 0
-2152 -2156 -236 -1196 -1676 -1924 -1812 -792 -2328 -2136 0
-2152 -2156 -364 -428 -1420 -1924 -1684 -1560 -2584 -2136 0
-2216 -2220 -236 -620 -1612 -1860 -1812 -1304 -2328 -2200 0
-2216 -2220 -428 -364 -1356 -1860 -1620 -1560 -2584 -2200 0
-2344 -2348 -364 -1132 -1228 -1732 -1684 -664 -2584 -2328 0
-2344 -2348 -812 -620 -716 -1732 -1236 -1176 -3096 -2328 0
-2600 -2604 -684 -236 -1228 -1476 -1364 -1304 -2328 -2584 0
-2600 -2604 -812 -428 -1420 -1476 -1236 -1112 -2136 -2584 0
-2600 -2604 -1580 -1196 -1228 -1476 -468 -344 -2328 -2584 0
-3112 -3116 -1132 -364 -844 -964 -916 -664 -2200 -3096 0
-3112 -3116 -1132 -620 -716 -964 -916 -408 -2328 -3096 0
-232 -244 -436 -1332 -3348 -3844 -3596 -2576 -592 -208 0
-232 -244 -692 -820 -2836 -3844 -3340 -3088 -1104 -208 0
-232 -244 -692 -1588 -1812 -3844 -3340 -2320 -2128 -208 0
-232 -244 -1204 -3124 -3348 -3844 -2828 -784 -592 -208 0
-232 -244 -1204 -3124 -3604 -3844 -2828 -784 -336 -208 0
-232 -244 -2228 -2356 -3348 -3844 -1804 -1552 -592 -208 0
-232 -244 -2228 -2612 -2836 -3844 -1804 -1296 -1104 -208 0
-360 -372 -820 -2612 -2708 -3716 -3212 -1168 -1104 -336 0
-1128 -1140 -1204 -436 -916 -2948 -2828 -2576 -2128 -1104 0
-1128 -1140 -1204 -692 -916 -2948 -2828 -2320 -2128 -1104 0
-1128 -1140 -1204 -2228 -2708 -2948 -2828 -784 -336 -1104 0
-1128 -1140 -1332 -2356 -2836 -2948 -2700 -656 -208 -1104 0
-2152 -2164 -2228 -692 -916 -1924 -1804 -1296 -1104 -2128 0
-2152 -2164 -2612 -692 -916 -1924 -1420 -1296 -1104 -2128 0
-2152 -2164 -2612 -820 -1812 -1924 -1420 -1168 -208 -2128 0
-232 -244 -1140 -1332 -1812 -3844 -2828 -2576 -2192 -208 0
-232 -244 -1140 -1332 -3348 -3844 -2828 -2576 -656 -208 0
-232 -244 -2164 -3124 -3348 -3844 -1804 -784 -656 -208 0
-424 -436 -372 -1140 -3156 -3652 -3596 -2576 -656 -400 0
-424 -436 -820 -628 -2644 -3652 -3148 -3088 -1168 -400 0
-424 -436 -2356 -3124 -3156 -3652 -1612 -592 -656 -400 0
-680 -692 -628 -372 -1364 -3396 -3340 -3088 -2192 -656 0
-680 -692 -628 -372 -2388 -3396 -3340 -3088 -1168 -656 0
-680 -692 -2612 -2356 -3348 -3396 -1356 -1104 -208 -656 0
-1192 -1204 -1588 -820 -2836 -2884 -2380 -2128 -208 -1168 0
-2216 -2228 -2164 -1140 -1620 -1860 -1804 -784 -400 -2192 0
-360 -372 -244 -692 -2708 -3716 -3596 -3088 -1296 -336 0
-360 -372 -628 -692 -1684 -3716 -3212 -3088 -2320 -336 0
-360 -372 -1140 -3124 -3604 -3716 -2700 -656 -400 -336 0
-424 -436 -2228 -2164 -2644 -3652 -1612 -1552 -1296 -400 0
-424 -436 -2228 -3124 -3156 -3652 -1612 -592 -784 -400 0
-808 -820 -628 -244 -2260 -3268 -3212 -3088 -1296 -784 0
-808 -820 -628 -1140 -1236 -3268 -3212 -2192 -2320 -784 0
-808 -820 -628 -1140 -3156 -3268 -3212 -2192 -400 -784 0
-808 -820 -692 -1204 -1236 -3268 -3148 -2128 -2320 -784 0
-808 -820 -2612 -3124 -3220 -3268 -1228 -208 -336 -784 0
-616 -628 -1140 -1204 -1428 -3460 -2444 -2320 -2576 -592 0
-616 -628 -1140 -3124 -3220 -3460 -2444 -400 -784 -592 0
-680 -692 -244 -1140 -1364 -3396 -3340 -2320 -2576 -656 0
-680 -692 -436 -372 -2388 -3396 -3148 -3088 -1552 -656 0
-808 -820 -372 -2164 -2260 -3268 -3212 -1168 -1552 -784 0
-808 -820 -1332 -1140 -3156 -3268 -2252 -2192 -656 -784 0
-1576 -1588 -1140 -372 -2388 -2500 -2444 -2192 -656 -1552 0
-1576 -1588 -1140 -2164 -2260 -2500 -2444 -400 -784 -1552 0
-1576 -1588 -1204 -244 -2260 -2500 -2380 -2320 -784 -1552 0
-1576 -1588 -1204 -436 -468 -2500 -2380 -2128 -2576 -1552 0
-2600 -2612 -3124 -1332 -1428 -1476 -460 -208 -592 -2576 0
-1128 -1140 -628 -692 -2708 -2948 -2444 -2320 -1296 -1104 0
-1192 -1204 -692 -820 -852 -2884 -2380 -2128 -3088 -1168 0
-1192 -1204 -692 -2612 -2836 -2884 -2380 -336 -1104 -1168 0
-1192 -1204 -2228 -2612 -2836 -2884 -844 -336 -1104 -1168 0
-3112 -3124 -2164 -244 -468 -964 -908 -784 -1552 -3088 0
-3112 -3124 -2356 -436 -916 -964 -716 -592 -1104 -3088 0
-3112 -3124 -2356 -820 -852 -964 -716 -208 -1168 -3088 0
-3112 -3124 -2612 -692 -916 -964 -460 -336 -1104 -3088 0
-2152 -2164 -372 -1332 -1812 -1924 -1676 -656 -2192 -2128 0
-2152 -2164 -628 -1588 -1812 -1924 -1420 -400 -2192 -2128 0
-2152 -2164 -1140 -1204 -1428 -1924 -908 -784 -2576 -2128 0
-2216 -2228 -692 -1588 -1812 -1860 -1356 -336 -2128 -2192 0
-2216 -2228 -1204 -1588 -1812 -1860 -844 -336 -2128 -2192 0
-2600 -2612 -820 -372 -1364 -1476 -1228 -1168 -2192 -2576 0
-3112 -3124 -1332 -372 -852 -964 -716 -656 -2192 -3088 0
-3112 -3124 -1332 -436 -916 -964 -716 -592 -2128 -3088 0
-3112 -3124 -1332 -820 -916 -964 -716 -208 -2128 -3088 0
-3112 -3124 -1588 -692 -916 -964 -460 -336 -2128 -3088 0
-3112 -3124 -1588 -820 -852 -964 -460 -208 -2192 -3088 0
-208 -2252 -2140 -3100 -3124 -1588 -1828 -808 -904 -456 0
-400 -908 -668 -1564 -1588 -1140 -3172 -2152 -2376 -2440 0
-400 -2444 -2204 -2140 -2164 -1140 -1636 -1576 -1800 -904 0
-1296 -1804 -1564 -604 -628 -244 -2276 -2216 -2440 -3336 0
-1552 -3596 -2588 -2204 -2228 -244 -484 -360 -1352 -1800 0
-3088 -3596 -2588 -796 -820 -436 -484 -232 -1224 -3144 0
-2576 -3596 -1564 -1180 -1204 -436 -484 -360 -2376 -2632 0
-656 -908 -812 -1324 -1332 -3124 -3156 -2136 -2248 -712 0
-2192 -2444 -2348 -364 -372 -1140 -1620 -1560 -1672 -2696 0
-1552 -1676 -1196 -428 -436 -372 -2388 -2136 -2632 -3592 0
-3088 -3340 -2348 -364 -372 -244 -724 -664 -1672 -3592 0
-216 -2260 -2140 -2332 -2348 -812 -1828 -1576 -1672 -1224 0
-408 -1428 -1180 -3100 -3116 -2604 -2660 -616 -840 -456 0
-2328 -2836 -2588 -668 -684 -1196 -1252 -1128 -1352 -2376 0
-792 -1812 -1308 -3100 -3116 -2156 -2276 -232 -712 -904 0
-3096 -3348 -2332 -348 -364 -236 -740 -680 -1672 -3592 0
-1176 -3220 -3124 -2356 -2348 -812 -844 -592 -712 -1224 0
-792 -852 -628 -244 -236 -1196 -3212 -3088 -3336 -2824 0
-792 -2836 -2612 -2164 -2156 -236 -1228 -1168 -1416 -1800 0
-664 -724 -244 -1140 -1132 -3116 -3340 -2320 -2824 -904 0
-680 -2724 -2604 -2348 -2332 -348 -1364 -1112 -1224 -1672 0
-2344 -2468 -2220 -1196 -1180 -1116 -1620 -600 -840 -2824 0
-2216 -2276 -236 -1132 -1116 -1308 -1812 -792 -2824 -2696 0
-2344 -2404 -2164 -1140 -1116 -1180 -1676 -656 -904 -2824 0
-592 -716 -668 -1180 -3220 -3348 -3364 -2344 -360 -616 0
-1104 -3148 -3100 -2588 -2836 -916 -932 -424 -232 -1128 0
-656 -1676 -1564 -1116 -1364 -2388 -2404 -2344 -2216 -680 0
-1552 -1676 -1180 -412 -468 -2388 -2404 -2152 -2600 -1576 0
-1104 -1356 -348 -412 -2452 -2708 -2724 -2600 -1576 -1128 0
-208 -1228 -1132 -1580 -3620 -2852 -2836 -2328 -408 -216 0
-784 -1804 -1580 -1196 -1252 -2276 -2260 -2136 -2328 -792 0
-1296 -1804 -1580 -684 -740 -2276 -2260 -2136 -2328 -1304 0
-2320 -2444 -2220 -1196 -1700 -1636 -1620 -600 -344 -2328 0
-1552 -3596 -3116 -2156 -2404 -484 -468 -408 -664 -1560 0
-1104 -1228 -236 -428 -932 -2852 -2836 -2584 -3096 -1112 0
-3088 -3596 -2604 -684 -740 -484 -468 -344 -1304 -3096 0
-2128 -2380 -364 -812 -1828 -1700 -1684 -1176 -2200 -2136 0
-2128 -2636 -620 -684 -1700 -1444 -1428 -1304 -2328 -2136 0
-2192 -2700 -684 -620 -868 -1380 -1364 -1304 -3096 -2200 0
-3088 -3148 -1132 -236 -740 -932 -916 -792 -2328 -3096 0
-216 -468 -412 -1308 -3340 -3596 -3620 -2600 -616 -232 0
-600 -724 -668 -1180 -3212 -3340 -3364 -2344 -360 -616 0
-2136 -2260 -2204 -412 -908 -1804 -1828 -1576 -1128 -2152 0
-1176 -1236 -1116 -348 -2380 -2828 -2852 -2600 -680 -1192 0
-2200 -2260 -2140 -1116 -1356 -1804 -1828 -808 -680 -2216 0
-408 -468 -220 -1116 -3148 -3596 -3620 -2600 -808 -424 0
-408 -468 -220 -2140 -2636 -3596 -3620 -1576 -1320 -424 0
-2328 -2388 -2140 -604 -716 -1676 -1700 -1192 -1320 -2344 0
-2328 -2836 -2588 -668 -1676 -1228 -1252 -1128 -360 -2344 0
-1304 -1812 -796 -668 -716 -2252 -2276 -2152 -3112 -1320 0
-1304 -1812 -796 -668 -2700 -2252 -2276 -2152 -1128 -1320 0
-1304 -1812 -796 -2588 -2700 -2252 -2276 -232 -1128 -1320 0
-2200 -2708 -668 -604 -844 -1356 -1380 -1320 -3112 -2216 0
-2200 -2708 -668 -1564 -1804 -1356 -1380 -360 -2152 -2216 0
-2328 -2452 -412 -668 -716 -1612 -1636 -1128 -3112 -2344 0
-2584 -2836 -796 -348 -460 -1228 -1252 -1192 -3112 -2600 0
-2136 -2260 -2228 -1204 -1444 -1828 -1804 -784 -592 -2128 0
-216 -2260 -2164 -3124 -3364 -1828 -1804 -784 -656 -208 0
-2200 -2260 -2164 -372 -868 -1828 -1804 -1552 -1168 -2192 0
-2200 -2260 -2164 -628 -868 -1828 -1804 -1296 -1168 -2192 0
-408 -1428 -1204 -3124 -3172 -2660 -2636 -592 -784 -400 0
-1304 -1428 -1204 -692 -740 -2660 -2636 -2128 -2320 -1296 0
-2328 -2388 -2164 -1140 -1636 -1700 -1676 -656 -400 -2320 0
-600 -724 -244 -436 -2468 -3364 -3340 -3088 -1552 -592 0
-792 -2836 -2356 -2228 -2276 -1252 -1228 -1104 -1552 -784 0
-1112 -1364 -372 -820 -932 -2724 -2700 -2192 -3088 -1104 0
-1112 -1364 -372 -820 -2852 -2724 -2700 -2192 -1168 -1104 0
-1176 -1428 -436 -820 -868 -2660 -2636 -2128 -3088 -1168 0
-2328 -2388 -372 -628 -740 -1700 -1676 -1168 -3088 -2320 0
-360 -484 -428 -684 -2700 -3596 -3604 -3096 -1112 -344 0
-360 -2404 -2348 -2604 -3596 -1676 -1684 -1176 -216 -344 0
-616 -740 -684 -428 -2444 -3340 -3348 -3096 -1112 -600 0
-616 -868 -812 -1324 -1420 -3212 -3220 -2200 -2136 -600 0
-616 -2660 -2604 -2348 -2444 -1420 -1428 -1176 -1112 -600 0
-1128 -1380 -1324 -428 -908 -2700 -2708 -2584 -2136 -1112 0
-2152 -2276 -2220 -1196 -1420 -1804 -1812 -792 -600 -2136 0
-2152 -2404 -2348 -812 -908 -1676 -1684 -1176 -1112 -2136 0
-232 -2276 -2156 -2348 -3340 -1804 -1812 -1560 -664 -216 0
-232 -2276 -2156 -2604 -2828 -1804 -1812 -1304 -1176 -216 0
-2216 -2468 -2348 -812 -1804 -1612 -1620 -1112 -216 -2200 0
-2600 -2724 -2220 -236 -460 -1356 -1364 -1304 -1560 -2584 0
-1128 -1252 -236 -684 -908 -2828 -2836 -2328 -3096 -1112 0
-1128 -3172 -2156 -2348 -2828 -908 -916 -664 -1176 -1112 0
-1576 -1828 -812 -364 -460 -2252 -2260 -2200 -3096 -1560 0
-2216 -2276 -236 -364 -1356 -1804 -1812 -1560 -2584 -2200 0
-3112 -3364 -1324 -364 -460 -716 -724 -664 -2584 -3096 0
-232 -484 -436 -1332 -1812 -3604 -3596 -2576 -2128 -208 0
-360 -2404 -2356 -3124 -3220 -1684 -1676 -656 -592 -336 0
-232 -2276 -2164 -3124 -3348 -1812 -1804 -784 -656 -208 0
-680 -1700 -1588 -3124 -3156 -2388 -2380 -336 -400 -656 0
-2216 -2276 -2164 -628 -1620 -1812 -1804 -1296 -400 -2192 0
-2216 -2276 -2164 -1140 -1620 -1812 -1804 -784 -400 -2192 0
-360 -868 -628 -2612 -2708 -3220 -3212 -1168 -1296 -336 0
-424 -484 -244 -2164 -2644 -3604 -3596 -1552 -1296 -400 0
-1320 -1380 -1140 -2164 -2644 -2708 -2700 -656 -400 -1296 0
-2344 -2404 -2164 -628 -724 -1684 -1676 -1168 -1296 -2320 0
-616 -2660 -2164 -2228 -3220 -1428 -1420 -1296 -784 -592 0
-1576 -1700 -1204 -436 -2452 -2388 -2380 -2128 -592 -1552 0
-1576 -1700 -692 -436 -2452 -2388 -2380 -2128 -1104 -1552 0
-2152 -2276 -244 -692 -1684 -1812 -1804 -1296 -2320 -2128 0
-2600 -2724 -692 -1204 -1428 -1364 -1356 -336 -2128 -2576 0
-208 -460 -908 -796 -820 -2612 -3124 -3112 -3144 -1224 0
-208 -460 -2444 -2332 -2356 -2612 -1588 -1576 -1608 -1224 0
-336 -460 -2444 -2204 -2228 -3124 -1588 -1576 -1608 -840 0
-336 -2380 -3340 -3100 -3124 -1204 -692 -680 -712 -840 0
-336 -2380 -3340 -3100 -3124 -1588 -692 -680 -712 -456 0
-592 -716 -908 -412 -436 -2356 -3124 -3112 -3144 -1608 0
-592 -716 -2700 -2204 -2228 -2356 -1332 -1320 -1352 -1608 0
-592 -716 -2700 -2204 -2228 -3124 -1332 -1320 -1352 -840 0
-1104 -1356 -1804 -796 -820 -692 -2228 -2216 -2248 -3144 0
-208 -460 -2380 -2332 -2356 -2612 -1588 -1576 -1672 -1224 0
-208 -460 -2380 -2332 -2356 -3124 -1588 -1576 -1672 -712 0
-208 -1228 -1612 -1564 -1588 -820 -2356 -2344 -2440 -2248 0
-208 -2252 -2380 -2332 -2356 -1332 -1588 -1576 -1672 -712 0
-208 -2252 -3148 -3100 -3124 -1588 -820 -808 -904 -456 0
-336 -1356 -1228 -1180 -1204 -2228 -2612 -2600 -2824 -840 0
-336 -2380 -2252 -2204 -2228 -1204 -1588 -1576 -1800 -840 0
-400 -460 -2252 -2140 -2164 -3124 -1588 -1576 -1800 -904 0
-400 -908 -2700 -2588 -2612 -3124 -1140 -1128 -1352 -456 0
-784 -844 -1612 -1116 -1140 -1204 -2228 -2216 -2440 -2824 0
-784 -908 -2700 -2204 -2228 -2164 -1140 -1128 -1352 -1800 0
-784 -1804 -1612 -1116 -1140 -2164 -2228 -2216 -2440 -904 0
-784 -1804 -3596 -3100 -3124 -2164 -244 -232 -456 -904 0
-1296 -1356 -1612 -604 -628 -2612 -2228 -2216 -2440 -1416 0
-1296 -1420 -1228 -220 -244 -2164 -2612 -2600 -2824 -1800 0
-1296 -1804 -1676 -668 -692 -244 -2164 -2152 -2376 -3336 0
-1296 -3340 -3148 -2140 -2164 -244 -692 -680 -904 -1800 0
-1296 -3340 -3212 -2204 -2228 -244 -628 -616 -840 -1800 0
-592 -716 -1228 -1180 -1204 -3124 -2356 -2344 -2824 -840 0
-592 -844 -460 -412 -436 -1204 -3124 -3112 -3592 -2632 0
-592 -2636 -2252 -2204 -2228 -1204 -1332 -1320 -1800 -840 0
-656 -716 -1228 -1116 -1140 -3124 -2356 -2344 -2824 -904 0
-656 -716 -2252 -2140 -2164 -3124 -1332 -1320 -1800 -904 0
-656 -1676 -3212 -3100 -3124 -2164 -372 -360 -840 -904 0
-784 -908 -460 -220 -244 -2164 -3124 -3112 -3592 -1800 0
-784 -908 -1420 -1180 -1204 -1140 -2164 -2152 -2632 -2824 0
-1552 -1676 -3212 -2204 -2228 -2356 -372 -360 -840 -1608 0
-1552 -1804 -1420 -412 -436 -244 -2164 -2152 -2632 -3592 0
-1552 -3596 -3148 -2140 -2164 -244 -436 -424 -904 -1800 0
-1552 -3596 -3212 -2204 -2228 -244 -372 -360 -840 -1800 0
-1552 -3596 -3340 -2332 -2356 -372 -244 -232 -712 -1672 0
-2576 -2700 -2252 -220 -244 -1140 -1332 -1320 -1800 -2824 0
-2576 -3596 -3148 -1116 -1140 -244 -436 -424 -904 -2824 0
-1168 -1228 -2252 -2140 -2164 -2356 -820 -808 -1800 -1672 0
-1168 -1228 -2252 -2140 -2164 -2612 -820 -808 -1800 -1416 0
-1296 -1356 -2380 -2140 -2164 -2228 -692 -680 -1672 -1800 0
-1296 -1420 -460 -220 -244 -2164 -2612 -2600 -3592 -1800 0
-1296 -1420 -908 -668 -692 -2612 -2164 -2152 -3144 -1352 0
-1552 -1676 -716 -220 -244 -372 -2356 -2344 -3336 -3592 0
-3088 -3148 -2380 -348 -372 -820 -692 -680 -1672 -3208 0
-3088 -3212 -2444 -412 -436 -372 -628 -616 -1608 -3592 0
-2128 -2636 -1612 -1564 -1588 -1204 -436 -424 -2440 -2376 0
-2128 -3148 -1612 -1564 -1588 -820 -436 -424 -2440 -2248 0
-2192 -2252 -460 -348 -372 -820 -1588 -1576 -3592 -3208 0
-2320 -2380 -844 -604 -628 -1588 -1204 -1192 -3208 -2440 0
-2320 -2380 -1356 -1116 -1140 -1204 -692 -680 -2696 -2824 0
-2576 -2636 -716 -220 -244 -1204 -1332 -1320 -3336 -2824 0
-2576 -2700 -716 -220 -244 -372 -1332 -1320 -3336 -3592 0
-2576 -2828 -844 -348 -372 -244 -1204 -1192 -3208 -3592 0
-3088 -3212 -1228 -220 -244 -372 -820 -808 -2824 -3592 0
-3088 -3212 -1228 -220 -244 -628 -820 -808 -2824 -3336 0
-3088 -3212 -1676 -668 -692 -820 -372 -360 -2376 -3144 0
-208 -460 -908 -812 -820 -1588 -3124 -3096 -3144 -2248 0
-208 -460 -1420 -1324 -1332 -3124 -2612 -2584 -2632 -712 0
-208 -1228 -1676 -1580 -1588 -2612 -2356 -2328 -2376 -456 0
-336 -1356 -3340 -3116 -3124 -2612 -692 -664 -712 -456 0
-336 -2380 -3340 -3116 -3124 -1588 -692 -664 -712 -456 0
-592 -716 -1676 -1196 -1204 -1332 -2356 -2328 -2376 -2632 0
-592 -716 -1676 -1196 -1204 -3124 -2356 -2328 -2376 -840 0
-592 -1612 -1676 -1196 -1204 -2228 -2356 -2328 -2376 -840 0
-1104 -1356 -1420 -428 -436 -2228 -2612 -2584 -2632 -1608 0
-1104 -1356 -3340 -2348 -2356 -2228 -692 -664 -712 -1608 0
-1104 -1612 -1676 -684 -692 -436 -2356 -2328 -2376 -3144 0
-2128 -2636 -2700 -684 -692 -436 -1332 -1304 -1352 -3144 0
-208 -460 -1356 -1324 -1332 -1588 -2612 -2584 -2696 -2248 0
-208 -1228 -3148 -3116 -3124 -2356 -820 -792 -904 -712 0
-400 -460 -1356 -1132 -1140 -3124 -2612 -2584 -2696 -904 0
-400 -908 -1804 -1580 -1588 -3124 -2164 -2136 -2248 -456 0
-656 -716 -2636 -2156 -2164 -2356 -1332 -1304 -1416 -1672 0
-656 -1676 -1612 -1132 -1140 -2164 -2356 -2328 -2440 -904 0
-656 -1676 -3596 -3116 -3124 -2164 -372 -344 -456 -904 0
-1168 -1228 -3148 -2156 -2164 -2356 -820 -792 -904 -1672 0
-1168 -1676 -1612 -620 -628 -2164 -2356 -2328 -2440 -1416 0
-336 -460 -716 -684 -692 -2612 -3124 -3096 -3336 -1352 0
-336 -2380 -3148 -3116 -3124 -1588 -692 -664 -904 -456 0
-400 -908 -2700 -2604 -2612 -2164 -1140 -1112 -1352 -1416 0
-400 -2444 -3212 -3116 -3124 -1588 -628 -600 -840 -456 0
-784 -908 -1676 -1196 -1204 -3124 -2164 -2136 -2376 -840 0
-784 -1804 -1612 -1132 -1140 -244 -2228 -2200 -2440 -2824 0
-784 -1804 -1612 -1132 -1140 -2164 -2228 -2200 -2440 -904 0
-784 -1804 -1676 -1196 -1204 -2228 -2164 -2136 -2376 -840 0
-784 -1804 -3596 -3116 -3124 -2228 -244 -216 -456 -840 0
-784 -2828 -3596 -3116 -3124 -1140 -244 -216 -456 -904 0
-784 -2828 -3596 -3116 -3124 -1204 -244 -216 -456 -840 0
-1296 -1356 -3148 -2156 -2164 -2228 -692 -664 -904 -1800 0
-1296 -1356 -3148 -2156 -2164 -2612 -692 -664 -904 -1416 0
-1296 -1420 -1228 -236 -244 -628 -2612 -2584 -2824 -3336 0
-1296 -1420 -1228 -236 -244 -2164 -2612 -2584 -2824 -1800 0
-1296 -3340 -3596 -2604 -2612 -692 -244 -216 -456 -1352 0
-2320 -3340 -3148 -1132 -1140 -244 -692 -664 -904 -2824 0
-2320 -3340 -3596 -1580 -1588 -628 -244 -216 -456 -2440 0
-592 -716 -1228 -1196 -1204 -3124 -2356 -2328 -2824 -840 0
-592 -2636 -2252 -2220 -2228 -1204 -1332 -1304 -1800 -840 0
-656 -716 -460 -364 -372 -1332 -3124 -3096 -3592 -2696 0
-656 -716 -460 -364 -372 -2356 -3124 -3096 -3592 -1672 0
-656 -716 -1228 -1132 -1140 -3124 -2356 -2328 -2824 -904 0
-656 -908 -1420 -1324 -1332 -1140 -2164 -2136 -2632 -2696 0
-784 -908 -1420 -1196 -1204 -1140 -2164 -2136 -2632 -2824 0
-784 -908 -1420 -1196 -1204 -3124 -2164 -2136 -2632 -840 0
-784 -908 -2444 -2220 -2228 -3124 -1140 -1112 -1608 -840 0
-784 -1804 -3340 -3116 -3124 -2164 -244 -216 -712 -904 0
-784 -1804 -3340 -3116 -3124 -2228 -244 -216 -712 -840 0
-784 -2828 -2380 -2156 -2164 -244 -1204 -1176 -1672 -1800 0
-1552 -1612 -3148 -2156 -2164 -2356 -436 -408 -904 -1672 0
-1552 -1804 -1420 -428 -436 -244 -2164 -2136 -2632 -3592 0
-1552 -3596 -3148 -2156 -2164 -244 -436 -408 -904 -1800 0
-1552 -3596 -3148 -2156 -2164 -372 -436 -408 -904 -1672 0
-1552 -3596 -3212 -2220 -2228 -436 -372 -344 -840 -1608 0
-2576 -2700 -3212 -1196 -1204 -1140 -372 -344 -840 -2824 0
-1104 -3148 -2252 -2220 -2228 -692 -820 -792 -1800 -1352 0
-1168 -1228 -2252 -2156 -2164 -2356 -820 -792 -1800 -1672 0
-1168 -1228 -2252 -2156 -2164 -2612 -820 -792 -1800 -1416 0
-1168 -1676 -2700 -2604 -2612 -2356 -372 -344 -1352 -1224 0
-1296 -1356 -460 -236 -244 -692 -2612 -2584 -3592 -3336 0
-1552 -1676 -2700 -2220 -2228 -2356 -372 -344 -1352 -1608 0
-1552 -1804 -908 -428 -436 -2228 -2164 -2136 -3144 -1608 0
-1552 -3596 -2636 -2156 -2164 -244 -436 -408 -1416 -1800 0
-1552 -3596 -2828 -2348 -2356 -372 -244 -216 -1224 -1672 0
-3088 -3596 -2828 -812 -820 -372 -244 -216 -1224 -3208 0
-2128 -2252 -716 -684 -692 -820 -1332 -1304 -3336 -3144 0
-2128 -2252 -716 -684 -692 -1588 -1332 -1304 -3336 -2376 0
-2128 -2636 -716 -684 -692 -1204 -1332 -1304 -3336 -2376 0
-2128 -3148 -1228 -1196 -1204 -692 -820 -792 -2824 -2376 0
-2320 -2380 -460 -236 -244 -692 -1588 -1560 -3592 -3336 0
-2320 -2380 -844 -620 -628 -692 -1204 -1176 -3208 -3336 0
-2576 -2828 -1804 -1324 -1332 -1204 -244 -216 -2248 -2632 0
-2576 -3596 -1612 -1132 -1140 -244 -436 -408 -2440 -2824 0
-3088 -3148 -1228 -236 -244 -436 -820 -792 -2824 -3592 0
-3088 -3148 -1612 -620 -628 -692 -436 -408 -2440 -3336 0
-3088 -3212 -1228 -236 -244 -628 -820 -792 -2824 -3336 0
-3088 -3596 -1804 -812 -820 -372 -244 -216 -2248 -3208 0
-216 -468 -2452 -2332 -2348 -3116 -1580 -1576 -1608 -712 0
-216 -1236 -1428 -1308 -1324 -2348 -2604 -2600 -2632 -712 0
-216 -2260 -3220 -3100 -3116 -1580 -812 -808 -840 -456 0
-344 -1364 -1428 -1180 -1196 -684 -2604 -2600 -2632 -2376 0
-344 -2388 -2452 -2204 -2220 -684 -1580 -1576 -1608 -1352 0
-600 -852 -1812 -1308 -1324 -3116 -2220 -2216 -2248 -712 0
-600 -852 -2836 -2332 -2348 -3116 -1196 -1192 -1224 -712 0
-600 -1620 -1812 -1308 -1324 -2348 -2220 -2216 -2248 -712 0
-600 -1620 -3604 -3100 -3116 -2348 -428 -424 -456 -712 0
-600 -2644 -2708 -2204 -2220 -428 -1324 -1320 -1352 -1608 0
-600 -2644 -2708 -2204 -2220 -1196 -1324 -1320 -1352 -840 0
-600 -2644 -2836 -2332 -2348 -1324 -1196 -1192 -1224 -712 0
-1112 -1364 -1428 -412 -428 -684 -2604 -2600 -2632 -3144 0
-1112 -3156 -3348 -2332 -2348 -812 -684 -680 -712 -1224 0
-1112 -3156 -3604 -2588 -2604 -812 -428 -424 -456 -1224 0
-2136 -2260 -2452 -412 -428 -812 -1580 -1576 -1608 -3144 0
-216 -468 -2388 -2332 -2348 -2604 -1580 -1576 -1672 -1224 0
-216 -1236 -1364 -1308 -1324 -2348 -2604 -2600 -2696 -712 0
-216 -2260 -2644 -2588 -2604 -1580 -1324 -1320 -1416 -456 0
-408 -1428 -1812 -1564 -1580 -620 -2156 -2152 -2248 -2440 0
-408 -2452 -2836 -2588 -2604 -620 -1132 -1128 -1224 -1416 0
-664 -916 -1812 -1308 -1324 -1132 -2156 -2152 -2248 -2696 0
-664 -1684 -1812 -1308 -1324 -2348 -2156 -2152 -2248 -712 0
-1176 -3220 -3156 -2140 -2156 -364 -812 -808 -904 -1672 0
-1176 -3220 -3156 -2140 -2156 -620 -812 -808 -904 -1416 0
-2200 -3220 -3348 -1308 -1324 -364 -620 -616 -712 -2696 0
-344 -852 -1620 -1564 -1580 -1196 -2220 -2216 -2440 -2376 0
-344 -1364 -1620 -1564 -1580 -684 -2220 -2216 -2440 -2376 0
-344 -2388 -3156 -3100 -3116 -1196 -684 -680 -904 -840 0
-408 -468 -1236 -1116 -1132 -3116 -2604 -2600 -2824 -904 0
-408 -2452 -3220 -3100 -3116 -1580 -620 -616 -840 -456 0
-792 -916 -1684 -1180 -1196 -1132 -2156 -2152 -2376 -2824 0
-792 -1812 -1620 -1116 -1132 -236 -2220 -2216 -2440 -2824 0
-792 -1812 -1684 -1180 -1196 -2220 -2156 -2152 -2376 -840 0
-792 -1812 -3604 -3100 -3116 -2156 -236 -232 -456 -904 0
-1304 -1364 -3156 -2140 -2156 -2220 -684 -680 -904 -1800 0
-1304 -1812 -1684 -668 -684 -236 -2156 -2152 -2376 -3336 0
-1304 -1812 -1684 -668 -684 -2220 -2156 -2152 -2376 -1352 0
-1304 -1812 -3604 -2588 -2604 -2220 -236 -232 -456 -1352 0
-1304 -3348 -3156 -2140 -2156 -236 -684 -680 -904 -1800 0
-2328 -2388 -3156 -1116 -1132 -1580 -684 -680 -904 -2440 0
-600 -2644 -3156 -3100 -3116 -1196 -428 -424 -904 -840 0
-792 -1812 -1364 -1116 -1132 -2156 -2220 -2216 -2696 -904 0
-792 -2836 -2388 -2140 -2156 -1132 -1196 -1192 -1672 -904 0
-1560 -1620 -1236 -220 -236 -2220 -2348 -2344 -2824 -1800 0
-1560 -1620 -3156 -2140 -2156 -2348 -428 -424 -904 -1672 0
-1560 -3604 -3156 -2140 -2156 -364 -428 -424 -904 -1672 0
-1560 -3604 -3348 -2332 -2348 -364 -236 -232 -712 -1672 0
-2584 -2644 -3156 -1116 -1132 -1196 -428 -424 -904 -2824 0
-2584 -2708 -2452 -412 -428 -364 -1132 -1128 -1608 -3592 0
-1112 -1236 -2260 -2204 -2220 -2348 -812 -808 -1800 -1608 0
-1112 -3156 -2260 -2204 -2220 -428 -812 -808 -1800 -1608 0
-1112 -3156 -2644 -2588 -2604 -812 -428 -424 -1416 -1224 0
-1176 -1236 -468 -348 -364 -2348 -2604 -2600 -3592 -1672 0
-1176 -1236 -2260 -2140 -2156 -2348 -812 -808 -1800 -1672 0
-1304 -1428 -468 -220 -236 -620 -2604 -2600 -3592 -3336 0
-1304 -3348 -2388 -2140 -2156 -236 -684 -680 -1672 -1800 0
-1304 -3348 -2836 -2588 -2604 -620 -236 -232 -1224 -1416 0
-1560 -1620 -852 -348 -364 -2348 -2220 -2216 -3208 -1672 0
-1560 -1684 -2708 -2204 -2220 -2156 -364 -360 -1352 -1800 0
-3096 -3156 -2260 -220 -236 -428 -812 -808 -1800 -3592 0
-3096 -3220 -2260 -220 -236 -364 -812 -808 -1800 -3592 0
-3096 -3220 -2452 -412 -428 -812 -620 -616 -1608 -3144 0
-2136 -2388 -1364 -1308 -1324 -1580 -684 -680 -2696 -2248 0
-2200 -2260 -724 -604 -620 -812 -1324 -1320 -3336 -3208 0
-2200 -2708 -1684 -1564 -1580 -1132 -364 -360 -2376 -2440 0
-2200 -3220 -1428 -1308 -1324 -812 -620 -616 -2632 -2248 0
-2328 -2452 -916 -668 -684 -620 -1132 -1128 -3144 -3336 0
-2328 -3348 -1364 -1116 -1132 -236 -684 -680 -2696 -2824 0
-2584 -2708 -1684 -1180 -1196 -1132 -364 -360 -2376 -2824 0
-2584 -2836 -1812 -1308 -1324 -1196 -236 -232 -2248 -2632 0
-2584 -3604 -1620 -1116 -1132 -364 -428 -424 -2440 -2696 0
-3096 -3604 -1812 -796 -812 -428 -236 -232 -2248 -3144 0
-216 -468 -916 -820 -812 -1580 -3116 -3088 -3144 -2248 0
-216 -468 -916 -820 -812 -2604 -3116 -3088 -3144 -1224 0
-216 -2260 -2708 -2612 -2604 -1580 -1324 -1296 -1352 -456 0
-344 -468 -1428 -1204 -1196 -3116 -2604 -2576 -2632 -840 0
-344 -1364 -1428 -1204 -1196 -2220 -2604 -2576 -2632 -840 0
-344 -1364 -3348 -3124 -3116 -2604 -684 -656 -712 -456 0
-344 -2388 -2452 -2228 -2220 -1196 -1580 -1552 -1608 -840 0
-600 -852 -1812 -1332 -1324 -1196 -2220 -2192 -2248 -2632 0
-1112 -1236 -1684 -692 -684 -812 -2348 -2320 -2376 -3144 0
-1112 -1364 -1812 -820 -812 -684 -2220 -2192 -2248 -3144 0
-2136 -3156 -3220 -1204 -1196 -428 -812 -784 -840 -2632 0
-216 -468 -1364 -1332 -1324 -3116 -2604 -2576 -2696 -712 0
-216 -468 -2388 -2356 -2348 -3116 -1580 -1552 -1672 -712 0
-216 -1236 -1364 -1332 -1324 -2348 -2604 -2576 -2696 -712 0
-216 -2260 -2388 -2356 -2348 -812 -1580 -1552 -1672 -1224 0
-664 -1684 -1812 -1332 -1324 -2348 -2156 -2128 -2248 -712 0
-664 -1684 -3604 -3124 -3116 -2348 -364 -336 -456 -712 0
-1176 -1428 -1364 -372 -364 -620 -2604 -2576 -2696 -3208 0
-1176 -1684 -3604 -2612 -2604 -2348 -364 -336 -456 -1224 0
-2200 -3220 -3604 -1588 -1580 -620 -364 -336 -456 -2440 0
-344 -1364 -1236 -1204 -1196 -684 -2604 -2576 -2824 -2376 0
-344 -1364 -1620 -1588 -1580 -2604 -2220 -2192 -2440 -456 0
-344 -2388 -3156 -3124 -3116 -1580 -684 -656 -904 -456 0
-792 -852 -2644 -2164 -2156 -2220 -1196 -1168 -1416 -1800 0
-792 -916 -1684 -1204 -1196 -3116 -2156 -2128 -2376 -840 0
-792 -916 -2708 -2228 -2220 -3116 -1132 -1104 -1352 -840 0
-792 -1812 -1620 -1140 -1132 -236 -2220 -2192 -2440 -2824 0
-792 -1812 -1684 -1204 -1196 -2220 -2156 -2128 -2376 -840 0
-792 -2836 -2644 -2164 -2156 -1132 -1196 -1168 -1416 -904 0
-792 -2836 -2708 -2228 -2220 -1196 -1132 -1104 -1352 -840 0
-1304 -1364 -1236 -244 -236 -684 -2604 -2576 -2824 -3336 0
-1304 -1364 -3156 -2164 -2156 -2220 -684 -656 -904 -1800 0
-1304 -1364 -3156 -2164 -2156 -2604 -684 -656 -904 -1416 0
-1304 -1812 -1684 -692 -684 -2220 -2156 -2128 -2376 -1352 0
-1304 -3348 -3156 -2164 -2156 -236 -684 -656 -904 -1800 0
-1304 -3348 -3156 -2164 -2156 -620 -684 -656 -904 -1416 0
-2328 -2452 -3220 -1204 -1196 -1132 -620 -592 -840 -2824 0
-2328 -2836 -2708 -692 -684 -236 -1132 -1104 -1352 -3336 0
-2328 -3348 -3220 -1204 -1196 -684 -620 -592 -840 -2376 0
-600 -724 -468 -436 -428 -2348 -3116 -3088 -3592 -1608 0
-600 -852 -468 -436 -428 -1196 -3116 -3088 -3592 -2632 0
-600 -1620 -1364 -1332 -1324 -428 -2220 -2192 -2696 -2632 0
-600 -1620 -3156 -3124 -3116 -2220 -428 -400 -904 -840 0
-664 -724 -1236 -1140 -1132 -3116 -2348 -2320 -2824 -904 0
-664 -724 -2260 -2164 -2156 -3116 -1324 -1296 -1800 -904 0
-664 -1684 -1428 -1332 -1324 -364 -2156 -2128 -2632 -2696 0
-664 -1684 -3220 -3124 -3116 -2156 -364 -336 -840 -904 0
-792 -916 -468 -244 -236 -1132 -3116 -3088 -3592 -2824 0
-792 -916 -1428 -1204 -1196 -1132 -2156 -2128 -2632 -2824 0
-792 -916 -1428 -1204 -1196 -3116 -2156 -2128 -2632 -840 0
-792 -1812 -3348 -3124 -3116 -2156 -236 -208 -712 -904 0
-792 -2836 -2388 -2164 -2156 -1132 -1196 -1168 -1672 -904 0
-1560 -1620 -1364 -372 -364 -428 -2220 -2192 -2696 -3592 0
-1560 -1620 -3156 -2164 -2156 -2348 -428 -400 -904 -1672 0
-1560 -1684 -1428 -436 -428 -364 -2156 -2128 -2632 -3592 0
-1560 -1684 -3220 -2228 -2220 -2156 -364 -336 -840 -1800 0
-1560 -1812 -1428 -436 -428 -236 -2156 -2128 -2632 -3592 0
-1560 -1812 -3348 -2356 -2348 -2220 -236 -208 -712 -1608 0
-1560 -3604 -3156 -2164 -2156 -364 -428 -400 -904 -1672 0
-1560 -3604 -3220 -2228 -2220 -236 -364 -336 -840 -1800 0
-1560 -3604 -3220 -2228 -2220 -428 -364 -336 -840 -1608 0
-2584 -2644 -2388 -372 -364 -428 -1196 -1168 -1672 -3592 0
-1112 -3156 -2388 -2356 -2348 -428 -684 -656 -1672 -1608 0
-1112 -3156 -2388 -2356 -2348 -812 -684 -656 -1672 -1224 0
-1176 -1236 -2260 -2164 -2156 -2348 -812 -784 -1800 -1672 0
-1176 -1684 -724 -628 -620 -2156 -2348 -2320 -3336 -1416 0
-1176 -1684 -916 -820 -812 -364 -2156 -2128 -3144 -3208 0
-1176 -1684 -2708 -2612 -2604 -2156 -364 -336 -1352 -1416 0
-1176 -3220 -2260 -2164 -2156 -620 -812 -784 -1800 -1416 0
-1176 -3220 -2452 -2356 -2348 -364 -620 -592 -1608 -1672 0
-1304 -1364 -2388 -2164 -2156 -2220 -684 -656 -1672 -1800 0
-1304 -3348 -2388 -2164 -2156 -236 -684 -656 -1672 -1800 0
-1304 -3348 -2836 -2612 -2604 -620 -236 -208 -1224 -1416 0
-1560 -1620 -2644 -2164 -2156 -2220 -428 -400 -1416 -1800 0
-1560 -1620 -2644 -2164 -2156 -2348 -428 -400 -1416 -1672 0
-1560 -3604 -2644 -2164 -2156 -236 -428 -400 -1416 -1800 0
-3096 -3156 -2388 -372 -364 -812 -684 -656 -1672 -3208 0
-2200 -2708 -916 -820 -812 -1324 -1132 -1104 -3144 -2248 0
-2200 -2708 -1684 -1588 -1580 -1324 -364 -336 -2376 -2248 0
-2328 -2452 -468 -244 -236 -620 -1580 -1552 -3592 -3336 0
-2328 -3348 -1364 -1140 -1132 -236 -684 -656 -2696 -2824 0
-2328 -3348 -1428 -1204 -1196 -236 -620 -592 -2632 -2824 0
-2584 -3604 -1684 -1204 -1196 -236 -364 -336 -2376 -2824 0
-2584 -3604 -1684 -1204 -1196 -428 -364 -336 -2376 -2632 0
-3096 -3156 -1236 -244 -236 -428 -812 -784 -2824 -3592 0
-3096 -3220 -1428 -436 -428 -364 -620 -592 -2632 -3592 0
-3096 -3220 -1684 -692 -684 -620 -364 -336 -2376 -3336 0
-3096 -3348 -1364 -372 -364 -236 -684 -656 -2696 -3592 0
-3096 -3604 -1684 -692 -684 -428 -364 -336 -2376 -3144 0
-232 -484 -1444 -1324 -1308 -3100 -2588 -2584 -2632 -712 0
-232 -740 -2724 -2604 -2588 -3100 -1308 -1304 -1352 -456 0
-232 -1252 -3236 -3116 -3100 -2332 -796 -792 -840 -712 0
-232 -2276 -2724 -2604 -2588 -796 -1308 -1304 -1352 -1224 0
-232 -2276 -3236 -3116 -3100 -1308 -796 -792 -840 -712 0
-360 -868 -932 -684 -668 -1180 -3100 -3096 -3144 -2376 0
-360 -868 -932 -684 -668 -2204 -3100 -3096 -3144 -1352 0
-360 -1380 -1828 -1580 -1564 -668 -2204 -2200 -2248 -2376 0
-360 -1380 -3364 -3116 -3100 -2204 -668 -664 -712 -840 0
-360 -2404 -3364 -3116 -3100 -1564 -668 -664 -712 -456 0
-616 -740 -1700 -1196 -1180 -3100 -2332 -2328 -2376 -840 0
-616 -868 -1828 -1324 -1308 -3100 -2204 -2200 -2248 -712 0
-616 -1636 -1700 -1196 -1180 -412 -2332 -2328 -2376 -2632 0
-616 -1636 -1700 -1196 -1180 -2204 -2332 -2328 -2376 -840 0
-616 -1636 -1828 -1324 -1308 -412 -2204 -2200 -2248 -2632 0
-616 -1636 -1828 -1324 -1308 -2332 -2204 -2200 -2248 -712 0
-1128 -3172 -3236 -2220 -2204 -668 -796 -792 -840 -1352 0
-2152 -2276 -2724 -684 -668 -1564 -1308 -1304 -1352 -2376 0
-232 -484 -868 -812 -796 -2588 -3100 -3096 -3208 -1224 0
-232 -484 -1380 -1324 -1308 -3100 -2588 -2584 -2696 -712 0
-232 -484 -2404 -2348 -2332 -3100 -1564 -1560 -1672 -712 0
-232 -1252 -1380 -1324 -1308 -796 -2588 -2584 -2696 -2248 0
-232 -1252 -1380 -1324 -1308 -2332 -2588 -2584 -2696 -712 0
-232 -1252 -1636 -1580 -1564 -796 -2332 -2328 -2440 -2248 0
-232 -2276 -2404 -2348 -2332 -1308 -1564 -1560 -1672 -712 0
-232 -2276 -2660 -2604 -2588 -1564 -1308 -1304 -1416 -456 0
-424 -1444 -1380 -1132 -1116 -2140 -2588 -2584 -2696 -904 0
-424 -1444 -1828 -1580 -1564 -2588 -2140 -2136 -2248 -456 0
-424 -2468 -2404 -2156 -2140 -1116 -1564 -1560 -1672 -904 0
-424 -2468 -2852 -2604 -2588 -1564 -1116 -1112 -1224 -456 0
-424 -2468 -3364 -3116 -3100 -1564 -604 -600 -712 -456 0
-680 -740 -2660 -2156 -2140 -3100 -1308 -1304 -1416 -904 0
-680 -1700 -1828 -1324 -1308 -2332 -2140 -2136 -2248 -712 0
-680 -2724 -2660 -2156 -2140 -1116 -1308 -1304 -1416 -904 0
-1192 -1252 -3172 -2156 -2140 -2332 -796 -792 -904 -1672 0
-1192 -3236 -3172 -2156 -2140 -604 -796 -792 -904 -1416 0
-2216 -2468 -2404 -364 -348 -1116 -1564 -1560 -1672 -2696 0
-2216 -2724 -2660 -620 -604 -1116 -1308 -1304 -1416 -2440 0
-2216 -3236 -3364 -1324 -1308 -348 -604 -600 -712 -2696 0
-360 -484 -1252 -1196 -1180 -3100 -2588 -2584 -2824 -840 0
-360 -1380 -1252 -1196 -1180 -2204 -2588 -2584 -2824 -840 0
-360 -1380 -3172 -3116 -3100 -2588 -668 -664 -904 -456 0
-360 -2404 -2276 -2220 -2204 -668 -1564 -1560 -1800 -1352 0
-360 -2404 -2660 -2604 -2588 -668 -1180 -1176 -1416 -1352 0
-424 -484 -740 -620 -604 -2588 -3100 -3096 -3336 -1416 0
-424 -484 -1252 -1132 -1116 -1564 -2588 -2584 -2824 -2440 0
-424 -484 -1252 -1132 -1116 -3100 -2588 -2584 -2824 -904 0
-424 -484 -2276 -2156 -2140 -2588 -1564 -1560 -1800 -1416 0
-424 -484 -2276 -2156 -2140 -3100 -1564 -1560 -1800 -904 0
-424 -2468 -2276 -2156 -2140 -1116 -1564 -1560 -1800 -904 0
-424 -2468 -2724 -2604 -2588 -604 -1116 -1112 -1352 -1416 0
-424 -2468 -3236 -3116 -3100 -1116 -604 -600 -840 -904 0
-808 -868 -1636 -1132 -1116 -1180 -2204 -2200 -2440 -2824 0
-808 -1828 -1636 -1132 -1116 -2140 -2204 -2200 -2440 -904 0
-808 -1828 -3620 -3116 -3100 -2140 -220 -216 -456 -904 0
-808 -1828 -3620 -3116 -3100 -2204 -220 -216 -456 -840 0
-808 -2852 -2660 -2156 -2140 -1116 -1180 -1176 -1416 -904 0
-808 -2852 -3620 -3116 -3100 -1116 -220 -216 -456 -904 0
-1320 -1380 -1636 -620 -604 -2588 -2204 -2200 -2440 -1416 0
-2344 -2468 -2276 -236 -220 -604 -1564 -1560 -1800 -3336 0
-616 -740 -484 -428 -412 -1308 -3100 -3096 -3592 -2632 0
-616 -740 -1252 -1196 -1180 -1308 -2332 -2328 -2824 -2632 0
-616 -868 -1380 -1324 -1308 -1180 -2204 -2200 -2696 -2632 0
-616 -2660 -3172 -3116 -3100 -1180 -412 -408 -904 -840 0
-680 -740 -2276 -2156 -2140 -3100 -1308 -1304 -1800 -904 0
-680 -1700 -3236 -3116 -3100 -2332 -348 -344 -840 -712 0
-680 -2724 -2276 -2156 -2140 -1116 -1308 -1304 -1800 -904 0
-808 -868 -1380 -1132 -1116 -1180 -2204 -2200 -2696 -2824 0
-808 -868 -1380 -1132 -1116 -3100 -2204 -2200 -2696 -904 0
-808 -1828 -1380 -1132 -1116 -220 -2204 -2200 -2696 -2824 0
-808 -1828 -1380 -1132 -1116 -2140 -2204 -2200 -2696 -904 0
-808 -1828 -1444 -1196 -1180 -220 -2140 -2136 -2632 -2824 0
-808 -1828 -3364 -3116 -3100 -2204 -220 -216 -712 -840 0
-808 -2852 -2404 -2156 -2140 -1116 -1180 -1176 -1672 -904 0
-808 -2852 -2468 -2220 -2204 -1180 -1116 -1112 -1608 -840 0
-1576 -1700 -3236 -2220 -2204 -2140 -348 -344 -840 -1800 0
-1576 -1828 -3364 -2348 -2332 -2140 -220 -216 -712 -1672 0
-1576 -3620 -3364 -2348 -2332 -348 -220 -216 -712 -1672 0
-2600 -2660 -2276 -236 -220 -412 -1308 -1304 -1800 -3592 0
-2600 -2724 -2276 -236 -220 -1116 -1308 -1304 -1800 -2824 0
-2600 -2724 -2468 -428 -412 -348 -1116 -1112 -1608 -3592 0
-2600 -2852 -2468 -428 -412 -220 -1116 -1112 -1608 -3592 0
-2600 -2852 -3364 -1324 -1308 -1116 -220 -216 -712 -2696 0
-2600 -3620 -3172 -1132 -1116 -348 -412 -408 -904 -2696 0
-2600 -3620 -3364 -1324 -1308 -412 -220 -216 -712 -2632 0
-1128 -1252 -2276 -2220 -2204 -2332 -796 -792 -1800 -1608 0
-1128 -3172 -2276 -2220 -2204 -668 -796 -792 -1800 -1352 0
-1128 -3172 -2404 -2348 -2332 -412 -668 -664 -1672 -1608 0
-1192 -1252 -2276 -2156 -2140 -2332 -796 -792 -1800 -1672 0
-1192 -1252 -2276 -2156 -2140 -2588 -796 -792 -1800 -1416 0
-1192 -1444 -2468 -2348 -2332 -2140 -604 -600 -1608 -1672 0
-1192 -1700 -932 -812 -796 -348 -2140 -2136 -3144 -3208 0
-1192 -1700 -932 -812 -796 -2332 -2140 -2136 -3144 -1224 0
-1320 -1380 -484 -236 -220 -668 -2588 -2584 -3592 -3336 0
-1320 -1380 -484 -236 -220 -2204 -2588 -2584 -3592 -1800 0
-1320 -1380 -2404 -2156 -2140 -2204 -668 -664 -1672 -1800 0
-1320 -1380 -2404 -2156 -2140 -2588 -668 -664 -1672 -1416 0
-1320 -3364 -2852 -2604 -2588 -604 -220 -216 -1224 -1416 0
-1576 -1636 -868 -364 -348 -2332 -2204 -2200 -3208 -1672 0
-1576 -1636 -2660 -2156 -2140 -2204 -412 -408 -1416 -1800 0
-1576 -1828 -2852 -2348 -2332 -2204 -220 -216 -1224 -1608 0
-1576 -3620 -2660 -2156 -2140 -348 -412 -408 -1416 -1672 0
-1576 -3620 -2852 -2348 -2332 -348 -220 -216 -1224 -1672 0
-1576 -3620 -2852 -2348 -2332 -412 -220 -216 -1224 -1608 0
-3112 -3172 -2276 -236 -220 -412 -796 -792 -1800 -3592 0
-3112 -3172 -2276 -236 -220 -668 -796 -792 -1800 -3336 0
-3112 -3236 -2276 -236 -220 -348 -796 -792 -1800 -3592 0
-3112 -3236 -2276 -236 -220 -604 -796 -792 -1800 -3336 0
-2152 -2276 -740 -684 -668 -1564 -1308 -1304 -3336 -2376 0
-2216 -2276 -484 -364 -348 -1308 -1564 -1560 -3592 -2696 0
-2216 -2276 -1252 -1132 -1116 -1564 -796 -792 -2824 -2440 0
-2216 -2468 -484 -364 -348 -604 -1564 -1560 -3592 -3208 0
-2216 -2724 -1700 -1580 -1564 -1308 -348 -344 -2376 -2248 0
-2216 -3236 -1444 -1324 -1308 -348 -604 -600 -2632 -2696 0
-2216 -3236 -1444 -1324 -1308 -796 -604 -600 -2632 -2248 0
-2344 -2404 -484 -236 -220 -668 -1564 -1560 -3592 -3336 0
-2344 -2468 -484 -236 -220 -604 -1564 -1560 -3592 -3336 0
-2344 -3364 -1444 -1196 -1180 -668 -604 -600 -2632 -2376 0
-2600 -2660 -868 -364 -348 -412 -1180 -1176 -3208 -3592 0
-2600 -2724 -932 -428 -412 -348 -1116 -1112 -3144 -3592 0
-2600 -2852 -932 -428 -412 -1180 -1116 -1112 -3144 -2632 0
-2600 -3620 -1700 -1196 -1180 -220 -348 -344 -2376 -2824 0
-3112 -3172 -1252 -236 -220 -668 -796 -792 -2824 -3336 0
-3112 -3236 -1252 -236 -220 -348 -796 -792 -2824 -3592 0
-3112 -3620 -1636 -620 -604 -220 -412 -408 -2440 -3336 0
-232 -484 -2468 -2356 -2332 -3100 -1564 -1552 -1608 -712 0
-232 -740 -2724 -2612 -2588 -3100 -1308 -1296 -1352 -456 0
-232 -1252 -1444 -1332 -1308 -2332 -2588 -2576 -2632 -712 0
-232 -1252 -1700 -1588 -1564 -2588 -2332 -2320 -2376 -456 0
-232 -1252 -3236 -3124 -3100 -2332 -796 -784 -840 -712 0
-232 -2276 -2468 -2356 -2332 -1308 -1564 -1552 -1608 -712 0
-232 -2276 -2724 -2612 -2588 -1564 -1308 -1296 -1352 -456 0
-232 -2276 -3236 -3124 -3100 -1308 -796 -784 -840 -712 0
-232 -2276 -3236 -3124 -3100 -1564 -796 -784 -840 -456 0
-360 -484 -1444 -1204 -1180 -1564 -2588 -2576 -2632 -2376 0
-360 -484 -1444 -1204 -1180 -3100 -2588 -2576 -2632 -840 0
-360 -484 -2468 -2228 -2204 -2588 -1564 -1552 -1608 -1352 0
-360 -868 -932 -692 -668 -1180 -3100 -3088 -3144 -2376 0
-360 -1380 -1444 -1204 -1180 -668 -2588 -2576 -2632 -2376 0
-360 -1380 -3364 -3124 -3100 -2204 -668 -656 -712 -840 0
-360 -2404 -2852 -2612 -2588 -1564 -1180 -1168 -1224 -456 0
-360 -2404 -3364 -3124 -3100 -1564 -668 -656 -712 -456 0
-616 -1636 -1828 -1332 -1308 -2332 -2204 -2192 -2248 -712 0
-1128 -1252 -3236 -2228 -2204 -2332 -796 -784 -840 -1608 0
-1128 -1636 -1828 -820 -796 -2332 -2204 -2192 -2248 -1224 0
-1128 -3172 -3620 -2612 -2588 -796 -412 -400 -456 -1224 0
-2152 -2404 -2468 -436 -412 -668 -1564 -1552 -1608 -3144 0
-2152 -2660 -2724 -692 -668 -1180 -1308 -1296 -1352 -2376 0
-2152 -3172 -3236 -1204 -1180 -412 -796 -784 -840 -2632 0
-2152 -3172 -3236 -1204 -1180 -668 -796 -784 -840 -2376 0
-232 -484 -868 -820 -796 -1564 -3100 -3088 -3208 -2248 0
-232 -484 -1380 -1332 -1308 -3100 -2588 -2576 -2696 -712 0
-232 -1252 -1380 -1332 -1308 -2332 -2588 -2576 -2696 -712 0
-232 -1252 -1636 -1588 -1564 -796 -2332 -2320 -2440 -2248 0
-232 -1252 -1636 -1588 -1564 -2588 -2332 -2320 -2440 -456 0
-232 -2276 -2404 -2356 -2332 -1308 -1564 -1552 -1672 -712 0
-232 -2276 -3172 -3124 -3100 -1564 -796 -784 -904 -456 0
-424 -484 -868 -628 -604 -1564 -3100 -3088 -3208 -2440 0
-424 -484 -1380 -1140 -1116 -3100 -2588 -2576 -2696 -904 0
-424 -484 -2404 -2164 -2140 -2588 -1564 -1552 -1672 -1416 0
-424 -932 -2852 -2612 -2588 -3100 -1116 -1104 -1224 -456 0
-424 -1444 -1828 -1588 -1564 -604 -2140 -2128 -2248 -2440 0
-424 -1444 -3364 -3124 -3100 -2588 -604 -592 -712 -456 0
-424 -2468 -2404 -2164 -2140 -604 -1564 -1552 -1672 -1416 0
-424 -2468 -2404 -2164 -2140 -1116 -1564 -1552 -1672 -904 0
-424 -2468 -3364 -3124 -3100 -1564 -604 -592 -712 -456 0
-680 -740 -868 -372 -348 -1308 -3100 -3088 -3208 -2696 0
-680 -932 -2852 -2356 -2332 -2140 -1116 -1104 -1224 -1672 0
-680 -1700 -1636 -1140 -1116 -348 -2332 -2320 -2440 -2696 0
-680 -2724 -2660 -2164 -2140 -348 -1308 -1296 -1416 -1672 0
-1192 -1252 -1636 -628 -604 -796 -2332 -2320 -2440 -3208 0
-1192 -1252 -3172 -2164 -2140 -2332 -796 -784 -904 -1672 0
-360 -484 -2276 -2228 -2204 -2588 -1564 -1552 -1800 -1352 0
-360 -2404 -2276 -2228 -2204 -668 -1564 -1552 -1800 -1352 0
-360 -2404 -3172 -3124 -3100 -1564 -668 -656 -904 -456 0
-424 -484 -1252 -1140 -1116 -3100 -2588 -2576 -2824 -904 0
-424 -484 -2276 -2164 -2140 -2588 -1564 -1552 -1800 -1416 0
-424 -484 -2276 -2164 -2140 -3100 -1564 -1552 -1800 -904 0
-424 -932 -1700 -1588 -1564 -3100 -2140 -2128 -2376 -456 0
-424 -1444 -1252 -1140 -1116 -604 -2588 -2576 -2824 -2440 0
-424 -1444 -1252 -1140 -1116 -2140 -2588 -2576 -2824 -904 0
-424 -2468 -2276 -2164 -2140 -604 -1564 -1552 -1800 -1416 0
-808 -868 -740 -244 -220 -1180 -3100 -3088 -3336 -2824 0
-808 -868 -1636 -1140 -1116 -1180 -2204 -2192 -2440 -2824 0
-808 -932 -1700 -1204 -1180 -1116 -2140 -2128 -2376 -2824 0
-808 -932 -2724 -2228 -2204 -2140 -1116 -1104 -1352 -1800 0
-808 -2852 -3620 -3124 -3100 -1116 -220 -208 -456 -904 0
-1320 -1380 -1252 -244 -220 -668 -2588 -2576 -2824 -3336 0
-1320 -1444 -3236 -2228 -2204 -2140 -604 -592 -840 -1800 0
-1320 -1828 -3620 -2612 -2588 -2204 -220 -208 -456 -1352 0
-1320 -3364 -3172 -2164 -2140 -220 -668 -656 -904 -1800 0
-1320 -3364 -3172 -2164 -2140 -604 -668 -656 -904 -1416 0
-2344 -2468 -2276 -244 -220 -604 -1564 -1552 -1800 -3336 0
-2344 -2468 -3236 -1204 -1180 -1116 -604 -592 -840 -2824 0
-2344 -2852 -3620 -1588 -1564 -1180 -220 -208 -456 -2376 0
-616 -1636 -1252 -1204 -1180 -412 -2332 -2320 -2824 -2632 0
-616 -1636 -1380 -1332 -1308 -2332 -2204 -2192 -2696 -712 0
-616 -2660 -2276 -2228 -2204 -412 -1308 -1296 -1800 -1608 0
-616 -2660 -2276 -2228 -2204 -1180 -1308 -1296 -1800 -840 0
-680 -740 -484 -372 -348 -2332 -3100 -3088 -3592 -1672 0
-680 -740 -2276 -2164 -2140 -2332 -1308 -1296 -1800 -1672 0
-680 -740 -2276 -2164 -2140 -3100 -1308 -1296 -1800 -904 0
-680 -2724 -2276 -2164 -2140 -348 -1308 -1296 -1800 -1672 0
-680 -2724 -2276 -2164 -2140 -1116 -1308 -1296 -1800 -904 0
-808 -868 -484 -244 -220 -1180 -3100 -3088 -3592 -2824 0
-808 -868 -484 -244 -220 -2204 -3100 -3088 -3592 -1800 0
-808 -932 -1444 -1204 -1180 -1116 -2140 -2128 -2632 -2824 0
-808 -932 -2468 -2228 -2204 -2140 -1116 -1104 -1608 -1800 0
-1576 -1636 -3172 -2164 -2140 -2204 -412 -400 -904 -1800 0
-2600 -2660 -2276 -244 -220 -412 -1308 -1296 -1800 -3592 0
-2600 -2724 -2276 -244 -220 -1116 -1308 -1296 -1800 -2824 0
-2600 -2852 -2404 -372 -348 -1116 -1180 -1168 -1672 -2696 0
-1128 -1252 -2276 -2228 -2204 -2332 -796 -784 -1800 -1608 0
-1128 -1252 -2276 -2228 -2204 -2588 -796 -784 -1800 -1352 0
-1128 -1636 -868 -820 -796 -412 -2204 -2192 -3208 -3144 0
-1128 -3172 -2276 -2228 -2204 -668 -796 -784 -1800 -1352 0
-1128 -3172 -2404 -2356 -2332 -412 -668 -656 -1672 -1608 0
-1192 -1252 -2276 -2164 -2140 -2332 -796 -784 -1800 -1672 0
-1192 -1252 -2276 -2164 -2140 -2588 -796 -784 -1800 -1416 0
-1320 -1380 -868 -628 -604 -668 -2204 -2192 -3208 -3336 0
-1320 -1444 -2468 -2228 -2204 -2588 -604 -592 -1608 -1352 0
-1320 -3364 -2468 -2228 -2204 -668 -604 -592 -1608 -1352 0
-1576 -1636 -2660 -2164 -2140 -2332 -412 -400 -1416 -1672 0
-1576 -1828 -2852 -2356 -2332 -2140 -220 -208 -1224 -1672 0
-3112 -3172 -2276 -244 -220 -668 -796 -784 -1800 -3336 0
-3112 -3236 -2276 -244 -220 -348 -796 -784 -1800 -3592 0
-3112 -3236 -2724 -692 -668 -604 -348 -336 -1352 -3336 0
-2152 -2276 -740 -692 -668 -796 -1308 -1296 -3336 -3144 0
-2152 -2660 -868 -820 -796 -412 -1180 -1168 -3208 -3144 0
-2152 -3172 -1380 -1332 -1308 -796 -668 -656 -2696 -2248 0
-2216 -2276 -484 -372 -348 -1308 -1564 -1552 -3592 -2696 0
-2216 -2276 -1252 -1140 -1116 -1308 -796 -784 -2824 -2696 0
-2216 -2468 -1444 -1332 -1308 -1564 -604 -592 -2632 -2248 0
-2344 -2404 -484 -244 -220 -668 -1564 -1552 -3592 -3336 0
-2344 -2468 -484 -244 -220 -604 -1564 -1552 -3592 -3336 0
-2344 -2468 -484 -244 -220 -1116 -1564 -1552 -3592 -2824 0
-2344 -2852 -1828 -1588 -1564 -1116 -220 -208 -2248 -2440 0
-2344 -2852 -1828 -1588 -1564 -1180 -220 -208 -2248 -2376 0
-2344 -3364 -1444 -1204 -1180 -220 -604 -592 -2632 -2824 0
-2600 -2852 -868 -372 -348 -1116 -1180 -1168 -3208 -2696 0
-2600 -2852 -1828 -1332 -1308 -1116 -220 -208 -2248 -2696 0
-3112 -3172 -1252 -244 -220 -668 -796 -784 -2824 -3336 0
-3112 -3172 -1380 -372 -348 -412 -668 -656 -2696 -3592 0
-3112 -3236 -1252 -244 -220 -348 -796 -784 -2824 -3592 0
-3112 -3236 -1252 -244 -220 -604 -796 -784 -2824 -3336 0
-2128 -2380 -3340 -1308 -1812 -1588 -692 -680 -232 -2248 0
-208 -2252 -2380 -2332 -2836 -820 -1588 -1576 -1192 -1224 0
-1104 -1228 -2252 -2204 -2452 -2356 -820 -808 -1576 -1608 0
-664 -1684 -1428 -1308 -3340 -2348 -2156 -2152 -616 -712 0
-1560 -1620 -3156 -2140 -2380 -2348 -428 -424 -680 -1672 0
-1560 -1812 -1364 -348 -2380 -2156 -2220 -2216 -680 -1672 0
-3096 -3156 -2644 -604 -716 -684 -428 -424 -1320 -3336 0
-2136 -3156 -1620 -1564 -1676 -684 -428 -424 -2344 -2376 0
-344 -2388 -3156 -3124 -3236 -1196 -684 -656 -784 -840 0
-792 -852 -1620 -1140 -3172 -3116 -2220 -2192 -400 -904 0
-2328 -2388 -3156 -1140 -1252 -1196 -684 -656 -784 -2824 0
-1560 -3604 -2644 -2164 -2404 -364 -428 -400 -1168 -1672 0
-2200 -3220 -1684 -1588 -1636 -620 -364 -336 -2320 -2440 0
-2328 -3348 -1812 -1588 -1636 -620 -236 -208 -2192 -2440 0
-1192 -3236 -3172 -2156 -2380 -348 -796 -792 -664 -1672 0
-424 -484 -1252 -1132 -1612 -1564 -2588 -2584 -2328 -2440 0
-616 -740 -484 -428 -1420 -1308 -3100 -3096 -2584 -2632 0
-616 -1636 -1252 -1196 -1420 -412 -2332 -2328 -2584 -2632 0
-1576 -1636 -3172 -2156 -2380 -2332 -412 -408 -664 -1672 0
-1192 -3236 -2276 -2156 -2380 -348 -796 -792 -1560 -1672 0
-1320 -1380 -484 -236 -2252 -2204 -2588 -2584 -1560 -1800 0
-2216 -2276 -740 -620 -1612 -1564 -1308 -1304 -2328 -2440 0
-3112 -3172 -1252 -236 -460 -412 -796 -792 -2584 -3592 0
-3112 -3364 -1444 -428 -460 -220 -604 -600 -2584 -3592 0
-3112 -3620 -1828 -812 -908 -412 -220 -216 -2136 -3144 0
-424 -484 -1380 -1140 -3156 -3100 -2588 -2576 -656 -904 0
-2344 -2404 -3172 -1140 -1620 -1564 -668 -656 -400 -2440 0
-1576 -1636 -868 -372 -468 -412 -2204 -2192 -3088 -3592 0
-2600 -2660 -740 -244 -468 -412 -1308 -1296 -3088 -3592 0
-3112 -3172 -1380 -372 -852 -796 -668 -656 -2192 -3208 0
-208 -460 -908 -796 -1812 -3604 -3124 -3112 -2152 -232 0
-208 -460 -1420 -1308 -3348 -3604 -2612 -2600 -616 -232 0
-208 -716 -1676 -1564 -3604 -3348 -2356 -2344 -360 -232 0
-208 -2252 -2444 -2332 -3348 -1812 -1588 -1576 -616 -232 0
-336 -460 -908 -668 -2708 -3604 -3124 -3112 -1128 -360 0
-592 -1612 -3596 -3100 -3220 -2452 -436 -424 -360 -616 0
-592 -2636 -2828 -2332 -2452 -1428 -1204 -1192 -1128 -616 0
-1104 -1356 -1420 -412 -2452 -2708 -2612 -2600 -616 -1128 0
-1104 -1612 -1676 -668 -916 -2452 -2356 -2344 -2152 -1128 0
-2128 -2252 -2700 -668 -1684 -1812 -1332 -1320 -360 -2152 0
-2128 -2380 -3340 -1308 -1812 -1684 -692 -680 -232 -2152 0
-208 -460 -844 -796 -2836 -3604 -3124 -3112 -1192 -232 0
-208 -2252 -2380 -2332 -2836 -1812 -1588 -1576 -1192 -232 0
-400 -908 -1804 -1564 -3604 -3156 -2164 -2152 -232 -424 0
-656 -716 -844 -348 -2388 -3348 -3124 -3112 -1192 -680 0
-656 -1676 -1804 -1308 -1364 -2388 -2164 -2152 -2216 -680 0
-1168 -1420 -1804 -796 -852 -2644 -2164 -2152 -2216 -1192 0
-1168 -1420 -1804 -796 -2836 -2644 -2164 -2152 -232 -1192 0
-2192 -3212 -3340 -1308 -1812 -852 -628 -616 -232 -2216 0
-2192 -3212 -3596 -1564 -1812 -852 -372 -360 -232 -2216 0
-784 -1804 -1612 -1116 -3156 -2260 -2228 -2216 -424 -808 0
-784 -2828 -2636 -2140 -2260 -1236 -1204 -1192 -1320 -808 0
-1296 -1804 -1612 -604 -724 -2260 -2228 -2216 -2344 -1320 0
-1296 -3340 -3148 -2140 -2644 -724 -692 -680 -424 -1320 0
-2320 -3340 -3148 -1116 -1620 -724 -692 -680 -424 -2344 0
-592 -716 -2252 -2204 -3220 -3348 -1332 -1320 -808 -616 0
-784 -1804 -1420 -1180 -3220 -2260 -2164 -2152 -616 -808 0
-784 -2828 -3340 -3100 -3156 -1236 -244 -232 -680 -808 0
-1552 -1804 -3340 -2332 -2452 -2260 -244 -232 -616 -1576 0
-2576 -2636 -2380 -348 -1364 -1428 -1204 -1192 -680 -2600 0
-2576 -2700 -2444 -412 -1428 -1364 -1140 -1128 -616 -2600 0
-2576 -2828 -2444 -412 -468 -1236 -1140 -1128 -1576 -2600 0
-2576 -3596 -3148 -1116 -1236 -468 -436 -424 -808 -2600 0
-2576 -3596 -3148 -1116 -1364 -468 -436 -424 -680 -2600 0
-2576 -3596 -3212 -1180 -1428 -468 -372 -360 -616 -2600 0
-1104 -1228 -2252 -2204 -2708 -2836 -820 -808 -1320 -1128 0
-1104 -1356 -2380 -2332 -2836 -2708 -692 -680 -1192 -1128 0
-1168 -1228 -460 -348 -852 -2836 -2612 -2600 -3112 -1192 0
-1168 -1676 -908 -796 -2836 -2388 -2164 -2152 -1128 -1192 0
-1168 -1676 -2700 -2588 -2836 -2388 -372 -360 -1128 -1192 0
-1168 -3212 -2252 -2140 -2388 -852 -820 -808 -1576 -1192 0
-1168 -3212 -2700 -2588 -2644 -852 -372 -360 -1320 -1192 0
-1296 -1420 -2444 -2204 -2708 -2644 -628 -616 -1128 -1320 0
-1296 -3340 -2380 -2140 -2260 -724 -692 -680 -1576 -1320 0
-1552 -1612 -716 -220 -2260 -2452 -2356 -2344 -1320 -1576 0
-3088 -3148 -2380 -348 -468 -916 -692 -680 -1576 -3112 0
-3088 -3148 -2636 -604 -724 -916 -436 -424 -1320 -3112 0
-3088 -3340 -2444 -412 -468 -724 -628 -616 -1576 -3112 0
-3088 -3596 -2700 -668 -916 -468 -372 -360 -1128 -3112 0
-2128 -2252 -460 -412 -1428 -1812 -1588 -1576 -2600 -2152 0
-2128 -2252 -716 -668 -916 -1812 -1332 -1320 -3112 -2152 0
-2192 -2444 -1420 -1308 -1812 -1620 -628 -616 -2152 -2216 0
-2320 -2380 -1356 -1116 -1236 -1684 -692 -680 -2600 -2344 0
-2320 -3340 -1420 -1180 -1236 -724 -628 -616 -2600 -2344 0
-2576 -2636 -1612 -1116 -1364 -1428 -436 -424 -2216 -2600 0
-2576 -2828 -844 -348 -468 -1236 -1204 -1192 -3112 -2600 0
-3088 -3212 -1228 -220 -724 -852 -820 -808 -2344 -3112 0
-208 -460 -908 -812 -2852 -3620 -3124 -3096 -1112 -216 0
-208 -716 -1676 -1580 -1828 -3364 -2356 -2328 -2136 -216 0
-208 -716 -1676 -1580 -3620 -3364 -2356 -2328 -344 -216 0
-336 -460 -908 -684 -2724 -3620 -3124 -3096 -1112 -344 0
-336 -1356 -1420 -1196 -3236 -2724 -2612 -2584 -600 -344 0
-336 -1356 -1804 -1580 -3620 -2724 -2228 -2200 -216 -344 0
-336 -2380 -2828 -2604 -2724 -1700 -1204 -1176 -1112 -344 0
-1104 -1228 -1420 -428 -932 -2852 -2612 -2584 -2136 -1112 0
-1104 -1228 -1420 -428 -2468 -2852 -2612 -2584 -600 -1112 0
-1104 -1228 -1676 -684 -932 -2852 -2356 -2328 -2136 -1112 0
-1104 -1228 -1676 -684 -2724 -2852 -2356 -2328 -344 -1112 0
-1104 -1228 -3212 -2220 -2468 -2852 -820 -792 -600 -1112 0
-1104 -1356 -1420 -428 -2468 -2724 -2612 -2584 -600 -1112 0
-1104 -1356 -1804 -812 -2852 -2724 -2228 -2200 -216 -1112 0
-1104 -3148 -3340 -2348 -2468 -932 -692 -664 -600 -1112 0
-1104 -3148 -3340 -2348 -2852 -932 -692 -664 -216 -1112 0
-2128 -2380 -2828 -812 -932 -1700 -1204 -1176 -1112 -2136 0
-2128 -2380 -2828 -812 -1828 -1700 -1204 -1176 -216 -2136 0
-208 -460 -844 -812 -2852 -3620 -3124 -3096 -1176 -216 0
-208 -1228 -1356 -1324 -3364 -2852 -2612 -2584 -664 -216 0
-400 -908 -844 -620 -2660 -3172 -3124 -3096 -1176 -408 0
-400 -1420 -1804 -1580 -1636 -2660 -2164 -2136 -2200 -408 0
-400 -1420 -1804 -1580 -3620 -2660 -2164 -2136 -216 -408 0
-400 -1420 -3340 -3116 -3172 -2660 -628 -600 -664 -408 0
-656 -908 -1804 -1324 -1380 -3172 -2164 -2136 -2200 -664 0
-656 -908 -2828 -2348 -2404 -3172 -1140 -1112 -1176 -664 0
-656 -1676 -1804 -1324 -1380 -2404 -2164 -2136 -2200 -664 0
-656 -1676 -1804 -1324 -3364 -2404 -2164 -2136 -216 -664 0
-656 -2700 -3596 -3116 -3364 -1380 -372 -344 -216 -664 0
-1168 -1420 -1356 -364 -868 -2660 -2612 -2584 -2200 -1176 0
-1168 -1420 -1804 -812 -868 -2660 -2164 -2136 -2200 -1176 0
-1168 -1420 -1804 -812 -2852 -2660 -2164 -2136 -216 -1176 0
-1168 -1676 -1612 -620 -868 -2404 -2356 -2328 -2200 -1176 0
-1168 -1676 -3596 -2604 -2852 -2404 -372 -344 -216 -1176 0
-1168 -3212 -3340 -2348 -2404 -868 -628 -600 -664 -1176 0
-2192 -2252 -3148 -1132 -1636 -1828 -820 -792 -408 -2200 0
-336 -1356 -1228 -1196 -1700 -2724 -2612 -2584 -2328 -344 0
-336 -2380 -2252 -2220 -3236 -1700 -1588 -1560 -792 -344 0
-336 -2380 -3148 -3116 -3620 -1700 -692 -664 -408 -344 0
-400 -460 -1228 -1132 -1636 -3620 -2612 -2584 -2328 -408 0
-400 -1420 -1228 -1132 -1636 -2660 -2612 -2584 -2328 -408 0
-400 -1420 -1228 -1132 -3172 -2660 -2612 -2584 -792 -408 0
-400 -1420 -1676 -1580 -3620 -2660 -2164 -2136 -344 -408 0
-400 -2444 -3212 -3116 -3620 -1636 -628 -600 -344 -408 0
-784 -908 -1676 -1196 -1252 -3172 -2164 -2136 -2328 -792 0
-1296 -1420 -1228 -236 -2276 -2660 -2612 -2584 -792 -1304 0
-1296 -1420 -1676 -684 -740 -2660 -2164 -2136 -2328 -1304 0
-1296 -1420 -3212 -2220 -2724 -2660 -628 -600 -344 -1304 0
-1296 -1804 -1612 -620 -740 -2276 -2228 -2200 -2328 -1304 0
-1296 -1804 -1612 -620 -2660 -2276 -2228 -2200 -408 -1304 0
-1296 -1804 -3596 -2604 -2660 -2276 -244 -216 -408 -1304 0
-1296 -3340 -3212 -2220 -2724 -740 -628 -600 -344 -1304 0
-2320 -2380 -2636 -620 -740 -1700 -1204 -1176 -1304 -2328 0
-2320 -2444 -2700 -684 -1700 -1636 -1140 -1112 -344 -2328 0
-2320 -2444 -3212 -1196 -1700 -1636 -628 -600 -344 -2328 0
-592 -844 -2380 -2348 -3364 -3236 -1204 -1176 -664 -600 0
-592 -2636 -2380 -2348 -3364 -1444 -1204 -1176 -664 -600 0
-656 -1676 -1420 -1324 -1380 -2404 -2164 -2136 -2584 -664 0
-656 -1676 -3212 -3116 -3364 -2404 -372 -344 -600 -664 0
-656 -2700 -3212 -3116 -3364 -1380 -372 -344 -600 -664 0
-784 -908 -2444 -2220 -2276 -3172 -1140 -1112 -1560 -792 0
-784 -1804 -1420 -1196 -1252 -2276 -2164 -2136 -2584 -792 0
-784 -1804 -3340 -3116 -3172 -2276 -244 -216 -664 -792 0
-1552 -1612 -1228 -236 -484 -2468 -2356 -2328 -2584 -1560 0
-1552 -1612 -3148 -2156 -2276 -2468 -436 -408 -792 -1560 0
-1552 -1676 -1228 -236 -2276 -2404 -2356 -2328 -792 -1560 0
-1552 -1804 -1420 -428 -484 -2276 -2164 -2136 -2584 -1560 0
-1552 -3596 -3148 -2156 -2404 -484 -436 -408 -664 -1560 0
-2576 -3596 -3340 -1324 -1444 -484 -244 -216 -600 -2584 0
-1104 -1228 -716 -684 -2724 -2852 -2356 -2328 -1304 -1112 0
-1104 -1356 -844 -812 -932 -2724 -2228 -2200 -3096 -1112 0
-1104 -3148 -2636 -2604 -2724 -932 -436 -408 -1304 -1112 0
-1168 -1228 -716 -620 -868 -2852 -2356 -2328 -3096 -1176 0
-1168 -1420 -460 -364 -2404 -2660 -2612 -2584 -1560 -1176 0
-1168 -1420 -908 -812 -868 -2660 -2164 -2136 -3096 -1176 0
-1168 -1676 -716 -620 -2660 -2404 -2356 -2328 -1304 -1176 0
-1168 -1676 -908 -812 -868 -2404 -2164 -2136 -3096 -1176 0
-1168 -1676 -908 -812 -2852 -2404 -2164 -2136 -1112 -1176 0
-1168 -3212 -2700 -2604 -2660 -868 -372 -344 -1304 -1176 0
-1296 -1420 -908 -684 -740 -2660 -2164 -2136 -3096 -1304 0
-1296 -1804 -908 -684 -740 -2276 -2164 -2136 -3096 -1304 0
-1296 -1804 -2828 -2604 -2660 -2276 -244 -216 -1176 -1304 0
-1296 -1804 -2828 -2604 -2724 -2276 -244 -216 -1112 -1304 0
-1552 -1676 -716 -236 -2276 -2404 -2356 -2328 -1304 -1560 0
-1552 -3596 -2636 -2156 -2276 -484 -436 -408 -1304 -1560 0
-3088 -3148 -2252 -236 -484 -932 -820 -792 -1560 -3096 0
-3088 -3212 -2252 -236 -740 -868 -820 -792 -1304 -3096 0
-3088 -3340 -2380 -364 -484 -740 -692 -664 -1560 -3096 0
-3088 -3596 -2700 -684 -740 -484 -372 -344 -1304 -3096 0
-3088 -3596 -2828 -812 -932 -484 -244 -216 -1112 -3096 0
-2128 -2380 -460 -428 -932 -1700 -1588 -1560 -3096 -2136 0
-2128 -2380 -460 -428 -1444 -1700 -1588 -1560 -2584 -2136 0
-2128 -2380 -1356 -1324 -1444 -1700 -692 -664 -2584 -2136 0
-2128 -2380 -1356 -1324 -1828 -1700 -692 -664 -2200 -2136 0
-2128 -2636 -1612 -1580 -1828 -1444 -436 -408 -2200 -2136 0
-2192 -2700 -716 -620 -868 -1380 -1332 -1304 -3096 -2200 0
-2192 -2700 -908 -812 -868 -1380 -1140 -1112 -3096 -2200 0
-2192 -2700 -908 -812 -1828 -1380 -1140 -1112 -2136 -2200 0
-2192 -3212 -1228 -1132 -1636 -868 -820 -792 -2328 -2200 0
-2192 -3212 -1676 -1580 -1828 -868 -372 -344 -2136 -2200 0
-2320 -2380 -844 -620 -740 -1700 -1204 -1176 -3096 -2328 0
-2320 -2828 -844 -620 -1636 -1252 -1204 -1176 -2200 -2328 0
-2320 -2828 -908 -684 -1700 -1252 -1140 -1112 -2136 -2328 0
-2320 -3340 -1420 -1196 -1252 -740 -628 -600 -2584 -2328 0
-2320 -3340 -1804 -1580 -1700 -740 -244 -216 -2136 -2328 0
-2576 -2700 -1676 -1196 -1252 -1380 -372 -344 -2328 -2584 0
-2576 -3596 -1676 -1196 -1252 -484 -372 -344 -2328 -2584 0
-3088 -3212 -1228 -236 -740 -868 -820 -792 -2328 -3096 0
-3088 -3340 -1356 -364 -868 -740 -692 -664 -2200 -3096 0
-3088 -3596 -1676 -684 -740 -484 -372 -344 -2328 -3096 0
-3088 -3596 -1804 -812 -932 -484 -244 -216 -2136 -3096 0
-344 -468 -1428 -1180 -3212 -3596 -2604 -2600 -616 -360 0
-344 -852 -2836 -2588 -2700 -3212 -1196 -1192 -1128 -360 0
-344 -1364 -1428 -1180 -3212 -2700 -2604 -2600 -616 -360 0
-344 -1364 -1812 -1564 -3596 -2700 -2220 -2216 -232 -360 0
-600 -852 -1812 -1308 -3340 -3212 -2220 -2216 -232 -616 0
-1112 -1364 -1812 -796 -908 -2700 -2220 -2216 -2152 -1128 0
-1112 -1364 -3348 -2332 -2444 -2700 -684 -680 -616 -1128 0
-2136 -2644 -2708 -668 -908 -1420 -1324 -1320 -1128 -2152 0
-2136 -3156 -3604 -1564 -1804 -908 -428 -424 -232 -2152 0
-216 -724 -852 -796 -2828 -3340 -3116 -3112 -1192 -232 0
-408 -1428 -1812 -1564 -1612 -2636 -2156 -2152 -2216 -424 0
-408 -1428 -3348 -3100 -3596 -2636 -620 -616 -232 -424 0
-2200 -2452 -2388 -348 -844 -1612 -1580 -1576 -1192 -2216 0
-344 -468 -2260 -2204 -3212 -3596 -1580 -1576 -808 -360 0
-408 -468 -1236 -1116 -3148 -3596 -2604 -2600 -808 -424 0
-1304 -1812 -1620 -604 -2636 -2252 -2220 -2216 -424 -1320 0
-2328 -2388 -3156 -1116 -1228 -1676 -684 -680 -808 -2344 0
-2328 -2836 -2644 -604 -1612 -1228 -1196 -1192 -424 -2344 0
-792 -852 -2388 -2140 -3148 -3212 -1196 -1192 -680 -808 0
-792 -1812 -1428 -1180 -1228 -2252 -2156 -2152 -2600 -808 0
-1560 -1812 -3348 -2332 -2380 -2252 -236 -232 -680 -1576 0
-2584 -2708 -2452 -412 -1420 -1356 -1132 -1128 -616 -2600 0
-1112 -1620 -852 -796 -2828 -2444 -2220 -2216 -1192 -1128 0
-1112 -3156 -2388 -2332 -2828 -908 -684 -680 -1192 -1128 0
-1304 -1812 -852 -604 -2636 -2252 -2220 -2216 -1192 -1320 0
-1304 -1812 -2836 -2588 -2636 -2252 -236 -232 -1192 -1320 0
-1560 -1684 -916 -412 -460 -2380 -2156 -2152 -3112 -1576 0
-1560 -1684 -916 -412 -2444 -2380 -2156 -2152 -1128 -1576 0
-1560 -1684 -2708 -2204 -2444 -2380 -364 -360 -1128 -1576 0
-1560 -1812 -852 -348 -2380 -2252 -2220 -2216 -1192 -1576 0
-1560 -3604 -2644 -2140 -2252 -460 -428 -424 -1320 -1576 0
-3096 -3156 -2388 -348 -844 -908 -684 -680 -1192 -3112 0
-3096 -3220 -2260 -220 -716 -844 -812 -808 -1320 -3112 0
-2200 -2452 -1428 -1308 -1356 -1612 -620 -616 -2600 -2216 0
-2328 -2388 -1364 -1116 -1228 -1676 -684 -680 -2600 -2344 0
-2328 -2452 -468 -220 -716 -1612 -1580 -1576 -3112 -2344 0
-2584 -2644 -852 -348 -1356 -1420 -1196 -1192 -2216 -2600 0
-2584 -2708 -1684 -1180 -1420 -1356 -364 -360 -2152 -2600 0
-216 -468 -2452 -2356 -2852 -3620 -1580 -1552 -1104 -208 0
-216 -1236 -1428 -1332 -1828 -2852 -2604 -2576 -2128 -208 0
-216 -1236 -1684 -1588 -3620 -2852 -2348 -2320 -336 -208 0
-216 -2260 -3220 -3124 -3364 -1828 -812 -784 -592 -208 0
-600 -852 -1812 -1332 -3364 -3236 -2220 -2192 -208 -592 0
-600 -852 -2836 -2356 -2468 -3236 -1196 -1168 -1104 -592 0
-600 -1620 -1684 -1204 -1444 -2468 -2348 -2320 -2128 -592 0
-600 -2644 -3604 -3124 -3364 -1444 -428 -400 -208 -592 0
-2136 -3156 -3220 -1204 -1700 -932 -812 -784 -336 -2128 0
-216 -1236 -3156 -3124 -3364 -2852 -812 -784 -656 -208 0
-216 -2260 -2388 -2356 -2852 -1828 -1580 -1552 -1168 -208 0
-216 -2260 -3156 -3124 -3620 -1828 -812 -784 -400 -208 0
-408 -468 -1364 -1140 -1636 -3620 -2604 -2576 -2192 -400 0
-408 -916 -852 -628 -2660 -3172 -3116 -3088 -1168 -400 0
-408 -916 -1812 -1588 -1636 -3172 -2156 -2128 -2192 -400 0
-408 -2452 -2388 -2164 -3172 -1636 -1580 -1552 -656 -400 0
-664 -916 -852 -372 -1380 -3172 -3116 -3088 -2192 -656 0
-664 -916 -2836 -2356 -2404 -3172 -1132 -1104 -1168 -656 0
-664 -1684 -1812 -1332 -1380 -2404 -2156 -2128 -2192 -656 0
-1176 -1236 -3156 -2164 -2404 -2852 -812 -784 -656 -1168 0
-1176 -1428 -1812 -820 -2852 -2660 -2156 -2128 -208 -1168 0
-1176 -1428 -3348 -2356 -2404 -2660 -620 -592 -656 -1168 0
-1176 -1428 -3348 -2356 -2852 -2660 -620 -592 -208 -1168 0
-1176 -1684 -1620 -628 -868 -2404 -2348 -2320 -2192 -1168 0
-1176 -1684 -1620 -628 -2660 -2404 -2348 -2320 -400 -1168 0
-1176 -1684 -1812 -820 -868 -2404 -2156 -2128 -2192 -1168 0
-1176 -1684 -3604 -2612 -2852 -2404 -364 -336 -208 -1168 0
-1176 -3220 -3348 -2356 -2404 -868 -620 -592 -656 -1168 0
-1176 -3220 -3604 -2612 -2660 -868 -364 -336 -400 -1168 0
-2200 -2260 -2388 -372 -868 -1828 -1580 -1552 -1168 -2192 0
-2200 -2260 -2388 -372 -1380 -1828 -1580 -1552 -656 -2192 0
-2200 -2260 -3156 -1140 -1380 -1828 -812 -784 -656 -2192 0
-2200 -2260 -3156 -1140 -1636 -1828 -812 -784 -400 -2192 0
-2200 -2452 -3348 -1332 -1380 -1636 -620 -592 -656 -2192 0
-2200 -3220 -3156 -1140 -1636 -868 -812 -784 -400 -2192 0
-408 -468 -724 -628 -2660 -3620 -3116 -3088 -1296 -400 0
-408 -916 -2708 -2612 -2660 -3172 -1132 -1104 -1296 -400 0
-408 -1428 -1684 -1588 -1636 -2660 -2156 -2128 -2320 -400 0
-408 -1428 -1684 -1588 -3620 -2660 -2156 -2128 -336 -400 0
-792 -916 -724 -244 -2276 -3172 -3116 -3088 -1296 -784 0
-1304 -1364 -1620 -628 -740 -2724 -2220 -2192 -2320 -1296 0
-1304 -1428 -1236 -244 -2276 -2660 -2604 -2576 -784 -1296 0
-1304 -1428 -1684 -692 -740 -2660 -2156 -2128 -2320 -1296 0
-1304 -1428 -1684 -692 -2724 -2660 -2156 -2128 -336 -1296 0
-1304 -1812 -1620 -628 -2660 -2276 -2220 -2192 -400 -1296 0
-1304 -3348 -3220 -2228 -2724 -740 -620 -592 -336 -1296 0
-2328 -2452 -3220 -1204 -1252 -1636 -620 -592 -784 -2320 0
-600 -724 -2260 -2228 -3236 -3364 -1324 -1296 -784 -592 0
-600 -2644 -3156 -3124 -3364 -1444 -428 -400 -656 -592 0
-664 -724 -1236 -1140 -1380 -3364 -2348 -2320 -2576 -656 0
-664 -916 -468 -372 -1380 -3172 -3116 -3088 -2576 -656 0
-664 -916 -2452 -2356 -2404 -3172 -1132 -1104 -1552 -656 0
-792 -916 -468 -244 -2276 -3172 -3116 -3088 -1552 -784 0
-1560 -1620 -3156 -2164 -2404 -2468 -428 -400 -656 -1552 0
-1560 -1812 -1428 -436 -484 -2276 -2156 -2128 -2576 -1552 0
-1560 -3604 -3348 -2356 -2404 -484 -236 -208 -656 -1552 0
-2584 -2836 -2452 -436 -484 -1252 -1132 -1104 -1552 -2576 0
-1112 -3156 -2388 -2356 -2468 -932 -684 -656 -1552 -1104 0
-1176 -1236 -2260 -2164 -2660 -2852 -812 -784 -1296 -1168 0
-1176 -1428 -468 -372 -2404 -2660 -2604 -2576 -1552 -1168 0
-1176 -1428 -916 -820 -2852 -2660 -2156 -2128 -1104 -1168 0
-1176 -1428 -2452 -2356 -2404 -2660 -620 -592 -1552 -1168 0
-1176 -1428 -2452 -2356 -2852 -2660 -620 -592 -1104 -1168 0
-1176 -1684 -724 -628 -2660 -2404 -2348 -2320 -1296 -1168 0
-1176 -1684 -916 -820 -2852 -2404 -2156 -2128 -1104 -1168 0
-1176 -3220 -2452 -2356 -2852 -868 -620 -592 -1104 -1168 0
-1304 -1428 -2452 -2228 -2276 -2660 -620 -592 -1552 -1296 0
-1304 -1812 -2836 -2612 -2660 -2276 -236 -208 -1168 -1296 0
-1304 -3348 -2388 -2164 -2660 -740 -684 -656 -1168 -1296 0
-1560 -1620 -724 -244 -2276 -2468 -2348 -2320 -1296 -1552 0
-1560 -1620 -852 -372 -2404 -2468 -2220 -2192 -1168 -1552 0
-1560 -1684 -724 -244 -484 -2404 -2348 -2320 -3088 -1552 0
-1560 -1684 -916 -436 -484 -2404 -2156 -2128 -3088 -1552 0
-3096 -3156 -2644 -628 -868 -932 -428 -400 -1168 -3088 0
-3096 -3348 -2388 -372 -484 -740 -684 -656 -1552 -3088 0
-3096 -3604 -2708 -692 -740 -484 -364 -336 -1296 -3088 0
-2136 -2388 -852 -820 -1828 -1700 -1196 -1168 -2192 -2128 0
-2136 -2644 -724 -692 -932 -1444 -1324 -1296 -3088 -2128 0
-2136 -2644 -1620 -1588 -1700 -1444 -428 -400 -2320 -2128 0
-2136 -3156 -1364 -1332 -1828 -932 -684 -656 -2192 -2128 0
-2200 -2452 -916 -820 -868 -1636 -1132 -1104 -3088 -2192 0
-2200 -2708 -1684 -1588 -1636 -1380 -364 -336 -2320 -2192 0
-2200 -3220 -1236 -1140 -1636 -868 -812 -784 -2320 -2192 0
-2328 -2388 -1364 -1140 -1252 -1700 -684 -656 -2576 -2320 0
-2328 -2836 -852 -628 -1636 -1252 -1196 -1168 -2192 -2320 0
-2584 -2708 -724 -244 -1252 -1380 -1324 -1296 -2320 -2576 0
-2584 -2708 -1684 -1204 -1444 -1380 -364 -336 -2128 -2576 0
-2584 -2836 -1812 -1332 -1444 -1252 -236 -208 -2128 -2576 0
-3096 -3220 -1684 -692 -740 -868 -364 -336 -2320 -3088 0
-3096 -3348 -1364 -372 -868 -740 -684 -656 -2192 -3088 0
-3096 -3348 -1812 -820 -868 -740 -236 -208 -2192 -3088 0
-232 -484 -2468 -2348 -3340 -3596 -1564 -1560 -600 -216 0
-232 -740 -932 -812 -1804 -3340 -3100 -3096 -2136 -216 0
-232 -2276 -3236 -3116 -3340 -1804 -796 -792 -600 -216 0
-232 -2276 -3236 -3116 -3596 -1804 -796 -792 -344 -216 0
-360 -868 -2852 -2604 -2700 -3212 -1180 -1176 -1112 -344 0
-360 -1380 -1444 -1196 -3212 -2700 -2588 -2584 -600 -344 0
-1128 -1380 -1444 -428 -908 -2700 -2588 -2584 -2136 -1112 0
-1128 -1636 -1828 -812 -908 -2444 -2204 -2200 -2136 -1112 0
-2152 -2276 -2468 -428 -908 -1804 -1564 -1560 -1112 -2136 0
-2152 -3172 -3364 -1324 -1420 -908 -668 -664 -600 -2136 0
-2152 -3172 -3364 -1324 -1804 -908 -668 -664 -216 -2136 0
-232 -484 -2404 -2348 -3340 -3596 -1564 -1560 -664 -216 0
-232 -740 -1636 -1580 -3596 -3340 -2332 -2328 -408 -216 0
-232 -2276 -2660 -2604 -2828 -1804 -1308 -1304 -1176 -216 0
-232 -2276 -3172 -3116 -3340 -1804 -796 -792 -664 -216 0
-424 -484 -2404 -2156 -3148 -3596 -1564 -1560 -664 -408 0
-680 -2724 -2852 -2348 -2380 -1356 -1116 -1112 -1176 -664 0
-1192 -1444 -1380 -364 -2380 -2636 -2588 -2584 -664 -1176 0
-2216 -2276 -2660 -620 -1612 -1804 -1308 -1304 -408 -2200 0
-2216 -2276 -3172 -1132 -1612 -1804 -796 -792 -408 -2200 0
-2216 -3236 -3620 -1580 -1804 -844 -348 -344 -216 -2200 0
-424 -484 -740 -620 -1612 -3596 -3100 -3096 -2328 -408 0
-808 -1828 -3620 -3116 -3212 -2252 -220 -216 -344 -792 0
-1320 -1444 -1252 -236 -2252 -2636 -2588 -2584 -792 -1304 0
-1320 -3364 -3236 -2220 -2700 -716 -604 -600 -344 -1304 0
-2344 -2404 -2276 -236 -716 -1676 -1564 -1560 -1304 -2328 0
-2344 -2404 -3172 -1132 -1228 -1676 -668 -664 -792 -2328 0
-2344 -2468 -2724 -684 -1676 -1612 -1116 -1112 -344 -2328 0
-2344 -2852 -2660 -620 -716 -1228 -1180 -1176 -1304 -2328 0
-680 -932 -1444 -1324 -3340 -3148 -2140 -2136 -600 -664 0
-808 -1828 -1380 -1132 -1228 -2252 -2204 -2200 -2584 -792 0
-808 -2852 -2404 -2156 -2252 -1228 -1180 -1176 -1560 -792 0
-1576 -1636 -1252 -236 -460 -2444 -2332 -2328 -2584 -1560 0
-1576 -1700 -1252 -236 -460 -2380 -2332 -2328 -2584 -1560 0
-2600 -2660 -2404 -364 -1356 -1420 -1180 -1176 -664 -2584 0
-2600 -2724 -2276 -236 -460 -1356 -1308 -1304 -1560 -2584 0
-2600 -2724 -2468 -428 -1420 -1356 -1116 -1112 -600 -2584 0
-2600 -2724 -3236 -1196 -1228 -1356 -348 -344 -792 -2584 0
-2600 -3620 -3364 -1324 -1356 -460 -220 -216 -664 -2584 0
-1320 -1444 -484 -236 -716 -2636 -2588 -2584 -3096 -1304 0
-1320 -1444 -2468 -2220 -2700 -2636 -604 -600 -1112 -1304 0
-1320 -1828 -2852 -2604 -2636 -2252 -220 -216 -1176 -1304 0
-1576 -1828 -868 -364 -2380 -2252 -2204 -2200 -1176 -1560 0
-1576 -3620 -2724 -2220 -2252 -460 -348 -344 -1304 -1560 0
-3112 -3172 -2276 -236 -716 -908 -796 -792 -1304 -3096 0
-3112 -3172 -2404 -364 -844 -908 -668 -664 -1176 -3096 0
-3112 -3236 -2276 -236 -716 -844 -796 -792 -1304 -3096 0
-3112 -3236 -2724 -684 -716 -844 -348 -344 -1304 -3096 0
-3112 -3364 -2404 -364 -844 -716 -668 -664 -1176 -3096 0
-2216 -2276 -740 -620 -1612 -1804 -1308 -1304 -2328 -2200 0
-2216 -2276 -1252 -1132 -1356 -1804 -796 -792 -2584 -2200 0
-2216 -2724 -932 -812 -1804 -1356 -1116 -1112 -2136 -2200 0
-2344 -2404 -484 -236 -716 -1676 -1564 -1560 -3096 -2328 0
-2344 -2404 -484 -236 -1228 -1676 -1564 -1560 -2584 -2328 0
-2344 -2852 -1828 -1580 -1676 -1228 -220 -216 -2136 -2328 0
-2600 -2724 -740 -236 -460 -1356 -1308 -1304 -3096 -2584 0
-3112 -3172 -1252 -236 -460 -908 -796 -792 -2584 -3096 0
-3112 -3172 -1380 -364 -844 -908 -668 -664 -2200 -3096 0
-3112 -3172 -1636 -620 -716 -908 -412 -408 -2328 -3096 0
-3112 -3364 -1444 -428 -460 -716 -604 -600 -2584 -3096 0
-232 -484 -1444 -1332 -3348 -3604 -2588 -2576 -592 -208 0
-232 -484 -2468 -2356 -3348 -3604 -1564 -1552 -592 -208 0
-232 -740 -1700 -1588 -3604 -3348 -2332 -2320 -336 -208 0
-232 -740 -2724 -2612 -2836 -3348 -1308 -1296 -1104 -208 0
-232 -1252 -3236 -3124 -3348 -2836 -796 -784 -592 -208 0
-232 -1252 -3236 -3124 -3604 -2836 -796 -784 -336 -208 0
-232 -2276 -2468 -2356 -3348 -1812 -1564 -1552 -592 -208 0
-232 -2276 -3236 -3124 -3604 -1812 -796 -784 -336 -208 0
-616 -740 -2724 -2228 -2452 -3348 -1308 -1296 -1104 -592 0
-616 -868 -932 -436 -1428 -3220 -3100 -3088 -2128 -592 0
-616 -1636 -3620 -3124 -3348 -2452 -412 -400 -208 -592 0
-616 -2660 -2852 -2356 -2452 -1428 -1180 -1168 -1104 -592 0
-2152 -2276 -2468 -436 -916 -1812 -1564 -1552 -1104 -2128 0
-2152 -2276 -2724 -692 -916 -1812 -1308 -1296 -1104 -2128 0
-2152 -2404 -2852 -820 -916 -1684 -1180 -1168 -1104 -2128 0
-2152 -2404 -3364 -1332 -1812 -1684 -668 -656 -208 -2128 0
-2152 -3172 -3364 -1332 -1428 -916 -668 -656 -592 -2128 0
-2152 -3172 -3364 -1332 -1812 -916 -668 -656 -208 -2128 0
-232 -484 -1380 -1332 -3348 -3604 -2588 -2576 -656 -208 0
-232 -740 -1636 -1588 -3604 -3348 -2332 -2320 -400 -208 0
-232 -1252 -1380 -1332 -1812 -2836 -2588 -2576 -2192 -208 0
-232 -1252 -1636 -1588 -1812 -2836 -2332 -2320 -2192 -208 0
-232 -2276 -2404 -2356 -2836 -1812 -1564 -1552 -1168 -208 0
-232 -2276 -2660 -2612 -2836 -1812 -1308 -1296 -1168 -208 0
-232 -2276 -3172 -3124 -3348 -1812 -796 -784 -656 -208 0
-232 -2276 -3172 -3124 -3604 -1812 -796 -784 -400 -208 0
-680 -2724 -2852 -2356 -3348 -1364 -1116 -1104 -208 -656 0
-1192 -1700 -1636 -628 -2644 -2388 -2332 -2320 -400 -1168 0
-2216 -2276 -3172 -1140 -1364 -1812 -796 -784 -656 -2192 0
-2216 -2468 -2852 -820 -1812 -1620 -1116 -1104 -208 -2192 0
-2216 -2724 -2660 -628 -852 -1364 -1308 -1296 -1168 -2192 0
-2216 -2724 -2660 -628 -1620 -1364 -1308 -1296 -400 -2192 0
-360 -1380 -3172 -3124 -3604 -2708 -668 -656 -400 -336 0
-360 -2404 -3172 -3124 -3604 -1684 -668 -656 -400 -336 0
-424 -932 -2724 -2612 -2644 -3156 -1116 -1104 -1296 -400 0
-808 -1828 -1636 -1140 -1236 -2260 -2204 -2192 -2320 -784 0
-808 -1828 -1700 -1204 -1236 -2260 -2140 -2128 -2320 -784 0
-1320 -1380 -3172 -2164 -2260 -2708 -668 -656 -784 -1296 0
-1320 -1444 -3236 -2228 -2260 -2644 -604 -592 -784 -1296 0
-1320 -3364 -3172 -2164 -2260 -724 -668 -656 -784 -1296 0
-2344 -2404 -2276 -244 -724 -1684 -1564 -1552 -1296 -2320 0
-2344 -2468 -3236 -1204 -1684 -1620 -604 -592 -336 -2320 0
-2344 -3364 -3236 -1204 -1236 -724 -604 -592 -784 -2320 0
-2344 -3364 -3620 -1588 -1684 -724 -220 -208 -336 -2320 0
-616 -740 -2276 -2228 -3220 -3348 -1308 -1296 -784 -592 0
-616 -1636 -1252 -1204 -3220 -2452 -2332 -2320 -784 -592 0
-616 -2660 -2276 -2228 -3220 -1428 -1308 -1296 -784 -592 0
-680 -1700 -1444 -1332 -3348 -2388 -2140 -2128 -592 -656 0
-808 -932 -484 -244 -1236 -3156 -3100 -3088 -2576 -784 0
-808 -932 -484 -244 -2260 -3156 -3100 -3088 -1552 -784 0
-808 -1828 -1444 -1204 -1236 -2260 -2140 -2128 -2576 -784 0
-1576 -1636 -3172 -2164 -2388 -2452 -412 -400 -656 -1552 0
-1576 -1828 -1380 -372 -468 -2260 -2204 -2192 -2576 -1552 0
-1576 -1828 -1444 -436 -468 -2260 -2140 -2128 -2576 -1552 0
-1576 -1828 -3364 -2356 -2388 -2260 -220 -208 -656 -1552 0
-1576 -3620 -3364 -2356 -2388 -468 -220 -208 -656 -1552 0
-2600 -2660 -2276 -244 -1236 -1428 -1308 -1296 -784 -2576 0
-2600 -2660 -2404 -372 -1364 -1428 -1180 -1168 -656 -2576 0
-2600 -2660 -3172 -1140 -1236 -1428 -412 -400 -784 -2576 0
-2600 -2660 -3172 -1140 -1364 -1428 -412 -400 -656 -2576 0
-1128 -1252 -484 -436 -2452 -2836 -2588 -2576 -1552 -1104 0
-1128 -1252 -2276 -2228 -2708 -2836 -796 -784 -1296 -1104 0
-1128 -1380 -868 -820 -2836 -2708 -2204 -2192 -1168 -1104 0
-1128 -1636 -868 -820 -2836 -2452 -2204 -2192 -1168 -1104 0
-1128 -3172 -2660 -2612 -2836 -916 -412 -400 -1168 -1104 0
-1576 -1700 -932 -436 -2452 -2388 -2140 -2128 -1104 -1552 0
-1576 -1828 -2852 -2356 -2388 -2260 -220 -208 -1168 -1552 0
-3112 -3172 -2276 -244 -468 -916 -796 -784 -1552 -3088 0
-3112 -3172 -2404 -372 -468 -916 -668 -656 -1552 -3088 0
-3112 -3364 -2404 -372 -468 -724 -668 -656 -1552 -3088 0
-2152 -2276 -740 -692 -916 -1812 -1308 -1296 -3088 -2128 0
-2152 -2276 -740 -692 -1684 -1812 -1308 -1296 -2320 -2128 0
-2216 -2276 -1252 -1140 -1364 -1812 -796 -784 -2576 -2192 0
-2216 -2468 -1444 -1332 -1812 -1620 -604 -592 -2128 -2192 0
-2344 -2852 -868 -628 -1620 -1236 -1180 -1168 -2192 -2320 0
-2344 -3364 -1444 -1204 -1684 -724 -604 -592 -2128 -2320 0
-2600 -2724 -740 -244 -468 -1364 -1308 -1296 -3088 -2576 0
-2600 -3620 -1828 -1332 -1364 -468 -220 -208 -2192 -2576 0
-3112 -3172 -1380 -372 -468 -916 -668 -656 -2576 -3088 0
-3112 -3172 -1380 -372 -852 -916 -668 -656 -2192 -3088 0
-3112 -3364 -1380 -372 -468 -724 -668 -656 -2576 -3088 0
-3112 -3620 -1828 -820 -852 -468 -220 -208 -2192 -3088 0
-840 -844 -796 -2332 -2204 -2228 -3236 -1192 -1128 -1608 0
-2248 -2252 -2140 -2332 -1308 -1332 -1828 -1576 -680 -712 0
-712 -716 -604 -348 -1308 -1332 -3364 -3112 -2216 -2696 0
-904 -908 -668 -604 -1116 -1140 -3172 -3112 -2344 -2440 0
-3336 -3340 -3100 -2140 -604 -628 -740 -680 -424 -1416 0
-2440 -2444 -2204 -1180 -1116 -1140 -1636 -616 -808 -2824 0
-1800 -1804 -1308 -348 -2140 -2164 -2276 -2216 -680 -1672 0
-1800 -1804 -1308 -2332 -2140 -2164 -2276 -232 -680 -1672 0
-1800 -1804 -796 -604 -2140 -2164 -2276 -2216 -1192 -1416 0
-1800 -1804 -796 -668 -220 -244 -2276 -2152 -3112 -3336 0
-1800 -1804 -796 -348 -2140 -2164 -2276 -2216 -1192 -1672 0
-3592 -3596 -2588 -604 -220 -244 -484 -424 -1320 -3336 0
-2696 -2700 -668 -604 -1116 -1140 -1380 -1320 -2344 -2440 0
-2248 -2252 -2220 -3116 -1580 -1588 -1812 -792 -344 -456 0
-2632 -2636 -2604 -2348 -428 -436 -1428 -1176 -1112 -1608 0
-712 -716 -620 -364 -2348 -2356 -3348 -3096 -1176 -1672 0
-2696 -2700 -2604 -2348 -364 -372 -1364 -1112 -1176 -1672 0
-2824 -2828 -2348 -2156 -236 -244 -1236 -1176 -1560 -1800 0
-1608 -1612 -1132 -2156 -2220 -2228 -2452 -408 -792 -1800 0
-1800 -1804 -1324 -364 -2156 -2164 -2260 -2200 -664 -1672 0
-2632 -2636 -2156 -236 -1196 -1204 -1428 -1304 -792 -2824 0
-1800 -1804 -812 -684 -2220 -2228 -2260 -2136 -1112 -1352 0
-3592 -3596 -2604 -2348 -364 -372 -468 -216 -1176 -1672 0
-2824 -2828 -812 -364 -1132 -1140 -1236 -1176 -2200 -2696 0
-3592 -3596 -1580 -1324 -364 -372 -468 -216 -2200 -2696 0
-2248 -2260 -2204 -2588 -796 -812 -1828 -1320 -1128 -1224 0
-840 -852 -796 -412 -1180 -1196 -3236 -3112 -2152 -2632 0
-840 -852 -796 -1308 -3100 -3116 -3236 -2216 -232 -712 0
-1608 -1620 -1564 -796 -412 -428 -2468 -2216 -2152 -3144 0
-3208 -3220 -3100 -2332 -348 -364 -868 -616 -680 -1672 0
-904 -916 -668 -604 -2140 -2156 -3172 -3112 -1320 -1416 0
-904 -916 -668 -220 -2140 -2156 -3172 -3112 -1320 -1800 0
-1800 -1812 -1564 -1180 -2204 -2220 -2276 -2152 -360 -840 0
-1800 -1812 -1564 -2588 -2140 -2156 -2276 -232 -424 -1416 0
-2440 -2452 -2204 -1180 -1116 -1132 -1636 -616 -808 -2824 0
-712 -724 -220 -1180 -1308 -1324 -3364 -2344 -2600 -2632 0
-1800 -1812 -1308 -1116 -2140 -2156 -2276 -2216 -680 -904 0
-3592 -3604 -3100 -2204 -412 -428 -484 -360 -616 -1608 0
-2824 -2836 -2332 -348 -1116 -1132 -1252 -1192 -680 -2696 0
-1800 -1812 -796 -604 -2140 -2156 -2276 -2216 -1192 -1416 0
-1800 -1812 -796 -348 -2140 -2156 -2276 -2216 -1192 -1672 0
-1800 -1812 -796 -412 -220 -236 -2276 -2152 -3112 -3592 0
-3592 -3604 -2588 -604 -220 -236 -484 -424 -1320 -3336 0
-3144 -3156 -1116 -1180 -668 -684 -932 -808 -2344 -2376 0
-3592 -3604 -1564 -796 -412 -428 -484 -232 -2152 -3144 0
-1224 -1236 -1204 -3124 -2356 -2348 -2828 -784 -592 -712 0
-840 -852 -820 -1332 -3124 -3116 -3212 -2192 -208 -712 0
-2376 -2388 -2356 -436 -692 -684 -1676 -1552 -1104 -3144 0
-2248 -2260 -2164 -3124 -1332 -1324 -1804 -784 -656 -712 0
-1352 -1364 -1140 -1204 -692 -684 -2700 -2576 -2320 -2376 0
-904 -916 -692 -1204 -3124 -3116 -3148 -2128 -336 -840 0
-2376 -2388 -2164 -628 -692 -684 -1676 -1168 -1296 -3336 0
-712 -724 -244 -1204 -1332 -1324 -3340 -2320 -2576 -2632 0
-1672 -1684 -692 -628 -2164 -2156 -2380 -2320 -1296 -1416 0
-1800 -1812 -820 -628 -2164 -2156 -2252 -2192 -1168 -1416 0
-1800 -1812 -820 -692 -2228 -2220 -2252 -2128 -1104 -1352 0
-1672 -1684 -692 -2228 -2356 -2348 -2380 -336 -1104 -1608 0
-3208 -3220 -2228 -692 -820 -812 -844 -336 -1104 -3144 0
-2248 -2276 -2220 -3116 -1580 -1564 -1812 -792 -344 -456 0
-2248 -2276 -2220 -428 -1324 -1308 -1812 -1560 -600 -2632 0
-712 -740 -620 -812 -1324 -1308 -3348 -3096 -2200 -2248 0
-2248 -2276 -2156 -2604 -812 -796 -1812 -1304 -1176 -1224 0
-3208 -3236 -3116 -2604 -812 -796 -852 -344 -216 -1224 0
-1416 -1444 -1196 -236 -2156 -2140 -2644 -2584 -792 -1800 0
-3336 -3364 -3116 -2156 -236 -220 -724 -664 -792 -1800 0
-3336 -3364 -3116 -2220 -236 -220 -724 -600 -792 -1800 0
-3336 -3364 -3116 -1132 -620 -604 -724 -664 -408 -2440 0
-1672 -1700 -1196 -236 -2156 -2140 -2388 -2328 -792 -1800 0
-1800 -1828 -1324 -364 -236 -220 -2260 -2200 -2584 -3592 0
-1800 -1828 -1324 -2348 -2156 -2140 -2260 -216 -664 -1672 0
-1672 -1700 -684 -2604 -2156 -2140 -2388 -344 -1304 -1416 0
-1800 -1828 -812 -2604 -2156 -2140 -2260 -216 -1176 -1416 0
-1672 -1700 -684 -236 -2156 -2140 -2388 -2328 -1304 -1800 0
-3592 -3620 -2604 -684 -236 -220 -468 -344 -1304 -3336 0
-456 -484 -436 -820 -1588 -1564 -3596 -3088 -2128 -2248 0
-456 -484 -436 -1332 -3124 -3100 -3596 -2576 -592 -712 0
-456 -484 -436 -2356 -3124 -3100 -3596 -1552 -592 -712 0
-456 -484 -436 -692 -1588 -1564 -3596 -3088 -2128 -2376 0
-456 -484 -436 -692 -2612 -2588 -3596 -3088 -1104 -1352 0
-712 -740 -628 -820 -1332 -1308 -3340 -3088 -2192 -2248 0
-2248 -2276 -2164 -3124 -1332 -1308 -1804 -784 -656 -712 0
-904 -932 -820 -628 -2164 -2140 -3148 -3088 -1168 -1416 0
-1416 -1444 -1332 -372 -2164 -2140 -2636 -2576 -656 -1672 0
-2824 -2852 -2612 -692 -1204 -1180 -1228 -1104 -336 -2376 0
-712 -740 -244 -1140 -3124 -3100 -3340 -2320 -784 -904 0
-1800 -1828 -1332 -1140 -2164 -2140 -2252 -2192 -656 -904 0
-3336 -3364 -1332 -1140 -244 -220 -716 -656 -2576 -2824 0
-3336 -3364 -1332 -1140 -628 -604 -716 -656 -2192 -2440 0
-456 -460 -2444 -2332 -2588 -2612 -1588 -1576 -1128 -1224 0
-456 -460 -2444 -2332 -3100 -3124 -1588 -1576 -616 -712 0
-712 -716 -1676 -1564 -3100 -3124 -2356 -2344 -360 -456 0
-1224 -1228 -3212 -3100 -2588 -2612 -820 -808 -360 -456 0
-2248 -2252 -2444 -2332 -1308 -1332 -1588 -1576 -616 -712 0
-2248 -2252 -2700 -2588 -1564 -1588 -1332 -1320 -360 -456 0
-456 -460 -1420 -1180 -1564 -1588 -2612 -2600 -2152 -2376 0
-456 -460 -1420 -1180 -3100 -3124 -2612 -2600 -616 -840 0
-1352 -1356 -3340 -3100 -2588 -2612 -692 -680 -232 -456 0
-2376 -2380 -2444 -2204 -1180 -1204 -1588 -1576 -616 -840 0
-840 -844 -2828 -2332 -2204 -2228 -1204 -1192 -1128 -1608 0
-2632 -2636 -2700 -2204 -412 -436 -1332 -1320 -1128 -1608 0
-1224 -1228 -1420 -412 -2332 -2356 -2612 -2600 -616 -1608 0
-1224 -1228 -1676 -668 -2588 -2612 -2356 -2344 -360 -1352 0
-1608 -1612 -3596 -2588 -2332 -2356 -436 -424 -232 -1224 0
-2376 -2380 -2444 -412 -668 -692 -1588 -1576 -1128 -3144 0
-456 -460 -1356 -1308 -1564 -1588 -2612 -2600 -2216 -2248 0
-456 -460 -2380 -2332 -2588 -2612 -1588 -1576 -1192 -1224 0
-1224 -1228 -1356 -1308 -2332 -2356 -2612 -2600 -680 -712 0
-1224 -1228 -3148 -3100 -2588 -2612 -820 -808 -424 -456 0
-2248 -2252 -3148 -3100 -1308 -1332 -820 -808 -680 -712 0
-712 -716 -1612 -1116 -1308 -1332 -2356 -2344 -2216 -2696 0
-712 -716 -2636 -2140 -3100 -3124 -1332 -1320 -424 -904 0
-904 -908 -2828 -2332 -2140 -2164 -1140 -1128 -1192 -1672 0
-904 -908 -2828 -2332 -3100 -3124 -1140 -1128 -232 -712 0
-1672 -1676 -1612 -1116 -2140 -2164 -2356 -2344 -424 -904 0
-1672 -1676 -3596 -3100 -2140 -2164 -372 -360 -424 -904 0
-1224 -1228 -3148 -2140 -2332 -2356 -820 -808 -680 -1672 0
-3208 -3212 -3596 -2588 -604 -628 -372 -360 -424 -1416 0
-3208 -3212 -3148 -1116 -604 -628 -820 -808 -424 -2440 0
-456 -460 -716 -668 -1564 -1588 -3124 -3112 -2344 -2376 0
-456 -460 -716 -668 -2588 -2612 -3124 -3112 -1320 -1352 0
-456 -460 -1228 -1180 -3100 -3124 -2612 -2600 -808 -840 0
-456 -460 -2252 -2204 -2588 -2612 -1588 -1576 -1320 -1352 0
-456 -460 -716 -604 -2588 -2612 -3124 -3112 -1320 -1416 0
-456 -460 -1228 -1116 -3100 -3124 -2612 -2600 -808 -904 0
-456 -460 -2252 -2140 -2588 -2612 -1588 -1576 -1320 -1416 0
-904 -908 -716 -604 -2140 -2164 -3124 -3112 -1320 -1416 0
-904 -908 -1676 -1564 -3100 -3124 -2164 -2152 -360 -456 0
-904 -908 -2700 -2588 -2140 -2164 -1140 -1128 -1320 -1416 0
-2440 -2444 -2252 -2140 -1116 -1140 -1588 -1576 -808 -904 0
-904 -908 -1676 -1180 -1116 -1140 -2164 -2152 -2344 -2824 0
-904 -908 -2700 -2204 -2140 -2164 -1140 -1128 -1320 -1800 0
-1800 -1804 -1612 -1116 -2140 -2164 -2228 -2216 -424 -904 0
-1800 -1804 -3596 -3100 -2204 -2228 -244 -232 -360 -840 0
-2824 -2828 -2700 -2204 -220 -244 -1140 -1128 -1320 -1800 0
-1352 -1356 -1228 -220 -668 -692 -2612 -2600 -2344 -3336 0
-1416 -1420 -1676 -668 -604 -628 -2164 -2152 -2344 -3336 0
-1416 -1420 -3212 -2204 -2140 -2164 -628 -616 -808 -1800 0
-1800 -1804 -1676 -668 -220 -244 -2164 -2152 -2344 -3336 0
-2376 -2380 -2636 -604 -668 -692 -1204 -1192 -1320 -3336 0
-2440 -2444 -3212 -1180 -1116 -1140 -628 -616 -808 -2824 0
-2824 -2828 -2636 -604 -1116 -1140 -1204 -1192 -424 -2440 0
-2824 -2828 -2700 -668 -220 -244 -1140 -1128 -1320 -3336 0
-2824 -2828 -2700 -668 -1180 -1204 -1140 -1128 -360 -2376 0
-840 -844 -460 -412 -2204 -2228 -3124 -3112 -1576 -1608 0
-712 -716 -460 -348 -2332 -2356 -3124 -3112 -1576 -1672 0
-904 -908 -2444 -2332 -2140 -2164 -1140 -1128 -1576 -1672 0
-904 -908 -2444 -2332 -3100 -3124 -1140 -1128 -616 -712 0
-1672 -1676 -3212 -3100 -2140 -2164 -372 -360 -808 -904 0
-840 -844 -2380 -2140 -2204 -2228 -1204 -1192 -1576 -1800 0
-904 -908 -460 -220 -1116 -1140 -3124 -3112 -2600 -2824 0
-904 -908 -1420 -1180 -1116 -1140 -2164 -2152 -2600 -2824 0
-904 -908 -2444 -2204 -2140 -2164 -1140 -1128 -1576 -1800 0
-1800 -1804 -1420 -1180 -2204 -2228 -2164 -2152 -616 -840 0
-2824 -2828 -2380 -2140 -1116 -1140 -1204 -1192 -680 -904 0
-2824 -2828 -2444 -2204 -220 -244 -1140 -1128 -1576 -1800 0
-1608 -1612 -1228 -220 -412 -436 -2356 -2344 -2600 -3592 0
-1800 -1804 -1420 -412 -220 -244 -2164 -2152 -2600 -3592 0
-3592 -3596 -3148 -2140 -220 -244 -436 -424 -808 -1800 0
-3592 -3596 -3340 -2332 -412 -436 -244 -232 -616 -1608 0
-2632 -2636 -2252 -220 -1180 -1204 -1332 -1320 -808 -2824 0
-2632 -2636 -3148 -1116 -1180 -1204 -436 -424 -808 -2824 0
-2696 -2700 -2252 -220 -1116 -1140 -1332 -1320 -808 -2824 0
-2824 -2828 -2444 -412 -1180 -1204 -1140 -1128 -616 -2632 0
-1224 -1228 -460 -412 -2332 -2356 -2612 -2600 -1576 -1608 0
-1224 -1228 -2252 -2204 -2588 -2612 -820 -808 -1320 -1352 0
-1352 -1356 -460 -412 -668 -692 -2612 -2600 -3112 -3144 0
-1224 -1228 -716 -604 -2588 -2612 -2356 -2344 -1320 -1416 0
-1416 -1420 -460 -348 -2140 -2164 -2612 -2600 -1576 -1672 0
-1672 -1676 -716 -604 -348 -372 -2356 -2344 -3112 -3208 0
-1672 -1676 -2700 -2588 -2332 -2356 -372 -360 -1128 -1224 0
-3208 -3212 -2252 -2140 -348 -372 -820 -808 -1576 -1672 0
-3208 -3212 -2252 -2140 -604 -628 -820 -808 -1320 -1416 0
-1352 -1356 -460 -220 -668 -692 -2612 -2600 -3112 -3336 0
-1352 -1356 -2380 -2140 -2204 -2228 -692 -680 -1576 -1800 0
-1352 -1356 -2380 -2140 -2588 -2612 -692 -680 -1192 -1416 0
-1416 -1420 -460 -220 -2140 -2164 -2612 -2600 -1576 -1800 0
-1800 -1804 -908 -668 -220 -244 -2164 -2152 -3112 -3336 0
-1608 -1612 -844 -348 -2332 -2356 -2228 -2216 -1192 -1672 0
-1800 -1804 -908 -412 -2204 -2228 -2164 -2152 -1128 -1608 0
-3144 -3148 -2252 -220 -668 -692 -820 -808 -1320 -3336 0
-3336 -3340 -2444 -412 -668 -692 -628 -616 -1128 -3144 0
-2248 -2252 -460 -412 -1308 -1332 -1588 -1576 -2600 -2632 0
-2376 -2380 -1356 -1308 -1180 -1204 -692 -680 -2600 -2632 0
-2440 -2444 -908 -796 -1564 -1588 -1140 -1128 -2152 -2248 0
-2440 -2444 -1420 -1308 -1116 -1140 -628 -616 -2600 -2696 0
-3208 -3212 -1228 -1116 -348 -372 -820 -808 -2600 -2696 0
-2824 -2828 -844 -604 -220 -244 -1204 -1192 -3112 -3336 0
-2824 -2828 -908 -668 -220 -244 -1140 -1128 -3112 -3336 0
-2696 -2700 -1676 -1180 -1116 -1140 -372 -360 -2344 -2824 0
-2824 -2828 -1804 -1308 -1180 -1204 -244 -232 -2152 -2632 0
-3592 -3596 -1612 -604 -220 -244 -436 -424 -2344 -3336 0
-456 -460 -1420 -1324 -1580 -1588 -2612 -2584 -2136 -2248 0
-712 -716 -1676 -1580 -1324 -1332 -2356 -2328 -2136 -2248 0
-712 -716 -1676 -1580 -3116 -3124 -2356 -2328 -344 -456 0
-1224 -1228 -1420 -1324 -812 -820 -2612 -2584 -2136 -2248 0
-1224 -1228 -3212 -3116 -2604 -2612 -820 -792 -344 -456 0
-840 -844 -1804 -1580 -3116 -3124 -2228 -2200 -216 -456 0
-1352 -1356 -1420 -1196 -2220 -2228 -2612 -2584 -600 -840 0
-2376 -2380 -2444 -2220 -684 -692 -1588 -1560 -1112 -1352 0
-2376 -2380 -2828 -2604 -1580 -1588 -1204 -1176 -216 -456 0
-712 -716 -1676 -1196 -3116 -3124 -2356 -2328 -344 -840 0
-840 -844 -908 -428 -1196 -1204 -3124 -3096 -2136 -2632 0
-840 -844 -908 -428 -2220 -2228 -3124 -3096 -1112 -1608 0
-1608 -1612 -1676 -1196 -2220 -2228 -2356 -2328 -344 -840 0
-1608 -1612 -3596 -3116 -2220 -2228 -436 -408 -344 -840 0
-1224 -1228 -1676 -684 -2604 -2612 -2356 -2328 -344 -1352 0
-1608 -1612 -1676 -684 -2220 -2228 -2356 -2328 -344 -1352 0
-1608 -1612 -1804 -812 -428 -436 -2228 -2200 -2136 -3144 0
-1224 -1228 -1356 -1324 -812 -820 -2612 -2584 -2200 -2248 0
-1224 -1228 -1356 -1324 -2348 -2356 -2612 -2584 -664 -712 0
-1224 -1228 -1612 -1580 -2604 -2612 -2356 -2328 -408 -456 0
-1224 -1228 -3148 -3116 -2348 -2356 -820 -792 -664 -712 0
-2248 -2252 -2380 -2348 -1324 -1332 -1588 -1560 -664 -712 0
-456 -460 -1356 -1132 -3116 -3124 -2612 -2584 -664 -904 0
-904 -908 -1804 -1580 -3116 -3124 -2164 -2136 -216 -456 0
-712 -716 -1612 -1132 -3116 -3124 -2356 -2328 -408 -904 0
-2696 -2700 -3596 -3116 -1324 -1332 -372 -344 -216 -712 0
-1224 -1228 -3148 -2156 -2348 -2356 -820 -792 -664 -1672 0
-1416 -1420 -1804 -812 -2604 -2612 -2164 -2136 -216 -1224 0
-1416 -1420 -3340 -2348 -2604 -2612 -628 -600 -216 -1224 0
-1672 -1676 -3596 -2604 -2156 -2164 -372 -344 -408 -1416 0
-1672 -1676 -3596 -2604 -2348 -2356 -372 -344 -216 -1224 0
-3208 -3212 -3596 -2604 -812 -820 -372 -344 -216 -1224 0
-2248 -2252 -3148 -1132 -1324 -1332 -820 -792 -664 -2696 0
-3208 -3212 -3596 -1580 -620 -628 -372 -344 -408 -2440 0
-3208 -3212 -3596 -1580 -812 -820 -372 -344 -216 -2248 0
-456 -460 -716 -684 -2604 -2612 -3124 -3096 -1304 -1352 0
-840 -844 -2636 -2604 -3116 -3124 -1204 -1176 -408 -456 0
-456 -460 -1228 -1132 -3116 -3124 -2612 -2584 -792 -904 0
-456 -460 -2252 -2156 -3116 -3124 -1588 -1560 -792 -904 0
-840 -844 -716 -236 -1196 -1204 -3124 -3096 -2328 -2824 0
-904 -908 -1676 -1196 -3116 -3124 -2164 -2136 -344 -840 0
-1800 -1804 -1612 -1132 -2156 -2164 -2228 -2200 -408 -904 0
-1416 -1420 -1676 -684 -620 -628 -2164 -2136 -2328 -3336 0
-1416 -1420 -1676 -684 -2604 -2612 -2164 -2136 -344 -1352 0
-1416 -1420 -3212 -2220 -2156 -2164 -628 -600 -792 -1800 0
-1800 -1804 -1676 -684 -2220 -2228 -2164 -2136 -344 -1352 0
-2376 -2380 -3148 -1132 -1196 -1204 -692 -664 -792 -2824 0
-2376 -2380 -3148 -1132 -1580 -1588 -692 -664 -408 -2440 0
-3336 -3340 -3212 -1196 -236 -244 -628 -600 -792 -2824 0
-712 -716 -1228 -1196 -3116 -3124 -2356 -2328 -792 -840 0
-712 -716 -2252 -2156 -3116 -3124 -1332 -1304 -792 -904 0
-1672 -1676 -1228 -1132 -364 -372 -2356 -2328 -2584 -2696 0
-1672 -1676 -3212 -3116 -2156 -2164 -372 -344 -792 -904 0
-840 -844 -460 -236 -1196 -1204 -3124 -3096 -2584 -2824 0
-1800 -1804 -1420 -1196 -2220 -2228 -2164 -2136 -600 -840 0
-1672 -1676 -1228 -236 -2156 -2164 -2356 -2328 -792 -1800 0
-1800 -1804 -3340 -2348 -2156 -2164 -244 -216 -664 -1672 0
-2632 -2636 -2380 -364 -428 -436 -1204 -1176 -1560 -3592 0
-2696 -2700 -3212 -1196 -1132 -1140 -372 -344 -792 -2824 0
-1416 -1420 -460 -364 -2156 -2164 -2612 -2584 -1560 -1672 0
-1672 -1676 -908 -812 -364 -372 -2164 -2136 -3096 -3208 0
-1352 -1356 -460 -236 -2220 -2228 -2612 -2584 -1560 -1800 0
-1416 -1420 -908 -684 -620 -628 -2164 -2136 -3096 -3336 0
-1800 -1804 -908 -684 -236 -244 -2164 -2136 -3096 -3336 0
-1672 -1676 -716 -236 -2156 -2164 -2356 -2328 -1304 -1800 0
-3592 -3596 -2700 -2220 -236 -244 -372 -344 -1304 -1800 0
-3208 -3212 -2700 -684 -812 -820 -372 -344 -1112 -3144 0
-3336 -3340 -2380 -364 -620 -628 -692 -664 -1176 -3208 0
-2248 -2252 -460 -364 -1324 -1332 -1588 -1560 -2584 -2696 0
-3336 -3340 -1356 -1132 -236 -244 -692 -664 -2584 -2824 0
-3336 -3340 -1420 -1196 -236 -244 -628 -600 -2584 -2824 0
-2824 -2828 -844 -364 -236 -244 -1204 -1176 -3096 -3592 0
-2824 -2828 -908 -428 -236 -244 -1140 -1112 -3096 -3592 0
-456 -468 -916 -796 -1564 -1580 -3116 -3112 -2152 -2248 0
-456 -468 -2452 -2332 -2588 -2604 -1580 -1576 -1128 -1224 0
-456 -468 -2452 -2332 -3100 -3116 -1580 -1576 -616 -712 0
-712 -724 -1684 -1564 -3100 -3116 -2348 -2344 -360 -456 0
-2248 -2260 -2452 -2332 -796 -812 -1580 -1576 -1128 -1224 0
-2248 -2260 -2452 -2332 -1308 -1324 -1580 -1576 -616 -712 0
-1608 -1620 -3604 -3100 -2204 -2220 -428 -424 -360 -840 0
-2632 -2644 -2836 -2332 -1308 -1324 -1196 -1192 -232 -712 0
-3144 -3156 -3220 -2204 -668 -684 -812 -808 -360 -1352 0
-2248 -2260 -2452 -412 -796 -812 -1580 -1576 -1128 -3144 0
-3144 -3156 -3220 -1180 -412 -428 -812 -808 -616 -2632 0
-456 -468 -852 -796 -1564 -1580 -3116 -3112 -2216 -2248 0
-456 -468 -1364 -1308 -3100 -3116 -2604 -2600 -680 -712 0
-456 -468 -2388 -2332 -3100 -3116 -1580 -1576 -680 -712 0
-712 -724 -852 -796 -2332 -2348 -3116 -3112 -1192 -1224 0
-2248 -2260 -2388 -2332 -796 -812 -1580 -1576 -1192 -1224 0
-2248 -2260 -3156 -3100 -1308 -1324 -812 -808 -680 -712 0
-904 -916 -1812 -1564 -1116 -1132 -2156 -2152 -2216 -2440 0
-2440 -2452 -3348 -3100 -1116 -1132 -620 -616 -680 -904 0
-712 -724 -852 -348 -1308 -1324 -3116 -3112 -2216 -2696 0
-904 -916 -1812 -1308 -1116 -1132 -2156 -2152 -2216 -2696 0
-1416 -1428 -3348 -2332 -2140 -2156 -620 -616 -680 -1672 0
-1672 -1684 -1812 -796 -2332 -2348 -2156 -2152 -232 -1224 0
-2248 -2260 -2388 -348 -796 -812 -1580 -1576 -1192 -3208 0
-2248 -2260 -3156 -1116 -1564 -1580 -812 -808 -424 -2440 0
-2696 -2708 -2836 -796 -348 -364 -1132 -1128 -1192 -3208 0
-456 -468 -724 -668 -2588 -2604 -3116 -3112 -1320 -1352 0
-456 -468 -2260 -2204 -2588 -2604 -1580 -1576 -1320 -1352 0
-840 -852 -2644 -2588 -2204 -2220 -1196 -1192 -1320 -1352 0
-840 -852 -2644 -2588 -3100 -3116 -1196 -1192 -424 -456 0
-2376 -2388 -2260 -2204 -668 -684 -1580 -1576 -1320 -1352 0
-456 -468 -724 -604 -2588 -2604 -3116 -3112 -1320 -1416 0
-456 -468 -2260 -2140 -2588 -2604 -1580 -1576 -1320 -1416 0
-1416 -1428 -3220 -3100 -2140 -2156 -620 -616 -808 -904 0
-1416 -1428 -3220 -3100 -2588 -2604 -620 -616 -360 -456 0
-840 -852 -724 -220 -2204 -2220 -3116 -3112 -1320 -1800 0
-840 -852 -1620 -1116 -1180 -1196 -2220 -2216 -2344 -2824 0
-904 -916 -1684 -1180 -1116 -1132 -2156 -2152 -2344 -2824 0
-1800 -1812 -3604 -3100 -2140 -2156 -236 -232 -424 -904 0
-2824 -2836 -2644 -2140 -220 -236 -1196 -1192 -1320 -1800 0
-2824 -2836 -2708 -2204 -1180 -1196 -1132 -1128 -360 -840 0
-1800 -1812 -1620 -604 -2140 -2156 -2220 -2216 -424 -1416 0
-1800 -1812 -3604 -2588 -2204 -2220 -236 -232 -360 -1352 0
-2824 -2836 -2644 -604 -1116 -1132 -1196 -1192 -424 -2440 0
-2824 -2836 -2708 -668 -1180 -1196 -1132 -1128 -360 -2376 0
-712 -724 -468 -412 -1308 -1324 -3116 -3112 -2600 -2632 0
-712 -724 -2260 -2204 -3100 -3116 -1324 -1320 -808 -840 0
-1608 -1620 -3156 -3100 -2332 -2348 -428 -424 -680 -712 0
-712 -724 -468 -348 -2332 -2348 -3116 -3112 -1576 -1672 0
-712 -724 -1236 -1116 -3100 -3116 -2348 -2344 -808 -904 0
-1800 -1812 -1364 -1116 -2140 -2156 -2220 -2216 -680 -904 0
-2824 -2836 -3348 -3100 -1116 -1132 -236 -232 -680 -904 0
-1608 -1620 -1236 -220 -2204 -2220 -2348 -2344 -808 -1800 0
-1608 -1620 -1364 -348 -2332 -2348 -2220 -2216 -680 -1672 0
-1672 -1684 -1428 -412 -348 -364 -2156 -2152 -2600 -3592 0
-1800 -1812 -1428 -412 -2204 -2220 -2156 -2152 -616 -1608 0
-3592 -3604 -3348 -2332 -412 -428 -236 -232 -616 -1608 0
-2632 -2644 -2388 -348 -1308 -1324 -1196 -1192 -680 -2696 0
-3592 -3604 -3220 -1180 -220 -236 -364 -360 -808 -2824 0
-1352 -1364 -468 -412 -668 -684 -2604 -2600 -3112 -3144 0
-1608 -1620 -2644 -2588 -2332 -2348 -428 -424 -1192 -1224 0
-1224 -1236 -2260 -2140 -2588 -2604 -812 -808 -1320 -1416 0
-1416 -1428 -2452 -2332 -2588 -2604 -620 -616 -1128 -1224 0
-1352 -1364 -852 -604 -2588 -2604 -2220 -2216 -1192 -1416 0
-1352 -1364 -2388 -2140 -2204 -2220 -684 -680 -1576 -1800 0
-1416 -1428 -468 -220 -2140 -2156 -2604 -2600 -1576 -1800 0
-1800 -1812 -916 -668 -2204 -2220 -2156 -2152 -1128 -1352 0
-1800 -1812 -2836 -2588 -2204 -2220 -236 -232 -1128 -1352 0
-1608 -1620 -724 -220 -2204 -2220 -2348 -2344 -1320 -1800 0
-3144 -3156 -2388 -348 -412 -428 -684 -680 -1576 -3592 0
-3144 -3156 -2388 -348 -796 -812 -684 -680 -1192 -3208 0
-3144 -3156 -1236 -1180 -668 -684 -812 -808 -2344 -2376 0
-3144 -3156 -1620 -1564 -796 -812 -428 -424 -2216 -2248 0
-2248 -2260 -1236 -1116 -1564 -1580 -812 -808 -2344 -2440 0
-2440 -2452 -468 -348 -1116 -1132 -1580 -1576 -2600 -2696 0
-2376 -2388 -852 -604 -668 -684 -1196 -1192 -3112 -3336 0
-2824 -2836 -852 -604 -1116 -1132 -1196 -1192 -2216 -2440 0
-2824 -2836 -916 -668 -220 -236 -1132 -1128 -3112 -3336 0
-2824 -2836 -1812 -1564 -1116 -1132 -236 -232 -2216 -2440 0
-3336 -3348 -1364 -1116 -604 -620 -684 -680 -2216 -2440 0
-3336 -3348 -1428 -1180 -220 -236 -620 -616 -2600 -2824 0
-2632 -2644 -852 -348 -412 -428 -1196 -1192 -3112 -3592 0
-2632 -2644 -1620 -1116 -1180 -1196 -428 -424 -2344 -2824 0
-2696 -2708 -724 -220 -1116 -1132 -1324 -1320 -2344 -2824 0
-2824 -2836 -852 -348 -1116 -1132 -1196 -1192 -2216 -2696 0
-2824 -2836 -916 -412 -220 -236 -1132 -1128 -3112 -3592 0
-3592 -3604 -1812 -1308 -348 -364 -236 -232 -2216 -2696 0
-3144 -3156 -1236 -220 -668 -684 -812 -808 -2344 -3336 0
-3336 -3348 -1428 -412 -220 -236 -620 -616 -2600 -3592 0
-3336 -3348 -1812 -796 -604 -620 -236 -232 -2216 -3208 0
-3592 -3604 -1620 -604 -220 -236 -428 -424 -2344 -3336 0
-456 -468 -916 -820 -2612 -2604 -3116 -3088 -1104 -1224 0
-456 -468 -2452 -2356 -3124 -3116 -1580 -1552 -592 -712 0
-840 -852 -916 -692 -1204 -1196 -3116 -3088 -2128 -2376 0
-1352 -1364 -1812 -1588 -2612 -2604 -2220 -2192 -208 -456 0
-1352 -1364 -3348 -3124 -2612 -2604 -684 -656 -208 -456 0
-712 -724 -916 -436 -1332 -1324 -3116 -3088 -2128 -2632 0
-1608 -1620 -1812 -1332 -2356 -2348 -2220 -2192 -208 -712 0
-1608 -1620 -3604 -3124 -2356 -2348 -428 -400 -208 -712 0
-1608 -1620 -1812 -820 -436 -428 -2220 -2192 -2128 -3144 0
-2376 -2388 -2452 -436 -1204 -1196 -1580 -1552 -592 -2632 0
-2376 -2388 -2836 -820 -692 -684 -1196 -1168 -1104 -3144 0
-3144 -3156 -3348 -1332 -820 -812 -684 -656 -208 -2248 0
-712 -724 -2644 -2612 -3124 -3116 -1324 -1296 -400 -456 0
-1224 -1236 -3156 -3124 -2356 -2348 -812 -784 -656 -712 0
-2248 -2260 -2644 -2612 -820 -812 -1324 -1296 -1168 -1224 0
-456 -468 -852 -628 -2612 -2604 -3116 -3088 -1168 -1416 0
-904 -916 -1812 -1588 -3124 -3116 -2156 -2128 -208 -456 0
-904 -916 -2836 -2612 -2164 -2156 -1132 -1104 -1168 -1416 0
-904 -916 -852 -372 -2164 -2156 -3116 -3088 -1168 -1672 0
-1672 -1684 -1812 -1332 -2356 -2348 -2156 -2128 -208 -712 0
-1224 -1236 -1364 -372 -2356 -2348 -2604 -2576 -656 -1672 0
-1224 -1236 -3156 -2164 -2356 -2348 -812 -784 -656 -1672 0
-1672 -1684 -1620 -628 -2164 -2156 -2348 -2320 -400 -1416 0
-2248 -2260 -2388 -372 -820 -812 -1580 -1552 -1168 -3208 0
-2440 -2452 -3348 -1332 -1140 -1132 -620 -592 -656 -2696 0
-3208 -3220 -3604 -1588 -820 -812 -364 -336 -208 -2248 0
-456 -468 -1236 -1204 -3124 -3116 -2604 -2576 -784 -840 0
-840 -852 -2644 -2612 -2228 -2220 -1196 -1168 -1296 -1352 0
-904 -916 -1684 -1588 -3124 -3116 -2156 -2128 -336 -456 0
-840 -852 -1620 -1140 -1204 -1196 -2220 -2192 -2320 -2824 0
-904 -916 -1684 -1204 -3124 -3116 -2156 -2128 -336 -840 0
-1800 -1812 -1620 -1140 -244 -236 -2220 -2192 -2320 -2824 0
-1800 -1812 -3604 -3124 -2228 -2220 -236 -208 -336 -840 0
-2824 -2836 -2644 -2164 -244 -236 -1196 -1168 -1296 -1800 0
-1352 -1364 -1620 -628 -2612 -2604 -2220 -2192 -400 -1416 0
-1352 -1364 -3156 -2164 -2228 -2220 -684 -656 -784 -1800 0
-1416 -1428 -1236 -244 -628 -620 -2604 -2576 -2320 -3336 0
-1800 -1812 -1684 -692 -244 -236 -2156 -2128 -2320 -3336 0
-3336 -3348 -3156 -2164 -244 -236 -684 -656 -784 -1800 0
-3336 -3348 -3604 -2612 -628 -620 -236 -208 -400 -1416 0
-2376 -2388 -2644 -628 -692 -684 -1196 -1168 -1296 -3336 0
-2376 -2388 -3156 -1140 -1204 -1196 -684 -656 -784 -2824 0
-2376 -2388 -3156 -1140 -1588 -1580 -684 -656 -400 -2440 0
-712 -724 -468 -372 -1332 -1324 -3116 -3088 -2576 -2696 0
-904 -916 -2452 -2356 -2164 -2156 -1132 -1104 -1552 -1672 0
-1672 -1684 -1428 -1332 -2356 -2348 -2156 -2128 -592 -712 0
-840 -852 -1364 -1140 -1204 -1196 -2220 -2192 -2576 -2824 0
-1800 -1812 -1364 -1140 -244 -236 -2220 -2192 -2576 -2824 0
-1800 -1812 -1364 -1140 -2164 -2156 -2220 -2192 -656 -904 0
-1800 -1812 -1428 -1204 -244 -236 -2156 -2128 -2576 -2824 0
-2824 -2836 -2388 -2164 -244 -236 -1196 -1168 -1552 -1800 0
-2824 -2836 -3348 -3124 -1204 -1196 -236 -208 -592 -840 0
-1672 -1684 -1236 -244 -2164 -2156 -2348 -2320 -784 -1800 0
-1672 -1684 -1428 -436 -2356 -2348 -2156 -2128 -592 -1608 0
-1672 -1684 -3220 -2228 -2164 -2156 -364 -336 -784 -1800 0
-1800 -1812 -1364 -372 -2164 -2156 -2220 -2192 -656 -1672 0
-1800 -1812 -3348 -2356 -2228 -2220 -236 -208 -592 -1608 0
-3592 -3604 -3348 -2356 -372 -364 -236 -208 -656 -1672 0
-1352 -1364 -2388 -2356 -2228 -2220 -684 -656 -1552 -1608 0
-3144 -3156 -2388 -2356 -436 -428 -684 -656 -1552 -1608 0
-1224 -1236 -2260 -2164 -2356 -2348 -812 -784 -1552 -1672 0
-1416 -1428 -2452 -2356 -2164 -2156 -620 -592 -1552 -1672 0
-1672 -1684 -724 -628 -2164 -2156 -2348 -2320 -1296 -1416 0
-1672 -1684 -916 -820 -372 -364 -2156 -2128 -3088 -3208 0
-1352 -1364 -2388 -2164 -2228 -2220 -684 -656 -1552 -1800 0
-1800 -1812 -852 -628 -244 -236 -2220 -2192 -3088 -3336 0
-1800 -1812 -2836 -2612 -2164 -2156 -236 -208 -1168 -1416 0
-3336 -3348 -2452 -2228 -692 -684 -620 -592 -1104 -1352 0
-3336 -3348 -2836 -2612 -628 -620 -236 -208 -1168 -1416 0
-1672 -1684 -724 -244 -372 -364 -2348 -2320 -3088 -3592 0
-1800 -1812 -852 -372 -2164 -2156 -2220 -2192 -1168 -1672 0
-1800 -1812 -2836 -2356 -2164 -2156 -236 -208 -1168 -1672 0
-3592 -3604 -2836 -2356 -372 -364 -236 -208 -1168 -1672 0
-3336 -3348 -2452 -436 -244 -236 -620 -592 -1552 -3592 0
-3592 -3604 -2708 -692 -436 -428 -364 -336 -1104 -3144 0
-2248 -2260 -468 -372 -1332 -1324 -1580 -1552 -2576 -2696 0
-2248 -2260 -1236 -1140 -1332 -1324 -812 -784 -2576 -2696 0
-2376 -2388 -468 -244 -692 -684 -1580 -1552 -3088 -3336 0
-3336 -3348 -1364 -1140 -244 -236 -684 -656 -2576 -2824 0
-3336 -3348 -1812 -1588 -692 -684 -236 -208 -2128 -2376 0
-2824 -2836 -916 -436 -244 -236 -1132 -1104 -3088 -3592 0
-2824 -2836 -916 -436 -1204 -1196 -1132 -1104 -2128 -2632 0
-2824 -2836 -1812 -1332 -1204 -1196 -236 -208 -2128 -2632 0
-3592 -3604 -1812 -1332 -436 -428 -236 -208 -2128 -2632 0
-3336 -3348 -1812 -820 -692 -684 -236 -208 -2128 -3144 0
-456 -484 -1444 -1324 -1580 -1564 -2588 -2584 -2136 -2248 0
-712 -740 -1700 -1580 -3116 -3100 -2332 -2328 -344 -456 0
-712 -740 -2724 -2604 -3116 -3100 -1308 -1304 -344 -456 0
-1224 -1252 -1700 -1580 -2604 -2588 -2332 -2328 -344 -456 0
-2248 -2276 -2468 -2348 -1324 -1308 -1564 -1560 -600 -712 0
-456 -484 -2468 -2220 -2604 -2588 -1564 -1560 -1112 -1352 0
-840 -868 -1828 -1580 -3116 -3100 -2204 -2200 -216 -456 0
-840 -868 -2852 -2604 -3116 -3100 -1180 -1176 -216 -456 0
-1352 -1380 -1828 -1580 -684 -668 -2204 -2200 -2136 -2376 0
-2376 -2404 -2468 -2220 -1196 -1180 -1564 -1560 -600 -840 0
-2376 -2404 -2852 -2604 -1580 -1564 -1180 -1176 -216 -456 0
-712 -740 -932 -428 -2348 -2332 -3100 -3096 -1112 -1608 0
-712 -740 -1700 -1196 -3116 -3100 -2332 -2328 -344 -840 0
-712 -740 -2724 -2220 -3116 -3100 -1308 -1304 -344 -840 0
-840 -868 -932 -428 -2220 -2204 -3100 -3096 -1112 -1608 0
-840 -868 -2852 -2348 -3116 -3100 -1180 -1176 -216 -712 0
-1352 -1380 -1444 -428 -684 -668 -2588 -2584 -2136 -3144 0
-3144 -3172 -3236 -2220 -684 -668 -796 -792 -344 -1352 0
-3144 -3172 -3364 -2348 -812 -796 -668 -664 -216 -1224 0
-2248 -2276 -2468 -428 -1324 -1308 -1564 -1560 -600 -2632 0
-2248 -2276 -3236 -1196 -1580 -1564 -796 -792 -344 -2376 0
-2376 -2404 -2468 -428 -1196 -1180 -1564 -1560 -600 -2632 0
-2376 -2404 -3364 -1324 -1580 -1564 -668 -664 -216 -2248 0
-2632 -2660 -2724 -684 -428 -412 -1308 -1304 -1112 -3144 0
-2632 -2660 -2852 -812 -1324 -1308 -1180 -1176 -216 -2248 0
-3144 -3172 -3364 -1324 -428 -412 -668 -664 -600 -2632 0
-3144 -3172 -3364 -1324 -812 -796 -668 -664 -216 -2248 0
-712 -740 -868 -812 -1324 -1308 -3100 -3096 -2200 -2248 0
-1224 -1252 -1380 -1324 -2348 -2332 -2588 -2584 -664 -712 0
-1224 -1252 -1636 -1580 -812 -796 -2332 -2328 -2200 -2248 0
-1224 -1252 -3172 -3116 -2604 -2588 -796 -792 -408 -456 0
-2248 -2276 -2404 -2348 -812 -796 -1564 -1560 -1176 -1224 0
-2248 -2276 -2660 -2604 -812 -796 -1308 -1304 -1176 -1224 0
-456 -484 -1380 -1132 -3116 -3100 -2588 -2584 -664 -904 0
-456 -484 -2404 -2156 -3116 -3100 -1564 -1560 -664 -904 0
-904 -932 -2852 -2604 -3116 -3100 -1116 -1112 -216 -456 0
-1416 -1444 -3364 -3116 -2604 -2588 -604 -600 -216 -456 0
-2440 -2468 -2852 -2604 -620 -604 -1116 -1112 -1176 -1416 0
-2440 -2468 -3364 -3116 -1580 -1564 -604 -600 -216 -456 0
-712 -740 -1636 -1132 -1324 -1308 -2332 -2328 -2200 -2696 0
-712 -740 -2660 -2156 -2348 -2332 -1308 -1304 -1176 -1672 0
-904 -932 -1828 -1324 -1132 -1116 -2140 -2136 -2200 -2696 0
-1672 -1700 -3620 -3116 -2156 -2140 -348 -344 -408 -904 0
-1672 -1700 -3620 -3116 -2348 -2332 -348 -344 -216 -712 0
-2696 -2724 -3620 -3116 -1324 -1308 -348 -344 -216 -712 0
-1224 -1252 -1380 -364 -2348 -2332 -2588 -2584 -664 -1672 0
-1224 -1252 -3172 -2156 -2348 -2332 -796 -792 -664 -1672 0
-1416 -1444 -3364 -2348 -2156 -2140 -604 -600 -664 -1672 0
-1672 -1700 -1828 -812 -364 -348 -2140 -2136 -2200 -3208 0
-3208 -3236 -3364 -2348 -812 -796 -604 -600 -216 -1224 0
-2248 -2276 -2404 -364 -1324 -1308 -1564 -1560 -664 -2696 0
-2248 -2276 -3172 -1132 -1324 -1308 -796 -792 -664 -2696 0
-2248 -2276 -3172 -1132 -1580 -1564 -796 -792 -408 -2440 0
-2440 -2468 -3364 -1324 -1580 -1564 -604 -600 -216 -2248 0
-456 -484 -740 -684 -2604 -2588 -3100 -3096 -1304 -1352 0
-456 -484 -2276 -2220 -2604 -2588 -1564 -1560 -1304 -1352 0
-456 -484 -2276 -2220 -3116 -3100 -1564 -1560 -792 -840 0
-456 -484 -1252 -1132 -1580 -1564 -2588 -2584 -2328 -2440 0
-456 -484 -2276 -2156 -2604 -2588 -1564 -1560 -1304 -1416 0
-904 -932 -740 -236 -2156 -2140 -3100 -3096 -1304 -1800 0
-1800 -1828 -1636 -1132 -2156 -2140 -2204 -2200 -408 -904 0
-1800 -1828 -3620 -3116 -2156 -2140 -220 -216 -408 -904 0
-2824 -2852 -2660 -2156 -1132 -1116 -1180 -1176 -408 -904 0
-1352 -1380 -1252 -236 -684 -668 -2588 -2584 -2328 -3336 0
-1352 -1380 -1252 -236 -2220 -2204 -2588 -2584 -792 -1800 0
-1352 -1380 -3172 -2156 -2604 -2588 -668 -664 -408 -1416 0
-1800 -1828 -1700 -684 -2220 -2204 -2140 -2136 -344 -1352 0
-2376 -2404 -2276 -236 -1196 -1180 -1564 -1560 -792 -2824 0
-2376 -2404 -2660 -620 -1580 -1564 -1180 -1176 -408 -2440 0
-2440 -2468 -2276 -236 -620 -604 -1564 -1560 -1304 -3336 0
-3336 -3364 -3172 -1132 -236 -220 -668 -664 -792 -2824 0
-712 -740 -484 -428 -2348 -2332 -3100 -3096 -1560 -1608 0
-712 -740 -2276 -2220 -3116 -3100 -1308 -1304 -792 -840 0
-840 -868 -484 -428 -1196 -1180 -3100 -3096 -2584 -2632 0
-712 -740 -2276 -2156 -2348 -2332 -1308 -1304 -1560 -1672 0
-712 -740 -2276 -2156 -3116 -3100 -1308 -1304 -792 -904 0
-904 -932 -484 -364 -2156 -2140 -3100 -3096 -1560 -1672 0
-1672 -1700 -3236 -3116 -2156 -2140 -348 -344 -792 -904 0
-2696 -2724 -2276 -2156 -1132 -1116 -1308 -1304 -792 -904 0
-840 -868 -484 -236 -1196 -1180 -3100 -3096 -2584 -2824 0
-1800 -1828 -1380 -1132 -2156 -2140 -2204 -2200 -664 -904 0
-1800 -1828 -1444 -1196 -236 -220 -2140 -2136 -2584 -2824 0
-1800 -1828 -1444 -1196 -2220 -2204 -2140 -2136 -600 -840 0
-2824 -2852 -2468 -2220 -236 -220 -1116 -1112 -1560 -1800 0
-2824 -2852 -2468 -2220 -1196 -1180 -1116 -1112 -600 -840 0
-1608 -1636 -1380 -364 -2348 -2332 -2204 -2200 -664 -1672 0
-1608 -1636 -3172 -2156 -2348 -2332 -412 -408 -664 -1672 0
-1672 -1700 -1252 -236 -364 -348 -2332 -2328 -2584 -3592 0
-1800 -1828 -1380 -364 -2156 -2140 -2204 -2200 -664 -1672 0
-3592 -3620 -3364 -2348 -364 -348 -220 -216 -664 -1672 0
-2632 -2660 -3172 -1132 -1196 -1180 -412 -408 -792 -2824 0
-2696 -2724 -2276 -236 -1132 -1116 -1308 -1304 -792 -2824 0
-1224 -1252 -484 -428 -2348 -2332 -2588 -2584 -1560 -1608 0
-1224 -1252 -2276 -2156 -2348 -2332 -796 -792 -1560 -1672 0
-1672 -1700 -932 -812 -364 -348 -2140 -2136 -3096 -3208 0
-1672 -1700 -932 -812 -2348 -2332 -2140 -2136 -1112 -1224 0
-1672 -1700 -2724 -2604 -2156 -2140 -348 -344 -1304 -1416 0
-3208 -3236 -2276 -2156 -620 -604 -796 -792 -1304 -1416 0
-1352 -1380 -484 -236 -684 -668 -2588 -2584 -3096 -3336 0
-1352 -1380 -2404 -2156 -2220 -2204 -668 -664 -1560 -1800 0
-1800 -1828 -2852 -2604 -2156 -2140 -220 -216 -1176 -1416 0
-1672 -1700 -740 -236 -2156 -2140 -2332 -2328 -1304 -1800 0
-3144 -3172 -2276 -236 -684 -668 -796 -792 -1304 -3336 0
-3208 -3236 -2276 -236 -364 -348 -796 -792 -1560 -3592 0
-3208 -3236 -2276 -236 -620 -604 -796 -792 -1304 -3336 0
-3336 -3364 -2852 -812 -684 -668 -220 -216 -1112 -3144 0
-2248 -2276 -484 -428 -812 -796 -1564 -1560 -3096 -3144 0
-2248 -2276 -740 -684 -1580 -1564 -1308 -1304 -2328 -2376 0
-2248 -2276 -1252 -1196 -1324 -1308 -796 -792 -2584 -2632 0
-2376 -2404 -868 -812 -684 -668 -1180 -1176 -3096 -3144 0
-3144 -3172 -1252 -1196 -428 -412 -796 -792 -2584 -2632 0
-2248 -2276 -484 -364 -1324 -1308 -1564 -1560 -2584 -2696 0
-2248 -2276 -1252 -1132 -1324 -1308 -796 -792 -2584 -2696 0
-2440 -2468 -932 -812 -620 -604 -1116 -1112 -3096 -3208 0
-2440 -2468 -1444 -1324 -1132 -1116 -604 -600 -2584 -2696 0
-2440 -2468 -484 -236 -1132 -1116 -1564 -1560 -2584 -2824 0
-2632 -2660 -868 -364 -1324 -1308 -1180 -1176 -2200 -2696 0
-2632 -2660 -1636 -1132 -1324 -1308 -412 -408 -2200 -2696 0
-2824 -2852 -932 -428 -236 -220 -1116 -1112 -3096 -3592 0
-2824 -2852 -1828 -1324 -1132 -1116 -220 -216 -2200 -2696 0
-3592 -3620 -1828 -1324 -364 -348 -220 -216 -2200 -2696 0
-3208 -3236 -1444 -428 -812 -796 -604 -600 -2136 -3144 0
-3336 -3364 -1444 -428 -684 -668 -604 -600 -2136 -3144 0
-3336 -3364 -1828 -812 -620 -604 -220 -216 -2200 -3208 0
-3592 -3620 -1828 -812 -428 -412 -220 -216 -2136 -3144 0
-456 -484 -2468 -2356 -2612 -2588 -1564 -1552 -1104 -1224 0
-712 -740 -2724 -2612 -3124 -3100 -1308 -1296 -336 -456 0
-1224 -1252 -1444 -1332 -2356 -2332 -2588 -2576 -592 -712 0
-2248 -2276 -2724 -2612 -820 -796 -1308 -1296 -1104 -1224 0
-2248 -2276 -3236 -3124 -1588 -1564 -796 -784 -336 -456 0
-456 -484 -2468 -2228 -2612 -2588 -1564 -1552 -1104 -1352 0
-840 -868 -932 -692 -2228 -2204 -3100 -3088 -1104 -1352 0
-1352 -1380 -1444 -1204 -2228 -2204 -2588 -2576 -592 -840 0
-1352 -1380 -1828 -1588 -692 -668 -2204 -2192 -2128 -2376 0
-2376 -2404 -3364 -3124 -1588 -1564 -668 -656 -208 -456 0
-712 -740 -932 -436 -1332 -1308 -3100 -3088 -2128 -2632 0
-712 -740 -2724 -2228 -3124 -3100 -1308 -1296 -336 -840 0
-840 -868 -2852 -2356 -3124 -3100 -1180 -1168 -208 -712 0
-1352 -1380 -3364 -2356 -2612 -2588 -668 -656 -208 -1224 0
-2248 -2276 -3236 -1204 -1588 -1564 -796 -784 -336 -2376 0
-3144 -3172 -3364 -1332 -820 -796 -668 -656 -208 -2248 0
-712 -740 -868 -820 -1332 -1308 -3100 -3088 -2192 -2248 0
-712 -740 -1636 -1588 -3124 -3100 -2332 -2320 -400 -456 0
-1224 -1252 -1636 -1588 -2612 -2588 -2332 -2320 -400 -456 0
-2248 -2276 -2404 -2356 -820 -796 -1564 -1552 -1168 -1224 0
-2248 -2276 -3172 -3124 -1332 -1308 -796 -784 -656 -712 0
-1416 -1444 -1828 -1588 -2612 -2588 -2140 -2128 -208 -456 0
-2440 -2468 -3364 -3124 -1140 -1116 -604 -592 -656 -904 0
-904 -932 -1828 -1332 -3124 -3100 -2140 -2128 -208 -712 0
-904 -932 -2852 -2356 -3124 -3100 -1116 -1104 -208 -712 0
-2696 -2724 -2852 -2356 -372 -348 -1116 -1104 -1168 -1672 0
-1224 -1252 -3172 -2164 -2356 -2332 -796 -784 -656 -1672 0
-1416 -1444 -1380 -372 -628 -604 -2588 -2576 -2192 -3208 0
-3208 -3236 -3620 -2612 -820 -796 -348 -336 -208 -1224 0
-456 -484 -740 -692 -2612 -2588 -3100 -3088 -1296 -1352 0
-456 -484 -1252 -1204 -3124 -3100 -2588 -2576 -784 -840 0
-456 -484 -2276 -2228 -3124 -3100 -1564 -1552 -784 -840 0
-1352 -1380 -1252 -1204 -2228 -2204 -2588 -2576 -784 -840 0
-2376 -2404 -2660 -2612 -1588 -1564 -1180 -1168 -400 -456 0
-456 -484 -740 -628 -2612 -2588 -3100 -3088 -1296 -1416 0
-456 -484 -2276 -2164 -2612 -2588 -1564 -1552 -1296 -1416 0
-456 -484 -2276 -2164 -3124 -3100 -1564 -1552 -784 -904 0
-904 -932 -2724 -2612 -2164 -2140 -1116 -1104 -1296 -1416 0
-1416 -1444 -3236 -3124 -2164 -2140 -604 -592 -784 -904 0
-2440 -2468 -2276 -2164 -1140 -1116 -1564 -1552 -784 -904 0
-1800 -1828 -1636 -1140 -2164 -2140 -2204 -2192 -400 -904 0
-1800 -1828 -1700 -1204 -2228 -2204 -2140 -2128 -336 -840 0
-2824 -2852 -2660 -2164 -1140 -1116 -1180 -1168 -400 -904 0
-1352 -1380 -1252 -244 -2228 -2204 -2588 -2576 -784 -1800 0
-1352 -1380 -3172 -2164 -2228 -2204 -668 -656 -784 -1800 0
-1800 -1828 -1636 -628 -2164 -2140 -2204 -2192 -400 -1416 0
-1800 -1828 -1700 -692 -2228 -2204 -2140 -2128 -336 -1352 0
-2376 -2404 -3172 -1140 -1588 -1564 -668 -656 -400 -2440 0
-2824 -2852 -2660 -628 -1140 -1116 -1180 -1168 -400 -2440 0
-2824 -2852 -2724 -692 -244 -220 -1116 -1104 -1296 -3336 0
-3336 -3364 -3172 -1140 -244 -220 -668 -656 -784 -2824 0
-3336 -3364 -3172 -1140 -628 -604 -668 -656 -400 -2440 0
-712 -740 -484 -436 -2356 -2332 -3100 -3088 -1552 -1608 0
-712 -740 -1252 -1204 -3124 -3100 -2332 -2320 -784 -840 0
-840 -868 -1380 -1332 -3124 -3100 -2204 -2192 -656 -712 0
-840 -868 -2404 -2356 -3124 -3100 -1180 -1168 -656 -712 0
-2632 -2660 -2276 -2228 -436 -412 -1308 -1296 -1552 -1608 0
-712 -740 -484 -372 -2356 -2332 -3100 -3088 -1552 -1672 0
-712 -740 -1252 -1140 -1332 -1308 -2332 -2320 -2576 -2696 0
-712 -740 -2276 -2164 -2356 -2332 -1308 -1296 -1552 -1672 0
-904 -932 -484 -372 -1140 -1116 -3100 -3088 -2576 -2696 0
-1672 -1700 -3236 -3124 -2164 -2140 -348 -336 -784 -904 0
-2696 -2724 -3236 -3124 -1140 -1116 -348 -336 -784 -904 0
-840 -868 -1380 -1140 -3124 -3100 -2204 -2192 -656 -904 0
-904 -932 -484 -244 -2164 -2140 -3100 -3088 -1552 -1800 0
-1800 -1828 -1444 -1204 -2228 -2204 -2140 -2128 -592 -840 0
-1800 -1828 -3364 -3124 -2164 -2140 -220 -208 -656 -904 0
-2824 -2852 -2404 -2164 -1140 -1116 -1180 -1168 -656 -904 0
-3592 -3620 -3236 -2228 -244 -220 -348 -336 -784 -1800 0
-2696 -2724 -2276 -244 -1140 -1116 -1308 -1296 -784 -2824 0
-2824 -2852 -2404 -372 -244 -220 -1180 -1168 -1552 -3592 0
-2824 -2852 -2404 -372 -1140 -1116 -1180 -1168 -656 -2696 0
-2824 -2852 -2468 -436 -244 -220 -1116 -1104 -1552 -3592 0
-2824 -2852 -3364 -1332 -1204 -1180 -220 -208 -592 -2632 0
-1224 -1252 -484 -436 -2356 -2332 -2588 -2576 -1552 -1608 0
-1608 -1636 -868 -820 -436 -412 -2204 -2192 -3088 -3144 0
-3144 -3172 -2404 -2356 -820 -796 -668 -656 -1168 -1224 0
-3144 -3172 -2660 -2612 -820 -796 -412 -400 -1168 -1224 0
-3208 -3236 -2724 -2612 -628 -604 -348 -336 -1296 -1416 0
-1352 -1380 -2404 -2164 -2228 -2204 -668 -656 -1552 -1800 0
-1800 -1828 -868 -628 -244 -220 -2204 -2192 -3088 -3336 0
-1800 -1828 -932 -692 -2228 -2204 -2140 -2128 -1104 -1352 0
-1800 -1828 -2852 -2612 -2164 -2140 -220 -208 -1168 -1416 0
-3336 -3364 -2404 -2164 -628 -604 -668 -656 -1168 -1416 0
-1608 -1636 -740 -244 -2228 -2204 -2332 -2320 -1296 -1800 0
-1800 -1828 -868 -372 -2164 -2140 -2204 -2192 -1168 -1672 0
-3592 -3620 -2660 -2164 -372 -348 -412 -400 -1168 -1672 0
-3592 -3620 -2852 -2356 -436 -412 -220 -208 -1104 -1608 0
-3592 -3620 -2660 -628 -244 -220 -412 -400 -1296 -3336 0
-2248 -2276 -1252 -1204 -1332 -1308 -796 -784 -2576 -2632 0
-2632 -2660 -740 -692 -436 -412 -1308 -1296 -3088 -3144 0
-3208 -3236 -1252 -1140 -372 -348 -796 -784 -2576 -2696 0
-2824 -2852 -868 -628 -244 -220 -1180 -1168 -3088 -3336 0
-2824 -2852 -868 -628 -1140 -1116 -1180 -1168 -2192 -2440 0
-3336 -3364 -1380 -1140 -244 -220 -668 -656 -2576 -2824 0
-3336 -3364 -1380 -1140 -628 -604 -668 -656 -2192 -2440 0
-2824 -2852 -868 -372 -244 -220 -1180 -1168 -3088 -3592 0
-2824 -2852 -932 -436 -244 -220 -1116 -1104 -3088 -3592 0
-3144 -3172 -1380 -372 -820 -796 -668 -656 -2192 -3208 0
-3336 -3364 -1828 -820 -692 -668 -220 -208 -2128 -3144 0
-840 -844 -908 -412 -2204 -3220 -3124 -3112 -1128 -616 0
-456 -460 -1356 -1308 -1564 -3604 -2612 -2600 -2216 -232 0
-456 -460 -2380 -2140 -3100 -3604 -1588 -1576 -680 -424 0
-904 -908 -1804 -1564 -3100 -3156 -2164 -2152 -232 -424 0
-1672 -1676 -1804 -1308 -2332 -2388 -2164 -2152 -232 -680 0
-712 -716 -1228 -1116 -3100 -3348 -2356 -2344 -808 -680 0
-904 -908 -2444 -2204 -2140 -3156 -1140 -1128 -1576 -808 0
-712 -716 -1676 -1196 -1324 -3364 -2356 -2328 -2136 -600 0
-3336 -3340 -3212 -1196 -236 -740 -628 -600 -792 -2328 0
-712 -716 -1228 -1196 -3116 -3364 -2356 -2328 -792 -600 0
-1800 -1804 -1356 -1132 -236 -2276 -2228 -2200 -2584 -792 0
-2824 -2828 -3340 -3116 -1196 -1252 -244 -216 -600 -792 0
-3592 -3596 -3340 -1324 -364 -484 -244 -216 -664 -2584 0
-1416 -1420 -460 -236 -620 -2660 -2612 -2584 -3096 -1304 0
-1800 -1804 -908 -684 -236 -2276 -2164 -2136 -3096 -1304 0
-456 -468 -2452 -2332 -3100 -3596 -1580 -1576 -616 -232 0
-456 -468 -916 -668 -2588 -3596 -3116 -3112 -1128 -360 0
-1352 -1364 -3348 -2332 -2204 -2700 -684 -680 -616 -1128 0
-904 -916 -2836 -2588 -2140 -3148 -1132 -1128 -1192 -424 0
-2696 -2708 -2836 -796 -348 -1356 -1132 -1128 -1192 -2216 0
-1800 -1812 -1684 -668 -2204 -2252 -2156 -2152 -360 -1320 0
-2376 -2388 -3156 -1116 -1564 -1676 -684 -680 -424 -2344 0
-712 -724 -2260 -2140 -3100 -3340 -1324 -1320 -808 -680 0
-2440 -2452 -1428 -1308 -1564 -1612 -620 -616 -2152 -2216 0
-2824 -2836 -916 -668 -220 -1228 -1132 -1128 -3112 -2344 0
-3144 -3156 -3348 -1332 -436 -932 -684 -656 -592 -2128 0
-2248 -2260 -3156 -3124 -1332 -1828 -812 -784 -656 -208 0
-1416 -1428 -1812 -820 -2612 -2660 -2156 -2128 -208 -1168 0
-2248 -2260 -2644 -628 -820 -1828 -1324 -1296 -1168 -2192 0
-1800 -1812 -1620 -1140 -244 -2276 -2220 -2192 -2320 -784 0
-1800 -1812 -1684 -1204 -244 -2276 -2156 -2128 -2320 -784 0
-1800 -1812 -1684 -1204 -2228 -2276 -2156 -2128 -336 -784 0
-1800 -1812 -1684 -692 -244 -2276 -2156 -2128 -2320 -1296 0
-2376 -2388 -3156 -1140 -1204 -1700 -684 -656 -784 -2320 0
-2376 -2388 -3156 -1140 -1588 -1700 -684 -656 -400 -2320 0
-2824 -2836 -2708 -692 -244 -1252 -1132 -1104 -1296 -2320 0
-3336 -3348 -3220 -1204 -692 -740 -620 -592 -336 -2320 0
-1672 -1684 -3220 -3124 -2356 -2404 -364 -336 -592 -656 0
-1800 -1812 -1364 -1140 -244 -2276 -2220 -2192 -2576 -784 0
-1800 -1812 -1364 -1140 -2164 -2276 -2220 -2192 -656 -784 0
-1416 -1428 -916 -820 -628 -2660 -2156 -2128 -3088 -1168 0
-1672 -1684 -724 -628 -372 -2404 -2348 -2320 -3088 -1168 0
-2376 -2388 -852 -820 -692 -1700 -1196 -1168 -3088 -2128 0
-3144 -3156 -1620 -1588 -692 -932 -428 -400 -2320 -2128 0
-1224 -1252 -3236 -3116 -2604 -2828 -796 -792 -344 -216 0
-2248 -2276 -2468 -2348 -1324 -1804 -1564 -1560 -600 -216 0
-456 -484 -1444 -1196 -1580 -3596 -2588 -2584 -2136 -344 0
-2248 -2276 -2404 -2348 -812 -1804 -1564 -1560 -1176 -216 0
-1672 -1700 -1828 -812 -2348 -2380 -2140 -2136 -216 -1176 0
-2440 -2468 -2852 -812 -1580 -1612 -1116 -1112 -216 -2200 0
-2824 -2852 -2660 -620 -1132 -1228 -1180 -1176 -408 -2328 0
-2824 -2852 -2724 -684 -1196 -1228 -1116 -1112 -344 -2328 0
-3336 -3364 -3172 -1132 -236 -716 -668 -664 -792 -2328 0
-712 -740 -484 -428 -1324 -3340 -3100 -3096 -2584 -600 0
-2632 -2660 -2404 -2348 -1324 -1420 -1180 -1176 -664 -600 0
-712 -740 -1252 -1132 -3116 -3340 -2332 -2328 -792 -664 0
-1800 -1828 -1380 -364 -236 -2252 -2204 -2200 -2584 -1560 0
-1672 -1700 -932 -428 -2348 -2380 -2140 -2136 -1112 -1560 0
-1800 -1828 -2852 -2348 -2220 -2252 -220 -216 -1112 -1560 0
-3592 -3620 -2852 -812 -428 -460 -220 -216 -1112 -3096 0
-2248 -2276 -740 -684 -1580 -1804 -1308 -1304 -2328 -2136 0
-2248 -2276 -1252 -1196 -1580 -1804 -796 -792 -2328 -2136 0
-2248 -2276 -740 -620 -1580 -1804 -1308 -1304 -2328 -2200 0
-2824 -2852 -868 -620 -1132 -1228 -1180 -1176 -2200 -2328 0
-3592 -3620 -1828 -1324 -364 -460 -220 -216 -2200 -2584 0
-840 -868 -2852 -2612 -2228 -3220 -1180 -1168 -1104 -336 0
-1352 -1380 -1444 -436 -2228 -2708 -2588 -2576 -592 -1104 0
-904 -932 -1828 -1588 -3124 -3156 -2140 -2128 -208 -400 0
-1672 -1700 -1828 -820 -2356 -2388 -2140 -2128 -208 -1168 0
-456 -484 -2276 -2164 -2612 -3604 -1564 -1552 -1296 -400 0
-456 -484 -2276 -2164 -3124 -3604 -1564 -1552 -784 -400 0
-1800 -1828 -1636 -1140 -2164 -2260 -2204 -2192 -400 -784 0
-2824 -2852 -2660 -2164 -1140 -1236 -1180 -1168 -400 -784 0
-3336 -3364 -3172 -2164 -244 -724 -668 -656 -784 -1296 0
-3336 -3364 -3236 -1204 -692 -724 -604 -592 -336 -2320 0
-1800 -1828 -3364 -2356 -2228 -2260 -220 -208 -592 -1552 0
-1672 -1700 -740 -244 -2164 -2388 -2332 -2320 -1296 -1552 0
-3336 -3364 -2852 -820 -692 -724 -220 -208 -1104 -3088 0
-2248 -2276 -740 -692 -820 -1812 -1308 -1296 -3088 -2128 0
-3592 -3620 -1828 -820 -372 -468 -220 -208 -2192 -3088 0
-1224 -1732 -1676 -1564 -2588 -2332 -2356 -2344 -360 -232 0
-456 -964 -908 -668 -2588 -3100 -3124 -3112 -1128 -360 0
-712 -964 -908 -412 -2332 -3100 -3124 -3112 -1128 -616 0
-840 -1860 -1804 -1308 -3100 -2204 -2228 -2216 -232 -616 0
-1224 -1732 -1676 -668 -2588 -2332 -2356 -2344 -360 -1128 0
-1352 -1860 -1804 -796 -2588 -2204 -2228 -2216 -232 -1128 0
-1224 -1476 -1356 -1308 -2332 -2588 -2612 -2600 -680 -232 0
-456 -1476 -1356 -1116 -3100 -2588 -2612 -2600 -680 -424 0
-456 -2500 -2380 -2140 -2588 -1564 -1588 -1576 -1192 -424 0
-2440 -2948 -2828 -2588 -1564 -1116 -1140 -1128 -232 -424 0
-712 -1732 -1612 -1116 -1308 -2332 -2356 -2344 -2216 -680 0
-712 -2756 -2636 -2140 -3100 -1308 -1332 -1320 -424 -680 0
-904 -1924 -1804 -1308 -3100 -2140 -2164 -2152 -232 -680 0
-1672 -1924 -1804 -1308 -2332 -2140 -2164 -2152 -232 -680 0
-2696 -2756 -2636 -2140 -1116 -1308 -1332 -1320 -424 -680 0
-2696 -3716 -3596 -3100 -1308 -348 -372 -360 -232 -680 0
-1416 -1924 -1804 -796 -604 -2140 -2164 -2152 -2216 -1192 0
-1672 -1732 -1612 -604 -2140 -2332 -2356 -2344 -424 -1192 0
-1672 -1924 -1804 -796 -2332 -2140 -2164 -2152 -232 -1192 0
-2248 -2500 -2380 -348 -1308 -1564 -1588 -1576 -680 -2216 0
-2248 -3268 -3148 -1116 -1308 -796 -820 -808 -680 -2216 0
-3208 -3268 -3148 -1116 -604 -796 -820 -808 -424 -2216 0
-456 -2500 -2252 -2204 -2588 -1564 -1588 -1576 -1320 -360 0
-904 -1924 -1676 -1564 -1116 -2140 -2164 -2152 -2344 -424 0
-904 -1924 -1676 -1564 -3100 -2140 -2164 -2152 -360 -424 0
-1416 -1924 -1676 -1564 -2588 -2140 -2164 -2152 -360 -424 0
-904 -964 -716 -220 -1116 -3100 -3124 -3112 -2344 -808 0
-904 -1924 -1676 -1180 -1116 -2140 -2164 -2152 -2344 -808 0
-904 -1924 -1676 -1180 -3100 -2140 -2164 -2152 -360 -808 0
-1800 -1924 -1676 -1180 -2204 -2140 -2164 -2152 -360 -808 0
-1800 -3844 -3596 -3100 -2204 -220 -244 -232 -360 -808 0
-2824 -3844 -3596 -3100 -1116 -220 -244 -232 -424 -808 0
-3336 -3396 -3148 -2140 -604 -668 -692 -680 -424 -1320 0
-2376 -2500 -2252 -220 -668 -1564 -1588 -1576 -1320 -2344 0
-2440 -3460 -3212 -1180 -1116 -604 -628 -616 -808 -2344 0
-2824 -2884 -2636 -604 -1116 -1180 -1204 -1192 -424 -2344 0
-2824 -2948 -2700 -668 -220 -1116 -1140 -1128 -1320 -2344 0
-2824 -2948 -2700 -668 -1180 -1116 -1140 -1128 -360 -2344 0
-712 -2756 -2252 -2204 -3100 -1308 -1332 -1320 -808 -616 0
-2632 -2756 -2252 -2204 -1180 -1308 -1332 -1320 -808 -616 0
-712 -1732 -1228 -1116 -3100 -2332 -2356 -2344 -808 -680 0
-904 -2948 -2444 -2332 -2140 -1116 -1140 -1128 -1576 -680 0
-840 -964 -460 -220 -2204 -3100 -3124 -3112 -1576 -808 0
-904 -2948 -2444 -2204 -2140 -1116 -1140 -1128 -1576 -808 0
-1800 -1860 -1356 -1116 -2140 -2204 -2228 -2216 -680 -808 0
-1800 -3844 -3340 -3100 -2140 -220 -244 -232 -680 -808 0
-2824 -2884 -2380 -2140 -1116 -1180 -1204 -1192 -680 -808 0
-2824 -2948 -2444 -2204 -1180 -1116 -1140 -1128 -616 -808 0
-1672 -1924 -1420 -412 -348 -2140 -2164 -2152 -2600 -1576 0
-1800 -3844 -3340 -2332 -2140 -220 -244 -232 -680 -1576 0
-1800 -3844 -3340 -2332 -2204 -220 -244 -232 -616 -1576 0
-2696 -2756 -2252 -220 -1116 -1308 -1332 -1320 -808 -2600 0
-2696 -3716 -3212 -1180 -1308 -348 -372 -360 -616 -2600 0
-1352 -3396 -2380 -2332 -2204 -668 -692 -680 -1576 -1128 0
-1608 -1860 -844 -796 -412 -2204 -2228 -2216 -3112 -1128 0
-1224 -1476 -460 -348 -2332 -2588 -2612 -2600 -1576 -1192 0
-1416 -3460 -2444 -2332 -2140 -604 -628 -616 -1576 -1192 0
-1352 -1860 -844 -604 -668 -2204 -2228 -2216 -3112 -1320 0
-1416 -1476 -460 -220 -604 -2588 -2612 -2600 -3112 -1320 0
-1416 -1476 -460 -220 -2140 -2588 -2612 -2600 -1576 -1320 0
-3336 -3844 -2828 -2588 -668 -220 -244 -232 -1128 -1320 0
-1800 -1860 -844 -348 -2140 -2204 -2228 -2216 -1192 -1576 0
-1800 -1924 -908 -412 -220 -2140 -2164 -2152 -3112 -1576 0
-1800 -1924 -908 -412 -2204 -2140 -2164 -2152 -1128 -1576 0
-3336 -3396 -2380 -348 -220 -668 -692 -680 -1576 -3112 0
-2248 -2500 -460 -412 -1308 -1564 -1588 -1576 -2600 -2152 0
-2376 -3396 -1356 -1308 -1564 -668 -692 -680 -2216 -2152 0
-3144 -3652 -1612 -1564 -668 -412 -436 -424 -2344 -2152 0
-2440 -2500 -460 -348 -604 -1564 -1588 -1576 -3112 -2216 0
-2440 -2948 -908 -796 -1564 -1116 -1140 -1128 -2152 -2216 0
-3208 -3716 -1676 -1564 -604 -348 -372 -360 -2344 -2216 0
-2440 -2500 -460 -220 -1116 -1564 -1588 -1576 -2600 -2344 0
-2824 -2948 -908 -668 -1180 -1116 -1140 -1128 -2152 -2344 0
-2824 -3844 -1804 -1564 -1116 -220 -244 -232 -2216 -2344 0
-2824 -3844 -1804 -1564 -1180 -220 -244 -232 -2152 -2344 0
-2824 -2884 -844 -348 -1116 -1180 -1204 -1192 -2216 -2600 0
-2824 -2948 -908 -412 -1180 -1116 -1140 -1128 -2152 -2600 0
-2824 -3844 -1804 -1308 -1180 -220 -244 -232 -2152 -2600 0
-712 -1732 -1676 -1580 -1324 -2348 -2356 -2328 -2136 -216 0
-712 -1732 -1676 -1580 -3116 -2348 -2356 -2328 -344 -216 0
-840 -964 -908 -684 -2220 -3116 -3124 -3096 -1112 -344 0
-840 -1860 -1804 -1580 -1196 -2220 -2228 -2200 -2136 -344 0
-2376 -2884 -2828 -2604 -684 -1196 -1204 -1176 -1112 -344 0
-1352 -1860 -1804 -812 -2604 -2220 -2228 -2200 -216 -1112 0
-1608 -1732 -1676 -684 -428 -2348 -2356 -2328 -2136 -1112 0
-1608 -1860 -1804 -812 -428 -2220 -2228 -2200 -2136 -1112 0
-1608 -3652 -3596 -2604 -2220 -428 -436 -408 -344 -1112 0
-2376 -2884 -2828 -812 -1580 -1196 -1204 -1176 -216 -2136 0
-2632 -2884 -2828 -812 -428 -1196 -1204 -1176 -1112 -2136 0
-456 -1476 -1356 -1132 -1580 -2604 -2612 -2584 -2200 -408 0
-456 -1476 -1356 -1132 -3116 -2604 -2612 -2584 -664 -408 0
-2440 -3460 -3340 -3116 -1132 -620 -628 -600 -664 -408 0
-2696 -2948 -2828 -2348 -364 -1132 -1140 -1112 -1176 -664 0
-1224 -1476 -1356 -364 -2348 -2604 -2612 -2584 -664 -1176 0
-1416 -1924 -1804 -812 -2604 -2156 -2164 -2136 -216 -1176 0
-2248 -3268 -3148 -1132 -1324 -812 -820 -792 -664 -2200 0
-456 -2500 -2252 -2220 -2604 -1580 -1588 -1560 -1304 -344 0
-840 -1860 -1612 -1580 -1196 -2220 -2228 -2200 -2328 -344 0
-2376 -3396 -3148 -3116 -1580 -684 -692 -664 -408 -344 0
-904 -1924 -1676 -1580 -1132 -2156 -2164 -2136 -2328 -408 0
-840 -964 -716 -236 -2220 -3116 -3124 -3096 -1304 -792 0
-904 -964 -716 -236 -1132 -3116 -3124 -3096 -2328 -792 0
-904 -1924 -1676 -1196 -3116 -2156 -2164 -2136 -344 -792 0
-904 -2948 -2700 -2220 -2156 -1132 -1140 -1112 -1304 -792 0
-1800 -1924 -1676 -1196 -236 -2156 -2164 -2136 -2328 -792 0
-1800 -1924 -1676 -1196 -2220 -2156 -2164 -2136 -344 -792 0
-2824 -2884 -2636 -2156 -236 -1196 -1204 -1176 -1304 -792 0
-2824 -2948 -2700 -2220 -1196 -1132 -1140 -1112 -344 -792 0
-1416 -1924 -1676 -684 -2604 -2156 -2164 -2136 -344 -1304 0
-1800 -1924 -1676 -684 -236 -2156 -2164 -2136 -2328 -1304 0
-1800 -1924 -1676 -684 -2220 -2156 -2164 -2136 -344 -1304 0
-1800 -3844 -3596 -2604 -2220 -236 -244 -216 -344 -1304 0
-3336 -3396 -3148 -2156 -236 -684 -692 -664 -792 -1304 0
-2824 -2884 -2636 -620 -236 -1196 -1204 -1176 -1304 -2328 0
-712 -1732 -1228 -1196 -1324 -2348 -2356 -2328 -2584 -600 0
-712 -1732 -1228 -1196 -3116 -2348 -2356 -2328 -792 -600 0
-840 -2884 -2380 -2348 -3116 -1196 -1204 -1176 -664 -600 0
-1608 -1732 -1228 -1196 -428 -2348 -2356 -2328 -2584 -600 0
-1608 -3652 -3148 -3116 -2220 -428 -436 -408 -792 -600 0
-904 -1924 -1420 -1324 -3116 -2156 -2164 -2136 -600 -664 0
-1672 -1732 -1228 -1132 -364 -2348 -2356 -2328 -2584 -664 0
-1672 -1924 -1420 -1324 -364 -2156 -2164 -2136 -2584 -664 0
-1672 -1924 -1420 -1324 -2348 -2156 -2164 -2136 -600 -664 0
-1672 -3716 -3212 -3116 -2348 -364 -372 -344 -600 -664 0
-1800 -1860 -1356 -1132 -2156 -2220 -2228 -2200 -664 -792 0
-2824 -3844 -3340 -3116 -1132 -236 -244 -216 -664 -792 0
-1800 -1860 -1356 -364 -236 -2220 -2228 -2200 -2584 -1560 0
-1800 -1860 -1356 -364 -2156 -2220 -2228 -2200 -664 -1560 0
-1800 -1924 -1420 -428 -236 -2156 -2164 -2136 -2584 -1560 0
-1800 -1924 -1420 -428 -2220 -2156 -2164 -2136 -600 -1560 0
-1800 -3844 -3340 -2348 -2220 -236 -244 -216 -600 -1560 0
-2632 -2884 -2380 -364 -428 -1196 -1204 -1176 -1560 -2584 0
-2696 -2948 -2444 -428 -364 -1132 -1140 -1112 -1560 -2584 0
-2696 -2948 -2444 -428 -1324 -1132 -1140 -1112 -600 -2584 0
-3592 -3716 -3212 -1196 -428 -364 -372 -344 -600 -2584 0
-1352 -1476 -460 -428 -684 -2604 -2612 -2584 -3096 -1112 0
-1608 -1860 -844 -812 -428 -2220 -2228 -2200 -3096 -1112 0
-1800 -1860 -844 -364 -2156 -2220 -2228 -2200 -1176 -1560 0
-1800 -1924 -908 -428 -236 -2156 -2164 -2136 -3096 -1560 0
-3592 -3652 -2636 -2156 -364 -428 -436 -408 -1176 -1560 0
-3592 -3844 -2828 -2348 -428 -236 -244 -216 -1112 -1560 0
-2632 -2884 -844 -812 -428 -1196 -1204 -1176 -3096 -2136 0
-2248 -2756 -716 -620 -812 -1324 -1332 -1304 -3096 -2200 0
-2696 -3716 -1676 -1580 -1324 -364 -372 -344 -2136 -2200 0
-2376 -2500 -460 -236 -684 -1580 -1588 -1560 -3096 -2328 0
-2376 -3396 -1356 -1132 -1196 -684 -692 -664 -2584 -2328 0
-2440 -3460 -1420 -1196 -1580 -620 -628 -600 -2136 -2328 0
-2824 -2948 -908 -684 -236 -1132 -1140 -1112 -3096 -2328 0
-2824 -2948 -908 -684 -1196 -1132 -1140 -1112 -2136 -2328 0
-3336 -3844 -1804 -1580 -620 -236 -244 -216 -2200 -2328 0
-2632 -2884 -844 -364 -1324 -1196 -1204 -1176 -2200 -2584 0
-2824 -2948 -908 -428 -236 -1132 -1140 -1112 -3096 -2584 0
-2824 -3844 -1804 -1324 -1196 -236 -244 -216 -2136 -2584 0
-3592 -3844 -1804 -1324 -364 -236 -244 -216 -2200 -2584 0
-3144 -3396 -1356 -364 -812 -684 -692 -664 -2200 -3096 0
-3144 -3652 -1612 -620 -684 -428 -436 -408 -2328 -3096 0
-3208 -3268 -1228 -236 -620 -812 -820 -792 -2328 -3096 0
-3336 -3844 -1804 -812 -620 -236 -244 -216 -2200 -3096 0
-3336 -3844 -1804 -812 -684 -236 -244 -216 -2136 -3096 0
-456 -1476 -1428 -1180 -1564 -2588 -2604 -2600 -2152 -360 0
-456 -2500 -2452 -2204 -2588 -1564 -1580 -1576 -1128 -360 0
-840 -1860 -1812 -1308 -1180 -2204 -2220 -2216 -2152 -616 0
-840 -1860 -1812 -1308 -3100 -2204 -2220 -2216 -232 -616 0
-1352 -1476 -1428 -412 -2204 -2588 -2604 -2600 -616 -1128 0
-1352 -1860 -1812 -796 -2588 -2204 -2220 -2216 -232 -1128 0
-1608 -1732 -1684 -668 -412 -2332 -2348 -2344 -2152 -1128 0
-1608 -1860 -1812 -796 -412 -2204 -2220 -2216 -2152 -1128 0
-3144 -3396 -3348 -2332 -796 -668 -684 -680 -232 -1128 0
-2248 -3268 -3220 -1180 -1564 -796 -812 -808 -360 -2152 0
-2632 -2756 -2708 -668 -1180 -1308 -1324 -1320 -360 -2152 0
-456 -964 -852 -796 -1564 -3100 -3116 -3112 -2216 -232 0
-712 -1732 -1620 -1564 -1308 -2332 -2348 -2344 -2216 -232 0
-456 -2500 -2388 -2140 -2588 -1564 -1580 -1576 -1192 -424 0
-1416 -1476 -1364 -1116 -2140 -2588 -2604 -2600 -680 -424 0
-1672 -1732 -1620 -1116 -2140 -2332 -2348 -2344 -424 -680 0
-1672 -1924 -1812 -1308 -2332 -2140 -2156 -2152 -232 -680 0
-1416 -1476 -1364 -348 -604 -2588 -2604 -2600 -2216 -1192 0
-1416 -1924 -1812 -796 -2588 -2140 -2156 -2152 -232 -1192 0
-1672 -1732 -1620 -604 -348 -2332 -2348 -2344 -2216 -1192 0
-1672 -1924 -1812 -796 -348 -2140 -2156 -2152 -2216 -1192 0
-1672 -1924 -1812 -796 -2332 -2140 -2156 -2152 -232 -1192 0
-2696 -2756 -2644 -604 -348 -1308 -1324 -1320 -1192 -2216 0
-2696 -2948 -2836 -796 -348 -1116 -1132 -1128 -1192 -2216 0
-840 -1860 -1620 -1564 -1180 -2204 -2220 -2216 -2344 -360 0
-840 -2884 -2644 -2588 -3100 -1180 -1196 -1192 -424 -360 0
-456 -964 -724 -604 -1564 -3100 -3116 -3112 -2344 -424 0
-904 -964 -724 -604 -1116 -3100 -3116 -3112 -2344 -424 0
-1416 -1924 -1684 -1564 -2588 -2140 -2156 -2152 -360 -424 0
-2440 -2500 -2260 -2140 -604 -1564 -1580 -1576 -1320 -424 0
-2824 -2948 -2708 -2204 -220 -1116 -1132 -1128 -1320 -808 0
-2824 -2948 -2708 -2204 -1180 -1116 -1132 -1128 -360 -808 0
-1416 -1924 -1684 -668 -604 -2140 -2156 -2152 -2344 -1320 0
-2824 -2884 -2644 -604 -1116 -1180 -1196 -1192 -424 -2344 0
-712 -964 -468 -412 -1308 -3100 -3116 -3112 -2600 -616 0
-712 -2756 -2260 -2204 -2332 -1308 -1324 -1320 -1576 -616 0
-712 -2756 -2260 -2204 -3100 -1308 -1324 -1320 -808 -616 0
-2632 -2756 -2260 -2204 -1180 -1308 -1324 -1320 -808 -616 0
-712 -964 -468 -348 -2332 -3100 -3116 -3112 -1576 -680 0
-712 -1732 -1236 -1116 -3100 -2332 -2348 -2344 -808 -680 0
-904 -964 -468 -348 -2140 -3100 -3116 -3112 -1576 -680 0
-840 -964 -468 -220 -1180 -3100 -3116 -3112 -2600 -808 0
-840 -2884 -2388 -2140 -2204 -1180 -1196 -1192 -1576 -808 0
-904 -1924 -1428 -1180 -3100 -2140 -2156 -2152 -616 -808 0
-2824 -2884 -2388 -2140 -1116 -1180 -1196 -1192 -680 -808 0
-2824 -2948 -2452 -2204 -1180 -1116 -1132 -1128 -616 -808 0
-2824 -2948 -2452 -412 -220 -1116 -1132 -1128 -1576 -2600 0
-1352 -3396 -2388 -2332 -2588 -668 -684 -680 -1192 -1128 0
-1224 -3268 -2260 -2140 -2588 -796 -812 -808 -1320 -1192 0
-1352 -3396 -2388 -2140 -2204 -668 -684 -680 -1576 -1320 0
-1800 -1924 -916 -668 -2204 -2140 -2156 -2152 -1128 -1320 0
-3336 -3396 -2388 -2140 -604 -668 -684 -680 -1192 -1320 0
-1608 -1732 -724 -220 -412 -2332 -2348 -2344 -3112 -1576 0
-1672 -1732 -724 -220 -2140 -2332 -2348 -2344 -1320 -1576 0
-1672 -3716 -2708 -2204 -2140 -348 -364 -360 -1320 -1576 0
-3592 -3844 -2836 -2332 -348 -220 -236 -232 -1192 -1576 0
-3336 -3396 -2388 -348 -220 -668 -684 -680 -1576 -3112 0
-2248 -2500 -468 -412 -1308 -1564 -1580 -1576 -2600 -2152 0
-2248 -2756 -724 -668 -796 -1308 -1324 -1320 -3112 -2152 0
-2632 -2756 -724 -668 -1180 -1308 -1324 -1320 -2344 -2152 0
-2248 -2756 -724 -604 -1564 -1308 -1324 -1320 -2344 -2216 0
-2696 -3716 -1684 -1564 -1308 -348 -364 -360 -2152 -2216 0
-2376 -2500 -468 -220 -1180 -1564 -1580 -1576 -2600 -2344 0
-2440 -2500 -468 -220 -604 -1564 -1580 -1576 -3112 -2344 0
-2824 -2884 -852 -604 -1116 -1180 -1196 -1192 -2216 -2344 0
-2824 -3844 -1812 -1564 -1180 -220 -236 -232 -2152 -2344 0
-2696 -3716 -1684 -1180 -1116 -348 -364 -360 -2344 -2600 0
-2824 -2884 -852 -348 -220 -1180 -1196 -1192 -3112 -2600 0
-2824 -2948 -916 -412 -1180 -1116 -1132 -1128 -2152 -2600 0
-2824 -3844 -1812 -1308 -1180 -220 -236 -232 -2152 -2600 0
-3144 -3652 -1620 -604 -668 -412 -428 -424 -2344 -3112 0
-3208 -3460 -1428 -412 -348 -604 -620 -616 -2600 -3112 0
-3336 -3460 -1428 -412 -668 -604 -620 -616 -2152 -3112 0
-3336 -3844 -1812 -796 -668 -220 -236 -232 -2152 -3112 0
-1224 -1476 -1428 -1332 -2356 -2612 -2604 -2576 -592 -208 0
-840 -964 -916 -692 -1204 -3124 -3116 -3088 -2128 -336 0
-712 -964 -916 -436 -2356 -3124 -3116 -3088 -1104 -592 0
-712 -1732 -1684 -1204 -3124 -2356 -2348 -2320 -336 -592 0
-840 -964 -916 -436 -1204 -3124 -3116 -3088 -2128 -592 0
-1608 -1860 -1812 -1332 -436 -2228 -2220 -2192 -2128 -592 0
-1224 -1476 -1364 -1332 -2356 -2612 -2604 -2576 -656 -208 0
-904 -1924 -1812 -1588 -1140 -2164 -2156 -2128 -2192 -400 0
-712 -964 -852 -372 -2356 -3124 -3116 -3088 -1168 -656 0
-712 -2756 -2644 -2164 -2356 -1332 -1324 -1296 -1168 -656 0
-3208 -3460 -3348 -2356 -372 -628 -620 -592 -656 -1168 0
-2440 -3460 -3348 -1332 -1140 -628 -620 -592 -656 -2192 0
-840 -964 -724 -692 -2228 -3124 -3116 -3088 -1296 -336 0
-840 -1860 -1620 -1588 -1204 -2228 -2220 -2192 -2320 -336 0
-456 -964 -724 -628 -2612 -3124 -3116 -3088 -1296 -400 0
-904 -1924 -1684 -1588 -1140 -2164 -2156 -2128 -2320 -400 0
-904 -964 -724 -244 -1140 -3124 -3116 -3088 -2320 -784 0
-1800 -1860 -1620 -1140 -244 -2228 -2220 -2192 -2320 -784 0
-1800 -1860 -1620 -1140 -2164 -2228 -2220 -2192 -400 -784 0
-1800 -1924 -1684 -1204 -244 -2164 -2156 -2128 -2320 -784 0
-2824 -2948 -2708 -2228 -1204 -1140 -1132 -1104 -336 -784 0
-1800 -1860 -1620 -628 -244 -2228 -2220 -2192 -2320 -1296 0
-3336 -3396 -3156 -2164 -244 -692 -684 -656 -784 -1296 0
-3336 -3396 -3156 -2164 -628 -692 -684 -656 -400 -1296 0
-2440 -3460 -3220 -1204 -1140 -628 -620 -592 -784 -2320 0
-712 -964 -468 -372 -2356 -3124 -3116 -3088 -1552 -656 0
-904 -2948 -2452 -2356 -3124 -1140 -1132 -1104 -592 -656 0
-1672 -1732 -1236 -1140 -2164 -2356 -2348 -2320 -784 -656 0
-904 -964 -468 -244 -1140 -3124 -3116 -3088 -2576 -784 0
-904 -964 -468 -244 -2164 -3124 -3116 -3088 -1552 -784 0
-1800 -1860 -1364 -1140 -244 -2228 -2220 -2192 -2576 -784 0
-1800 -1924 -1428 -1204 -2228 -2164 -2156 -2128 -592 -784 0
-1800 -3844 -3348 -3124 -2164 -244 -236 -208 -656 -784 0
-2824 -2884 -2388 -2164 -1140 -1204 -1196 -1168 -656 -784 0
-1800 -1860 -1364 -372 -2164 -2228 -2220 -2192 -656 -1552 0
-2824 -2884 -2388 -372 -244 -1204 -1196 -1168 -1552 -2576 0
-3592 -3844 -3348 -1332 -372 -244 -236 -208 -656 -2576 0
-1224 -1476 -468 -372 -2356 -2612 -2604 -2576 -1552 -1168 0
-1672 -3716 -2708 -2612 -2356 -372 -364 -336 -1104 -1168 0
-1800 -3844 -2836 -2612 -2164 -244 -236 -208 -1168 -1296 0
-3336 -3460 -2452 -2228 -244 -628 -620 -592 -1552 -1296 0
-1800 -1860 -852 -372 -2164 -2228 -2220 -2192 -1168 -1552 0
-3208 -3268 -2260 -244 -372 -820 -812 -784 -1552 -3088 0
-3336 -3844 -2836 -820 -692 -244 -236 -208 -1104 -3088 0
-2376 -2884 -852 -820 -1588 -1204 -1196 -1168 -2192 -2128 0
-2376 -3396 -1364 -1332 -1204 -692 -684 -656 -2576 -2128 0
-2632 -3652 -1620 -1588 -1332 -436 -428 -400 -2192 -2128 0
-2376 -3396 -1364 -1140 -1204 -692 -684 -656 -2576 -2320 0
-2376 -3396 -1364 -1140 -1588 -692 -684 -656 -2192 -2320 0
-2824 -2948 -916 -692 -1204 -1140 -1132 -1104 -2128 -2320 0
-2824 -3844 -1812 -1588 -1140 -244 -236 -208 -2192 -2320 0
-3336 -3844 -1812 -1588 -628 -244 -236 -208 -2192 -2320 0
-2696 -2948 -916 -436 -1332 -1140 -1132 -1104 -2128 -2576 0
-3144 -3396 -1364 -372 -436 -692 -684 -656 -2576 -3088 0
-3208 -3460 -1428 -436 -820 -628 -620 -592 -2128 -3088 0
-3336 -3844 -1812 -820 -692 -244 -236 -208 -2128 -3088 0
-456 -2500 -2468 -2348 -2604 -1580 -1564 -1560 -1112 -216 0
-2248 -2500 -2468 -2348 -812 -1580 -1564 -1560 -1112 -216 0
-2248 -2756 -2724 -2604 -1580 -1324 -1308 -1304 -344 -216 0
-456 -964 -932 -684 -1580 -3116 -3100 -3096 -2136 -344 0
-456 -964 -932 -684 -2604 -3116 -3100 -3096 -1112 -344 0
-456 -1476 -1444 -1196 -1580 -2604 -2588 -2584 -2136 -344 0
-456 -1476 -1444 -1196 -3116 -2604 -2588 -2584 -600 -344 0
-456 -2500 -2468 -2220 -2604 -1580 -1564 -1560 -1112 -344 0
-840 -1860 -1828 -1580 -3116 -2220 -2204 -2200 -216 -344 0
-1352 -1860 -1828 -1580 -2604 -2220 -2204 -2200 -216 -344 0
-2376 -2884 -2852 -2604 -684 -1196 -1180 -1176 -1112 -344 0
-2376 -3396 -3364 -3116 -1580 -684 -668 -664 -216 -344 0
-1352 -1860 -1828 -812 -2604 -2220 -2204 -2200 -216 -1112 0
-2248 -2756 -2724 -684 -1580 -1324 -1308 -1304 -344 -2136 0
-456 -2500 -2404 -2348 -2604 -1580 -1564 -1560 -1176 -216 0
-712 -1732 -1636 -1580 -1324 -2348 -2332 -2328 -2200 -216 0
-2248 -2500 -2404 -2348 -812 -1580 -1564 -1560 -1176 -216 0
-2248 -2500 -2404 -2348 -1324 -1580 -1564 -1560 -664 -216 0
-456 -2500 -2404 -2156 -2604 -1580 -1564 -1560 -1176 -408 0
-456 -2500 -2404 -2156 -3116 -1580 -1564 -1560 -664 -408 0
-904 -1924 -1828 -1580 -3116 -2156 -2140 -2136 -216 -408 0
-1416 -1924 -1828 -1580 -620 -2156 -2140 -2136 -2200 -408 0
-712 -2756 -2660 -2156 -2348 -1324 -1308 -1304 -1176 -664 0
-904 -1924 -1828 -1324 -1132 -2156 -2140 -2136 -2200 -664 0
-904 -1924 -1828 -1324 -3116 -2156 -2140 -2136 -216 -664 0
-1672 -1924 -1828 -1324 -364 -2156 -2140 -2136 -2200 -664 0
-2696 -2948 -2852 -2348 -1324 -1132 -1116 -1112 -216 -664 0
-1672 -1732 -1636 -620 -2156 -2348 -2332 -2328 -408 -1176 0
-1672 -1924 -1828 -812 -364 -2156 -2140 -2136 -2200 -1176 0
-1672 -1924 -1828 -812 -2348 -2156 -2140 -2136 -216 -1176 0
-2696 -2948 -2852 -812 -364 -1132 -1116 -1112 -1176 -2200 0
-456 -964 -740 -684 -1580 -3116 -3100 -3096 -2328 -344 0
-456 -1476 -1252 -1196 -1580 -2604 -2588 -2584 -2328 -344 0
-456 -1476 -1252 -1196 -3116 -2604 -2588 -2584 -792 -344 0
-456 -2500 -2276 -2220 -3116 -1580 -1564 -1560 -792 -344 0
-840 -964 -740 -684 -2220 -3116 -3100 -3096 -1304 -344 0
-2376 -2884 -2660 -2604 -1580 -1196 -1180 -1176 -408 -344 0
-456 -2500 -2276 -2156 -2604 -1580 -1564 -1560 -1304 -408 0
-456 -2500 -2276 -2156 -3116 -1580 -1564 -1560 -792 -408 0
-904 -2948 -2724 -2604 -2156 -1132 -1116 -1112 -1304 -408 0
-2440 -2500 -2276 -2156 -620 -1580 -1564 -1560 -1304 -408 0
-840 -964 -740 -236 -2220 -3116 -3100 -3096 -1304 -792 0
-1800 -1924 -1700 -1196 -2220 -2156 -2140 -2136 -344 -792 0
-2824 -2884 -2660 -2156 -1132 -1196 -1180 -1176 -408 -792 0
-1800 -1924 -1700 -684 -2220 -2156 -2140 -2136 -344 -1304 0
-2376 -2500 -2276 -236 -1196 -1580 -1564 -1560 -792 -2328 0
-2440 -2500 -2276 -236 -620 -1580 -1564 -1560 -1304 -2328 0
-712 -964 -484 -428 -1324 -3116 -3100 -3096 -2584 -600 0
-712 -2756 -2276 -2220 -2348 -1324 -1308 -1304 -1560 -600 0
-2632 -2756 -2276 -2220 -1196 -1324 -1308 -1304 -792 -600 0
-712 -964 -484 -364 -1324 -3116 -3100 -3096 -2584 -664 0
-712 -1732 -1252 -1132 -1324 -2348 -2332 -2328 -2584 -664 0
-712 -2756 -2276 -2156 -2348 -1324 -1308 -1304 -1560 -664 0
-904 -964 -484 -364 -2156 -3116 -3100 -3096 -1560 -664 0
-904 -1924 -1444 -1196 -1132 -2156 -2140 -2136 -2584 -792 0
-1800 -1860 -1380 -1132 -2156 -2220 -2204 -2200 -664 -792 0
-2824 -3844 -3364 -3116 -1132 -236 -220 -216 -664 -792 0
-1672 -1924 -1444 -428 -364 -2156 -2140 -2136 -2584 -1560 0
-1672 -1924 -1444 -428 -2348 -2156 -2140 -2136 -600 -1560 0
-1800 -1860 -1380 -364 -2156 -2220 -2204 -2200 -664 -1560 0
-2632 -2756 -2276 -236 -428 -1324 -1308 -1304 -1560 -2584 0
-2696 -2756 -2276 -236 -1132 -1324 -1308 -1304 -792 -2584 0
-1224 -1476 -484 -364 -2348 -2604 -2588 -2584 -1560 -1176 0
-1416 -1924 -932 -812 -2604 -2156 -2140 -2136 -1112 -1176 0
-1672 -1732 -740 -620 -2156 -2348 -2332 -2328 -1304 -1176 0
-1352 -1476 -484 -236 -684 -2604 -2588 -2584 -3096 -1304 0
-1352 -1476 -484 -236 -2220 -2604 -2588 -2584 -1560 -1304 0
-1416 -1924 -932 -684 -620 -2156 -2140 -2136 -3096 -1304 0
-1608 -1732 -740 -236 -2220 -2348 -2332 -2328 -1304 -1560 0
-1672 -1732 -740 -236 -364 -2348 -2332 -2328 -3096 -1560 0
-1800 -1924 -932 -428 -2220 -2156 -2140 -2136 -1112 -1560 0
-3144 -3268 -2276 -236 -428 -812 -796 -792 -1560 -3096 0
-3144 -3268 -2276 -236 -684 -812 -796 -792 -1304 -3096 0
-3208 -3268 -2276 -236 -364 -812 -796 -792 -1560 -3096 0
-2248 -3268 -1252 -1196 -1580 -812 -796 -792 -2328 -2136 0
-2632 -2756 -740 -684 -428 -1324 -1308 -1304 -3096 -2136 0
-3144 -3652 -1636 -1580 -684 -428 -412 -408 -2328 -2136 0
-2248 -2500 -484 -364 -812 -1580 -1564 -1560 -3096 -2200 0
-2248 -2756 -740 -620 -1580 -1324 -1308 -1304 -2328 -2200 0
-2440 -2500 -484 -364 -1132 -1580 -1564 -1560 -2584 -2200 0
-3208 -3268 -1252 -1132 -364 -812 -796 -792 -2584 -2200 0
-2440 -2500 -484 -236 -1132 -1580 -1564 -1560 -2584 -2328 0
-2440 -2948 -932 -684 -620 -1132 -1116 -1112 -3096 -2328 0
-2824 -3844 -1828 -1580 -1196 -236 -220 -216 -2136 -2328 0
-2696 -2948 -932 -428 -364 -1132 -1116 -1112 -3096 -2584 0
-2696 -2948 -932 -428 -1324 -1132 -1116 -1112 -2136 -2584 0
-2824 -2948 -932 -428 -236 -1132 -1116 -1112 -3096 -2584 0
-2824 -2948 -932 -428 -1196 -1132 -1116 -1112 -2136 -2584 0
-3208 -3268 -1252 -236 -364 -812 -796 -792 -2584 -3096 0
-3336 -3460 -1444 -428 -684 -620 -604 -600 -2136 -3096 0
-3336 -3844 -1828 -812 -620 -236 -220 -216 -2200 -3096 0
-3592 -3716 -1700 -684 -428 -364 -348 -344 -2136 -3096 0
-3592 -3844 -1828 -812 -364 -236 -220 -216 -2200 -3096 0
-3592 -3844 -1828 -812 -428 -236 -220 -216 -2136 -3096 0
-1224 -3268 -3236 -3124 -2356 -820 -796 -784 -592 -208 0
-456 -964 -932 -692 -2612 -3124 -3100 -3088 -1104 -336 0
-456 -1476 -1444 -1204 -1588 -2612 -2588 -2576 -2128 -336 0
-840 -2884 -2852 -2612 -2228 -1204 -1180 -1168 -1104 -336 0
-1352 -1860 -1828 -1588 -2612 -2228 -2204 -2192 -208 -336 0
-2376 -2500 -2468 -2228 -1204 -1588 -1564 -1552 -592 -336 0
-1352 -3396 -3364 -2356 -2228 -692 -668 -656 -592 -1104 0
-456 -964 -868 -820 -2612 -3124 -3100 -3088 -1168 -208 0
-2248 -2500 -2404 -2356 -1332 -1588 -1564 -1552 -656 -208 0
-2248 -2756 -2660 -2612 -1588 -1332 -1308 -1296 -400 -208 0
-456 -2500 -2404 -2164 -2612 -1588 -1564 -1552 -1168 -400 0
-904 -2948 -2852 -2612 -2164 -1140 -1116 -1104 -1168 -400 0
-2440 -2948 -2852 -2612 -628 -1140 -1116 -1104 -1168 -400 0
-904 -964 -868 -372 -1140 -3124 -3100 -3088 -2192 -656 0
-904 -964 -868 -372 -2164 -3124 -3100 -3088 -1168 -656 0
-904 -1924 -1828 -1332 -1140 -2164 -2140 -2128 -2192 -656 0
-904 -1924 -1828 -1332 -3124 -2164 -2140 -2128 -208 -656 0
-1672 -1924 -1828 -1332 -2356 -2164 -2140 -2128 -208 -656 0
-2696 -2948 -2852 -2356 -372 -1140 -1116 -1104 -1168 -656 0
-1416 -1924 -1828 -820 -628 -2164 -2140 -2128 -2192 -1168 0
-1672 -1924 -1828 -820 -372 -2164 -2140 -2128 -2192 -1168 0
-2696 -2948 -2852 -820 -372 -1140 -1116 -1104 -1168 -2192 0
-2696 -3716 -3620 -1588 -1332 -372 -348 -336 -208 -2192 0
-3208 -3268 -3172 -1140 -628 -820 -796 -784 -400 -2192 0
-456 -1476 -1252 -1204 -3124 -2612 -2588 -2576 -784 -336 0
-456 -2500 -2276 -2228 -3124 -1588 -1564 -1552 -784 -336 0
-456 -2500 -2276 -2164 -2612 -1588 -1564 -1552 -1296 -400 0
-456 -2500 -2276 -2164 -3124 -1588 -1564 -1552 -784 -400 0
-904 -1924 -1700 -1588 -3124 -2164 -2140 -2128 -336 -400 0
-840 -2884 -2660 -2164 -3124 -1204 -1180 -1168 -400 -784 0
-904 -1924 -1700 -1204 -3124 -2164 -2140 -2128 -336 -784 0
-904 -2948 -2724 -2228 -3124 -1140 -1116 -1104 -336 -784 0
-1800 -1860 -1636 -1140 -2164 -2228 -2204 -2192 -400 -784 0
-1800 -1924 -1700 -1204 -2228 -2164 -2140 -2128 -336 -784 0
-3336 -3460 -3236 -2228 -692 -628 -604 -592 -336 -1296 0
-2824 -2948 -2724 -692 -1204 -1140 -1116 -1104 -336 -2320 0
-712 -1732 -1252 -1204 -3124 -2356 -2332 -2320 -784 -592 0
-712 -2756 -2276 -2228 -3124 -1332 -1308 -1296 -784 -592 0
-840 -1860 -1380 -1332 -3124 -2228 -2204 -2192 -656 -592 0
-840 -2884 -2404 -2356 -3124 -1204 -1180 -1168 -656 -592 0
-712 -964 -484 -372 -1332 -3124 -3100 -3088 -2576 -656 0
-904 -964 -484 -372 -1140 -3124 -3100 -3088 -2576 -656 0
-904 -1924 -1444 -1332 -1140 -2164 -2140 -2128 -2576 -656 0
-1672 -1732 -1252 -1140 -372 -2356 -2332 -2320 -2576 -656 0
-2696 -2948 -2468 -2356 -1332 -1140 -1116 -1104 -592 -656 0
-840 -964 -484 -244 -2228 -3124 -3100 -3088 -1552 -784 0
-840 -2884 -2404 -2164 -2228 -1204 -1180 -1168 -1552 -784 0
-904 -1924 -1444 -1204 -1140 -2164 -2140 -2128 -2576 -784 0
-1800 -1924 -1444 -1204 -244 -2164 -2140 -2128 -2576 -784 0
-1800 -1924 -1444 -1204 -2228 -2164 -2140 -2128 -592 -784 0
-1800 -3844 -3364 -3124 -2164 -244 -220 -208 -656 -784 0
-1800 -3844 -3364 -3124 -2228 -244 -220 -208 -592 -784 0
-2824 -3844 -3364 -3124 -1204 -244 -220 -208 -592 -784 0
-1800 -1924 -1444 -436 -2228 -2164 -2140 -2128 -592 -1552 0
-3592 -3716 -3236 -2228 -436 -372 -348 -336 -592 -1552 0
-3592 -3844 -3364 -2356 -372 -244 -220 -208 -656 -1552 0
-2824 -2884 -2404 -372 -244 -1204 -1180 -1168 -1552 -2576 0
-2824 -2884 -2404 -372 -1140 -1204 -1180 -1168 -656 -2576 0
-1352 -1476 -484 -436 -692 -2612 -2588 -2576 -3088 -1104 0
-1352 -3396 -2404 -2356 -2612 -692 -668 -656 -1168 -1104 0
-1224 -1476 -484 -372 -2356 -2612 -2588 -2576 -1552 -1168 0
-1224 -1732 -740 -628 -2612 -2356 -2332 -2320 -1296 -1168 0
-1416 -1924 -932 -820 -2612 -2164 -2140 -2128 -1104 -1168 0
-1672 -1732 -740 -628 -2164 -2356 -2332 -2320 -1296 -1168 0
-1672 -3716 -2724 -2612 -2356 -372 -348 -336 -1104 -1168 0
-1800 -1924 -932 -692 -2228 -2164 -2140 -2128 -1104 -1296 0
-1800 -1860 -868 -372 -244 -2228 -2204 -2192 -3088 -1552 0
-1800 -1860 -868 -372 -2164 -2228 -2204 -2192 -1168 -1552 0
-1800 -3844 -2852 -2356 -2164 -244 -220 -208 -1168 -1552 0
-3144 -3396 -2404 -372 -820 -692 -668 -656 -1168 -3088 0
-3208 -3460 -2468 -436 -820 -628 -604 -592 -1104 -3088 0
-2248 -3268 -1252 -1204 -1332 -820 -796 -784 -2576 -2128 0
-2248 -2500 -484 -372 -1332 -1588 -1564 -1552 -2576 -2192 0
-2824 -3844 -1828 -1588 -1204 -244 -220 -208 -2128 -2320 0
-3336 -3844 -1828 -1588 -628 -244 -220 -208 -2192 -2320 0
-2696 -3716 -1700 -1204 -1140 -372 -348 -336 -2320 -2576 0
-2824 -2948 -932 -436 -1204 -1140 -1116 -1104 -2128 -2576 0
