p cnf 4096 2737
-6 0
-23 0
-27 0
-32 0
-39 0
-43 0
-48 0
-56 0
-60 0
-71 0
-75 0
-80 0
-83 0
-88 0
-92 0
-99 0
-104 0
-108 0
-116 0
-135 0
-139 0
-144 0
-147 0
-152 0
-156 0
-163 0
-168 0
-172 0
-180 0
-200 0
-204 0
-212 0
-228 0
-258 0
-263 0
-267 0
-272 0
-275 0
-280 0
-284 0
-291 0
-296 0
-300 0
-308 0
-323 0
-328 0
-332 0
-340 0
-356 0
-387 0
-392 0
-396 0
-404 0
-420 0
-452 0
-519 0
-523 0
-531 0
-536 0
-540 0
-556 0
-564 0
-579 0
-584 0
-588 0
-596 0
-612 0
-643 0
-648 0
-652 0
-660 0
-676 0
-708 0
-776 0
-780 0
-788 0
-804 0
-836 0
-900 0
-1031 0
-1035 0
-1040 0
-1043 0
-1048 0
-1052 0
-1059 0
-1064 0
-1068 0
-1076 0
-1096 0
-1100 0
-1108 0
-1124 0
-1155 0
-1164 0
-1172 0
-1188 0
-1220 0
-1283 0
-1288 0
-1292 0
-1300 0
-1316 0
-1348 0
-1412 0
-1544 0
-1548 0
-1556 0
-1572 0
-1604 0
-1668 0
-1796 0
-2055 0
-2059 0
-2064 0
-2067 0
-2072 0
-2076 0
-2088 0
-2092 0
-2115 0
-2120 0
-2124 0
-2132 0
-2184 0
-2188 0
-2196 0
-2212 0
-2307 0
-2312 0
-2316 0
-2324 0
-2340 0
-2372 0
-2436 0
-2563 0
-2568 0
-2572 0
-2580 0
-2628 0
-2692 0
-2820 0
-3080 0
-3084 0
-3092 0
-3108 0
-3140 0
-3204 0
-3332 0
-3588 0
-14 5 0
-390 134 262 6 -5 0
-31 14 0
-31 22 0
-22 86 0
-599 87 535 23 -22 0
-1111 87 1047 23 -22 0
-2135 87 2071 23 -22 0
-407 151 279 23 -22 0
-663 151 535 23 -22 0
-2199 151 2071 23 -22 0
-22 278 0
-2327 279 2071 23 -22 0
-1559 535 1047 23 -22 0
-2583 535 2071 23 -22 0
-22 2070 0
-31 26 0
-1115 91 1051 27 -26 0
-2139 91 2075 27 -26 0
-411 155 283 27 -26 0
-667 155 539 27 -26 0
-2203 155 2075 27 -26 0
-2331 283 2075 27 -26 0
-26 2074 0
-64 31 0
-31 95 0
-224 96 160 32 -31 0
-352 96 288 32 -31 0
-608 96 544 32 -31 0
-1120 96 1056 32 -31 0
-2144 96 2080 32 -31 0
-672 160 544 32 -31 0
-1184 160 1056 32 -31 0
-31 1055 0
-3104 1056 2080 32 -31 0
-31 2079 0
-47 38 0
-1127 103 1063 39 -38 0
-2151 103 2087 39 -38 0
-423 167 295 39 -38 0
-1191 167 1063 39 -38 0
-2215 167 2087 39 -38 0
-1319 295 1063 39 -38 0
-2343 295 2087 39 -38 0
-47 42 0
-363 107 299 43 -42 0
-619 107 555 43 -42 0
-1131 107 1067 43 -42 0
-2155 107 2091 43 -42 0
-427 171 299 43 -42 0
-1195 171 1067 43 -42 0
-2219 171 2091 43 -42 0
-1323 299 1067 43 -42 0
-2347 299 2091 43 -42 0
-2603 555 2091 43 -42 0
-64 47 0
-47 111 0
-240 112 176 48 -47 0
-1136 112 1072 48 -47 0
-2160 112 2096 48 -47 0
-47 175 0
-432 176 304 48 -47 0
-1200 176 1072 48 -47 0
-2224 176 2096 48 -47 0
-47 303 0
-1584 560 1072 48 -47 0
-47 1071 0
-3120 1072 2096 48 -47 0
-47 2095 0
-64 55 0
-55 119 0
-248 120 184 56 -55 0
-376 120 312 56 -55 0
-1144 120 1080 56 -55 0
-2168 120 2104 56 -55 0
-55 183 0
-440 184 312 56 -55 0
-696 184 568 56 -55 0
-1208 184 1080 56 -55 0
-2232 184 2104 56 -55 0
-824 312 568 56 -55 0
-55 567 0
-1592 568 1080 56 -55 0
-55 1079 0
-3128 1080 2104 56 -55 0
-55 2103 0
-64 59 0
-59 123 0
-252 124 188 60 -59 0
-380 124 316 60 -59 0
-636 124 572 60 -59 0
-1148 124 1084 60 -59 0
-2172 124 2108 60 -59 0
-59 187 0
-444 188 316 60 -59 0
-700 188 572 60 -59 0
-1212 188 1084 60 -59 0
-2236 188 2108 60 -59 0
-59 315 0
-828 316 572 60 -59 0
-1340 316 1084 60 -59 0
-2364 316 2108 60 -59 0
-59 571 0
-59 1083 0
-3132 1084 2108 60 -59 0
-59 2107 0
-64 128 0
-64 192 0
-64 320 0
-64 576 0
-64 1088 0
-64 2112 0
-95 79 87 71 -70 0
-87 70 0
-119 87 103 71 -70 0
-215 87 199 71 -70 0
-1111 87 1095 71 -70 0
-2151 103 2119 71 -70 0
-711 199 583 71 -70 0
-583 70 0
-1095 70 0
-2119 70 0
-111 79 107 75 -74 0
-91 74 0
-123 91 107 75 -74 0
-235 107 203 75 -74 0
-363 107 331 75 -74 0
-459 203 331 75 -74 0
-331 74 0
-843 331 587 75 -74 0
-587 74 0
-1099 74 0
-128 96 112 80 -79 0
-1232 208 1104 80 -79 0
-115 82 0
-1363 339 1107 83 -82 0
-1619 595 1107 83 -82 0
-96 87 0
-128 96 120 88 -87 0
-1120 96 1112 88 -87 0
-120 87 0
-248 120 216 88 -87 0
-1144 120 1112 88 -87 0
-216 87 0
-472 216 344 88 -87 0
-1240 216 1112 88 -87 0
-87 343 0
-344 87 0
-1367 343 1111 87 -86 0
-2392 344 2136 88 -87 0
-87 599 0
-600 87 0
-2648 600 2136 88 -87 0
-87 1111 0
-87 2135 0
-2136 87 0
-96 91 0
-128 96 124 92 -91 0
-224 96 220 92 -91 0
-608 96 604 92 -91 0
-124 91 0
-252 124 220 92 -91 0
-636 124 604 92 -91 0
-220 91 0
-476 220 348 92 -91 0
-732 220 604 92 -91 0
-1244 220 1116 92 -91 0
-348 91 0
-91 603 0
-1116 91 0
-2140 91 0
-1248 224 1120 96 -95 0
-96 608 0
-2656 608 2144 96 -95 0
-363 107 355 99 -98 0
-1131 107 1123 99 -98 0
-115 98 0
-112 103 0
-128 112 120 104 -103 0
-624 112 616 104 -103 0
-1136 112 1128 104 -103 0
-2160 112 2152 104 -103 0
-120 103 0
-248 120 232 104 -103 0
-232 103 0
-744 232 616 104 -103 0
-1256 232 1128 104 -103 0
-2280 232 2152 104 -103 0
-360 103 0
-1384 360 1128 104 -103 0
-103 615 0
-103 1127 0
-2152 103 0
-112 107 0
-128 112 124 108 -107 0
-240 112 236 108 -107 0
-624 112 620 108 -107 0
-1136 112 1132 108 -107 0
-124 107 0
-252 124 236 108 -107 0
-2172 124 2156 108 -107 0
-236 107 0
-492 236 364 108 -107 0
-748 236 620 108 -107 0
-2284 236 2156 108 -107 0
-364 107 0
-107 619 0
-620 107 0
-1132 107 0
-107 2155 0
-112 1136 0
-112 2160 0
-128 120 124 116 -115 0
-376 120 372 116 -115 0
-632 120 628 116 -115 0
-1144 120 1140 116 -115 0
-2168 120 2164 116 -115 0
-380 124 372 116 -115 0
-636 124 628 116 -115 0
-1148 124 1140 116 -115 0
-2172 124 2164 116 -115 0
-244 115 0
-884 372 628 116 -115 0
-115 627 0
-1652 628 1140 116 -115 0
-119 631 0
-120 632 0
-2680 632 2168 120 -119 0
-120 1144 0
-120 2168 0
-124 380 0
-123 635 0
-124 636 0
-2684 636 2172 124 -123 0
-123 1147 0
-124 2172 0
-128 640 0
-128 1152 0
-1167 143 1159 135 -134 0
-151 134 0
-183 151 167 135 -134 0
-215 151 199 135 -134 0
-1175 151 1159 135 -134 0
-199 134 0
-711 199 647 135 -134 0
-391 134 0
-647 134 0
-1159 134 0
-143 138 0
-175 143 171 139 -138 0
-155 138 0
-235 171 203 139 -138 0
-651 138 0
-1163 138 0
-160 143 0
-192 160 176 144 -143 0
-1184 160 1168 144 -143 0
-2256 208 2192 144 -143 0
-1175 151 1171 147 -146 0
-2203 155 2195 147 -146 0
-179 146 0
-160 151 0
-192 160 184 152 -151 0
-224 160 216 152 -151 0
-672 160 664 152 -151 0
-2208 160 2200 152 -151 0
-184 151 0
-248 184 216 152 -151 0
-1208 184 1176 152 -151 0
-216 151 0
-472 216 408 152 -151 0
-728 216 664 152 -151 0
-1240 216 1176 152 -151 0
-2264 216 2200 152 -151 0
-151 407 0
-408 151 0
-920 408 664 152 -151 0
-151 663 0
-664 151 0
-2200 151 0
-160 155 0
-192 160 188 156 -155 0
-224 160 220 156 -155 0
-672 160 668 156 -155 0
-188 155 0
-252 188 220 156 -155 0
-2236 188 2204 156 -155 0
-220 155 0
-476 220 412 156 -155 0
-732 220 668 156 -155 0
-1244 220 1180 156 -155 0
-2268 220 2204 156 -155 0
-155 411 0
-412 155 0
-155 667 0
-155 1179 0
-155 2203 0
-2204 155 0
-160 672 0
-160 1184 0
-423 167 419 163 -162 0
-427 171 419 163 -162 0
-1195 171 1187 163 -162 0
-179 162 0
-176 167 0
-192 176 184 168 -167 0
-688 176 680 168 -167 0
-1200 176 1192 168 -167 0
-2224 176 2216 168 -167 0
-184 167 0
-248 184 232 168 -167 0
-2232 184 2216 168 -167 0
-232 167 0
-744 232 680 168 -167 0
-1256 232 1192 168 -167 0
-2280 232 2216 168 -167 0
-167 423 0
-424 167 0
-936 424 680 168 -167 0
-167 679 0
-1704 680 1192 168 -167 0
-167 1191 0
-1192 167 0
-2216 167 0
-176 171 0
-192 176 188 172 -171 0
-240 176 236 172 -171 0
-688 176 684 172 -171 0
-188 171 0
-252 188 236 172 -171 0
-2236 188 2220 172 -171 0
-236 171 0
-748 236 684 172 -171 0
-2284 236 2220 172 -171 0
-171 427 0
-171 683 0
-1708 684 1196 172 -171 0
-1196 171 0
-171 2219 0
-1264 240 1200 176 -175 0
-2288 240 2224 176 -175 0
-176 2224 0
-192 184 188 180 -179 0
-440 184 436 180 -179 0
-696 184 692 180 -179 0
-1208 184 1204 180 -179 0
-2232 184 2228 180 -179 0
-444 188 436 180 -179 0
-1212 188 1204 180 -179 0
-244 179 0
-179 435 0
-948 436 692 180 -179 0
-1460 436 1204 180 -179 0
-2484 436 2228 180 -179 0
-179 691 0
-2740 692 2228 180 -179 0
-179 1203 0
-179 2227 0
-184 440 0
-183 695 0
-184 696 0
-183 1207 0
-184 1208 0
-184 2232 0
-188 444 0
-187 699 0
-188 700 0
-187 1211 0
-188 1212 0
-188 2236 0
-192 448 0
-192 704 0
-192 2240 0
-224 208 216 200 -199 0
-216 199 0
-248 216 232 200 -199 0
-472 216 456 200 -199 0
-456 199 0
-968 456 712 200 -199 0
-712 199 0
-720 208 716 204 -203 0
-220 203 0
-252 220 236 204 -203 0
-732 220 716 204 -203 0
-236 203 0
-492 236 460 204 -203 0
-460 203 0
-972 460 716 204 -203 0
-2764 716 2252 204 -203 0
-1228 203 0
-211 215 0
-224 216 220 212 -211 0
-472 216 468 212 -211 0
-728 216 724 212 -211 0
-1240 216 1236 212 -211 0
-2264 216 2260 212 -211 0
-211 219 0
-476 220 468 212 -211 0
-732 220 724 212 -211 0
-2268 220 2260 212 -211 0
-244 211 0
-980 468 724 212 -211 0
-211 723 0
-1748 724 1236 212 -211 0
-2772 724 2260 212 -211 0
-211 1235 0
-736 224 728 216 -215 0
-1248 224 1240 216 -215 0
-2272 224 2264 216 -215 0
-216 472 0
-215 727 0
-216 728 0
-215 1239 0
-216 1240 0
-736 224 732 220 -219 0
-220 476 0
-219 731 0
-220 732 0
-1756 732 1244 220 -219 0
-2780 732 2268 220 -219 0
-219 1243 0
-219 2267 0
-227 231 0
-488 232 484 228 -227 0
-744 232 740 228 -227 0
-227 235 0
-492 236 484 228 -227 0
-748 236 740 228 -227 0
-244 227 0
-996 484 740 228 -227 0
-1508 484 1252 228 -227 0
-2532 484 2276 228 -227 0
-227 739 0
-1764 740 1252 228 -227 0
-2788 740 2276 228 -227 0
-227 1251 0
-232 488 0
-2536 488 2280 232 -231 0
-231 743 0
-232 744 0
-231 1255 0
-231 2279 0
-752 240 748 236 -235 0
-236 492 0
-1516 492 1260 236 -235 0
-2540 492 2284 236 -235 0
-235 747 0
-236 748 0
-2796 748 2284 236 -235 0
-235 1259 0
-235 2283 0
-240 752 0
-244 248 0
-244 252 0
-244 500 0
-244 756 0
-244 1268 0
-248 504 0
-248 760 0
-248 1272 0
-248 2296 0
-252 508 0
-252 764 0
-252 1276 0
-252 2300 0
-278 262 274 258 -257 0
-322 257 0
-2327 279 2311 263 -262 0
-1415 391 1287 263 -262 0
-303 271 299 267 -266 0
-283 266 0
-315 283 299 267 -266 0
-299 266 0
-843 331 779 267 -266 0
-1291 266 0
-2352 304 2320 272 -271 0
-279 274 0
-407 279 403 275 -274 0
-283 274 0
-307 274 0
-435 307 403 275 -274 0
-339 274 0
-915 403 787 275 -274 0
-320 288 312 280 -279 0
-312 279 0
-440 312 408 280 -279 0
-1304 279 0
-2328 279 0
-320 288 316 284 -283 0
-316 283 0
-444 316 412 284 -283 0
-860 348 796 284 -283 0
-412 283 0
-283 795 0
-1308 283 0
-2332 283 0
-295 290 0
-423 295 419 291 -290 0
-299 290 0
-435 307 419 291 -290 0
-931 419 803 291 -290 0
-320 304 312 296 -295 0
-440 312 424 296 -295 0
-1384 360 1320 296 -295 0
-295 423 0
-424 295 0
-2344 295 0
-304 299 0
-320 304 316 300 -299 0
-316 299 0
-444 316 428 300 -299 0
-299 363 0
-364 299 0
-299 427 0
-1452 428 1324 300 -299 0
-2476 428 2348 300 -299 0
-812 299 0
-2348 299 0
-304 1328 0
-304 2352 0
-320 312 316 308 -307 0
-380 316 372 308 -307 0
-444 316 436 308 -307 0
-500 372 436 308 -307 0
-436 307 0
-312 440 0
-316 444 0
-343 327 339 323 -322 0
-322 330 0
-2379 331 2371 323 -322 0
-2387 339 2371 323 -322 0
-1379 355 1347 323 -322 0
-2403 355 2371 323 -322 0
-451 322 0
-472 344 456 328 -327 0
-968 456 840 328 -327 0
-840 327 0
-348 331 0
-331 363 0
-364 331 0
-492 364 460 332 -331 0
-2411 363 2379 331 -330 0
-460 331 0
-972 460 844 332 -331 0
-844 331 0
-344 339 0
-1372 348 1364 340 -339 0
-372 339 0
-500 372 468 340 -339 0
-1396 372 1364 340 -339 0
-468 339 0
-980 468 852 340 -339 0
-852 339 0
-1876 852 1364 340 -339 0
-2400 352 2392 344 -343 0
-504 376 472 344 -343 0
-344 472 0
-984 472 856 344 -343 0
-1368 343 0
-360 355 0
-2408 360 2404 356 -355 0
-355 363 0
-372 355 0
-500 372 484 356 -355 0
-484 355 0
-996 484 868 356 -355 0
-868 355 0
-1892 868 1380 356 -355 0
-1380 355 0
-508 380 492 364 -363 0
-364 492 0
-876 363 0
-2412 363 0
-372 376 0
-372 380 0
-386 390 0
-407 391 403 387 -386 0
-423 391 419 387 -386 0
-411 395 403 387 -386 0
-1427 403 1411 387 -386 0
-1443 419 1411 387 -386 0
-2467 419 2435 387 -386 0
-451 386 0
-408 391 0
-2456 408 2440 392 -391 0
-1448 424 1416 392 -391 0
-972 460 908 396 -395 0
-403 407 0
-408 403 0
-403 411 0
-412 403 0
-444 412 436 404 -403 0
-436 403 0
-500 436 468 404 -403 0
-2484 436 2452 404 -403 0
-468 403 0
-980 468 916 404 -403 0
-916 403 0
-2452 403 0
-408 920 0
-412 1436 0
-412 2460 0
-419 423 0
-424 419 0
-440 424 436 420 -419 0
-936 424 932 420 -419 0
-419 427 0
-428 419 0
-444 428 436 420 -419 0
-436 419 0
-500 436 484 420 -419 0
-2484 436 2468 420 -419 0
-484 419 0
-996 484 932 420 -419 0
-932 419 0
-1956 932 1444 420 -419 0
-2980 932 2468 420 -419 0
-1444 419 0
-2468 419 0
-448 432 440 424 -423 0
-428 432 0
-428 492 0
-1004 492 940 428 -427 0
-428 940 0
-428 2476 0
-436 440 0
-436 444 0
-1972 948 1460 436 -435 0
-2996 948 2484 436 -435 0
-440 1464 0
-444 2492 0
-472 456 468 452 -451 0
-488 456 484 452 -451 0
-451 459 0
-476 460 468 452 -451 0
-492 460 484 452 -451 0
-500 468 484 452 -451 0
-1492 468 1476 452 -451 0
-2516 468 2500 452 -451 0
-964 451 0
-456 472 0
-460 476 0
-460 492 0
-468 472 0
-468 476 0
-484 492 0
-1559 535 1543 519 -518 0
-2583 535 2567 519 -518 0
-583 518 0
-839 583 775 519 -518 0
-1543 518 0
-795 539 779 523 -522 0
-1547 522 0
-567 535 563 531 -530 0
-595 530 0
-544 535 0
-2592 544 2584 536 -535 0
-568 535 0
-1624 600 1560 536 -535 0
-1688 664 1560 536 -535 0
-2712 664 2584 536 -535 0
-535 1559 0
-535 2583 0
-576 544 572 540 -539 0
-608 544 604 540 -539 0
-672 544 668 540 -539 0
-796 539 0
-2588 539 0
-2620 572 2604 556 -555 0
-1836 812 1580 556 -555 0
-632 568 628 564 -563 0
-696 568 692 564 -563 0
-568 632 0
-568 696 0
-952 696 824 568 -567 0
-1720 696 1592 568 -567 0
-1848 824 1592 568 -567 0
-567 1591 0
-568 1592 0
-567 2615 0
-572 636 0
-1660 636 1596 572 -571 0
-572 700 0
-2748 700 2620 572 -571 0
-1852 828 1596 572 -571 0
-571 1595 0
-572 1596 0
-571 2619 0
-2631 583 2627 579 -578 0
-1611 587 1603 579 -578 0
-2635 587 2627 579 -578 0
-1619 595 1603 579 -578 0
-1635 611 1603 579 -578 0
-707 578 0
-728 600 712 584 -583 0
-856 600 840 584 -583 0
-712 583 0
-840 583 0
-2888 840 2632 584 -583 0
-2632 583 0
-620 587 0
-748 620 716 588 -587 0
-972 716 844 588 -587 0
-2636 587 0
-595 599 0
-600 595 0
-628 595 0
-756 628 724 596 -595 0
-724 595 0
-980 724 852 596 -595 0
-1748 724 1620 596 -595 0
-2772 724 2644 596 -595 0
-1876 852 1620 596 -595 0
-2900 852 2644 596 -595 0
-1620 595 0
-2644 595 0
-600 728 0
-984 728 856 600 -599 0
-1632 608 1628 604 -603 0
-2656 608 2652 604 -603 0
-1660 636 1628 604 -603 0
-604 732 0
-1756 732 1628 604 -603 0
-2780 732 2652 604 -603 0
-604 1628 0
-632 616 628 612 -611 0
-611 619 0
-628 611 0
-740 611 0
-996 740 868 612 -611 0
-2788 740 2660 612 -611 0
-1892 868 1636 612 -611 0
-2916 868 2660 612 -611 0
-611 1635 0
-1636 611 0
-2660 611 0
-1648 624 1640 616 -615 0
-1768 744 1640 616 -615 0
-616 1640 0
-1648 624 1644 620 -619 0
-2672 624 2668 620 -619 0
-1772 748 1644 620 -619 0
-2796 748 2668 620 -619 0
-620 1644 0
-628 632 0
-628 636 0
-1908 884 1652 628 -627 0
-627 1651 0
-627 2675 0
-631 1655 0
-632 1656 0
-635 1659 0
-636 1660 0
-636 2684 0
-640 2688 0
-1671 647 1667 643 -642 0
-691 659 675 643 -642 0
-1683 659 1667 643 -642 0
-2707 659 2691 643 -642 0
-1699 675 1667 643 -642 0
-707 642 0
-912 656 904 648 -647 0
-664 647 0
-728 664 712 648 -647 0
-920 664 904 648 -647 0
-712 647 0
-968 712 904 648 -647 0
-1928 904 1672 648 -647 0
-1672 647 0
-668 651 0
-748 684 716 652 -651 0
-940 684 908 652 -651 0
-1676 651 0
-656 672 0
-659 663 0
-664 659 0
-659 667 0
-1692 668 1684 660 -659 0
-756 692 724 660 -659 0
-948 692 916 660 -659 0
-1716 692 1684 660 -659 0
-724 659 0
-980 724 916 660 -659 0
-1748 724 1684 660 -659 0
-2772 724 2708 660 -659 0
-1940 916 1684 660 -659 0
-2964 916 2708 660 -659 0
-1684 659 0
-659 2707 0
-1696 672 1688 664 -663 0
-2720 672 2712 664 -663 0
-664 696 0
-664 728 0
-1752 728 1688 664 -663 0
-2776 728 2712 664 -663 0
-664 920 0
-1944 920 1688 664 -663 0
-2968 920 2712 664 -663 0
-664 1688 0
-1696 672 1692 668 -667 0
-2720 672 2716 668 -667 0
-668 732 0
-988 732 924 668 -667 0
-1756 732 1692 668 -667 0
-2780 732 2716 668 -667 0
-668 1692 0
-667 2715 0
-668 2716 0
-680 675 0
-684 675 0
-692 675 0
-756 692 740 676 -675 0
-1716 692 1700 676 -675 0
-740 675 0
-996 740 932 676 -675 0
-1956 932 1700 676 -675 0
-1700 675 0
-1712 688 1704 680 -679 0
-2736 688 2728 680 -679 0
-1768 744 1704 680 -679 0
-2792 744 2728 680 -679 0
-2984 936 2728 680 -679 0
-680 1704 0
-1712 688 1708 684 -683 0
-2736 688 2732 684 -683 0
-684 748 0
-1004 748 940 684 -683 0
-1772 748 1708 684 -683 0
-2796 748 2732 684 -683 0
-684 1708 0
-684 2732 0
-692 696 0
-692 700 0
-1972 948 1716 692 -691 0
-691 1715 0
-1976 952 1720 696 -695 0
-695 1719 0
-696 1720 0
-695 2743 0
-699 1723 0
-700 1724 0
-704 1728 0
-707 711 0
-720 712 716 708 -707 0
-728 712 724 708 -707 0
-744 712 740 708 -707 0
-707 715 0
-748 716 740 708 -707 0
-1740 716 1732 708 -707 0
-756 724 740 708 -707 0
-1748 724 1732 708 -707 0
-1764 740 1732 708 -707 0
-2788 740 2756 708 -707 0
-964 707 0
-707 1731 0
-1752 728 1736 712 -711 0
-1768 744 1736 712 -711 0
-711 1735 0
-712 1736 0
-736 720 732 716 -715 0
-752 720 748 716 -715 0
-716 732 0
-716 748 0
-1772 748 1740 716 -715 0
-715 1739 0
-716 1740 0
-715 2763 0
-724 728 0
-1752 728 1748 724 -723 0
-724 732 0
-723 1747 0
-724 1748 0
-724 2772 0
-1760 736 1752 728 -727 0
-727 1751 0
-728 1752 0
-1760 736 1756 732 -731 0
-731 1755 0
-732 1756 0
-731 2779 0
-740 744 0
-1768 744 1764 740 -739 0
-740 748 0
-1772 748 1764 740 -739 0
-739 1763 0
-740 1764 0
-743 1767 0
-744 1768 0
-1776 752 1772 748 -747 0
-747 1771 0
-748 1772 0
-756 1780 0
-756 2804 0
-760 1784 0
-764 1788 0
-2888 840 2824 776 -775 0
-904 775 0
-1808 784 1804 780 -779 0
-844 779 0
-2892 844 2828 780 -779 0
-908 779 0
-3852 1804 2828 780 -779 0
-784 912 0
-980 852 916 788 -787 0
-2908 860 2844 796 -795 0
-924 795 0
-996 868 932 804 -803 0
-1900 876 1836 812 -811 0
-940 811 0
-835 839 0
-1864 840 1860 836 -835 0
-2888 840 2884 836 -835 0
-835 843 0
-1868 844 1860 836 -835 0
-2892 844 2884 836 -835 0
-884 852 868 836 -835 0
-1876 852 1860 836 -835 0
-2900 852 2884 836 -835 0
-964 835 0
-835 1859 0
-3908 1860 2884 836 -835 0
-856 2904 0
-920 904 916 900 -899 0
-936 904 932 900 -899 0
-1928 904 1924 900 -899 0
-940 908 932 900 -899 0
-899 915 0
-948 916 932 900 -899 0
-1940 916 1924 900 -899 0
-899 931 0
-1956 932 1924 900 -899 0
-2980 932 2948 900 -899 0
-964 899 0
-899 1923 0
-3972 1924 2948 900 -899 0
-904 936 0
-916 920 0
-916 2964 0
-2984 936 2980 932 -931 0
-964 968 0
-964 972 0
-964 980 0
-964 996 0
-964 1988 0
-964 3012 0
-968 984 0
-968 1000 0
-972 988 0
-972 1004 0
-984 2008 0
-988 2012 0
-988 3036 0
-1000 2024 0
-1000 3048 0
-1004 2028 0
-1004 3052 0
-1039 1030 0
-1351 1095 1287 1031 -1030 0
-1415 1159 1287 1031 -1030 0
-1039 1034 0
-1115 1051 1099 1035 -1034 0
-1088 1056 1072 1040 -1039 0
-1184 1056 1168 1040 -1039 0
-1312 1056 1296 1040 -1039 0
-1568 1056 1552 1040 -1039 0
-1136 1072 1104 1040 -1039 0
-1328 1072 1296 1040 -1039 0
-1584 1072 1552 1040 -1039 0
-1039 1103 0
-1232 1104 1168 1040 -1039 0
-1039 1167 0
-1424 1168 1296 1040 -1039 0
-3088 1039 0
-1055 1047 1051 1043 -1042 0
-1075 1042 0
-1056 1047 0
-1088 1056 1080 1048 -1047 0
-3104 1056 3096 1048 -1047 0
-1080 1047 0
-1208 1080 1176 1048 -1047 0
-3128 1080 3096 1048 -1047 0
-1047 1111 0
-1112 1047 0
-1047 1175 0
-3224 1176 3096 1048 -1047 0
-1304 1047 0
-1047 1559 0
-1560 1047 0
-3096 1047 0
-1056 1051 0
-1088 1056 1084 1052 -1051 0
-3104 1056 3100 1052 -1051 0
-1084 1051 0
-1212 1084 1180 1052 -1051 0
-3132 1084 3100 1052 -1051 0
-1116 1051 0
-1180 1051 0
-1436 1180 1308 1052 -1051 0
-3100 1051 0
-1056 1120 0
-1056 1184 0
-1056 1312 0
-1071 1063 1067 1059 -1058 0
-1191 1063 1187 1059 -1058 0
-1123 1058 0
-1571 1058 0
-1072 1063 0
-1088 1072 1080 1064 -1063 0
-3120 1072 3112 1064 -1063 0
-1080 1063 0
-1144 1080 1128 1064 -1063 0
-1208 1080 1192 1064 -1063 0
-1128 1063 0
-1192 1063 0
-3240 1192 3112 1064 -1063 0
-1320 1063 0
-1576 1063 0
-3112 1063 0
-1072 1067 0
-1088 1072 1084 1068 -1067 0
-3120 1072 3116 1068 -1067 0
-1084 1067 0
-1148 1084 1132 1068 -1067 0
-1212 1084 1196 1068 -1067 0
-3132 1084 3116 1068 -1067 0
-1067 1131 0
-1132 1067 0
-1067 1195 0
-1196 1067 0
-1324 1067 0
-3116 1067 0
-1072 1136 0
-1264 1136 1200 1072 -1071 0
-1088 1080 1084 1076 -1075 0
-1144 1080 1140 1076 -1075 0
-1084 1075 0
-1140 1075 0
-1080 1144 0
-1272 1144 1208 1080 -1079 0
-1656 1144 1592 1080 -1079 0
-1080 1208 0
-1080 1592 0
-1079 3127 0
-1084 1148 0
-1276 1148 1212 1084 -1083 0
-1084 1212 0
-1084 1340 0
-3388 1340 3132 1084 -1083 0
-1084 1596 0
-1083 3131 0
-1095 1111 0
-1095 1127 0
-1128 1095 0
-1736 1224 1608 1096 -1095 0
-1608 1095 0
-3656 1608 3144 1096 -1095 0
-3144 1095 0
-1099 1115 0
-1244 1116 1228 1100 -1099 0
-1099 1131 0
-1132 1099 0
-1740 1228 1612 1100 -1099 0
-1612 1099 0
-3148 1099 0
-1104 1136 0
-1264 1136 1232 1104 -1103 0
-1107 1111 0
-1112 1107 0
-1144 1112 1140 1108 -1107 0
-1240 1112 1236 1108 -1107 0
-1107 1115 0
-1140 1107 0
-1268 1140 1236 1108 -1107 0
-1236 1107 0
-1107 1363 0
-1364 1107 0
-1112 1120 0
-3168 1120 3160 1112 -1111 0
-1656 1144 1624 1112 -1111 0
-3192 1144 3160 1112 -1111 0
-3288 1240 3160 1112 -1111 0
-3416 1368 3160 1112 -1111 0
-1112 1624 0
-1116 1120 0
-1152 1120 1148 1116 -1115 0
-3168 1120 3164 1116 -1115 0
-1244 1115 0
-1120 1248 0
-1128 1123 0
-1144 1128 1140 1124 -1123 0
-3176 1128 3172 1124 -1123 0
-1132 1123 0
-1148 1132 1140 1124 -1123 0
-3180 1132 3172 1124 -1123 0
-1140 1123 0
-1252 1123 0
-1764 1252 1636 1124 -1123 0
-1123 1379 0
-1636 1123 0
-3684 1636 3172 1124 -1123 0
-1128 1136 0
-3184 1136 3176 1128 -1127 0
-1128 1144 0
-3304 1256 3176 1128 -1127 0
-3432 1384 3176 1128 -1127 0
-1128 1640 0
-1140 1144 0
-1140 1148 0
-1140 1396 0
-1144 1656 0
-1148 1660 0
-1147 3195 0
-1159 1154 0
-1731 1219 1667 1155 -1154 0
-3715 1667 3203 1155 -1154 0
-1168 1159 0
-1168 1163 0
-1163 1195 0
-1708 1196 1676 1164 -1163 0
-1676 1163 0
-3724 1676 3212 1164 -1163 0
-3212 1163 0
-1168 1184 0
-1168 1424 0
-1176 1171 0
-1180 1171 0
-1212 1180 1204 1172 -1171 0
-1436 1180 1428 1172 -1171 0
-1204 1171 0
-1236 1171 0
-3284 1236 3220 1172 -1171 0
-1171 1427 0
-1176 1184 0
-1176 1208 0
-1176 1688 0
-1180 1244 0
-1500 1244 1436 1180 -1179 0
-1187 1191 0
-1192 1187 0
-1187 1195 0
-1196 1187 0
-1452 1196 1444 1188 -1187 0
-3244 1196 3236 1188 -1187 0
-1204 1187 0
-1252 1187 0
-3300 1252 3236 1188 -1187 0
-1187 1443 0
-1187 1699 0
-3748 1700 3236 1188 -1187 0
-1192 1448 0
-3260 1212 3244 1196 -1195 0
-1196 1260 0
-1516 1260 1452 1196 -1195 0
-1195 1707 0
-1196 1708 0
-1204 1208 0
-1464 1208 1460 1204 -1203 0
-1204 1212 0
-1204 1716 0
-1208 1720 0
-1207 3255 0
-1212 1724 0
-1211 3259 0
-1988 1476 1732 1220 -1219 0
-1224 1240 0
-1228 1244 0
-1236 1240 0
-1236 1244 0
-1236 1492 0
-1236 1748 0
-3796 1748 3284 1236 -1235 0
-1240 1248 0
-1239 3287 0
-2012 1500 1756 1244 -1243 0
-1244 1756 0
-1243 3291 0
-1252 1256 0
-1252 1764 0
-3812 1764 3300 1252 -1251 0
-1256 1264 0
-1776 1264 1768 1256 -1255 0
-2024 1512 1768 1256 -1255 0
-1256 1768 0
-1255 3303 0
-1260 1264 0
-2028 1516 1772 1260 -1259 0
-1260 1772 0
-1259 3307 0
-1272 3320 0
-1276 3324 0
-1363 1299 1347 1283 -1282 0
-1795 1282 0
-1312 1296 1304 1288 -1287 0
-1424 1296 1416 1288 -1287 0
-3344 1296 3336 1288 -1287 0
-1816 1304 1800 1288 -1287 0
-1287 1319 0
-1832 1320 1800 1288 -1287 0
-1480 1352 1416 1288 -1287 0
-1416 1287 0
-3848 1800 3336 1288 -1287 0
-3336 1287 0
-1296 1291 0
-1312 1296 1308 1292 -1291 0
-3344 1296 3340 1292 -1291 0
-1804 1291 0
-3852 1804 3340 1292 -1291 0
-3340 1291 0
-1299 1303 0
-1340 1308 1332 1300 -1299 0
-1812 1299 0
-3360 1312 3352 1304 -1303 0
-1304 3352 0
-1308 1372 0
-1308 3356 0
-3372 1324 3364 1316 -1315 0
-1828 1315 0
-1320 1384 0
-1896 1384 1832 1320 -1319 0
-3368 1319 0
-3372 1323 0
-1332 1460 0
-1347 1351 0
-1347 1363 0
-1364 1347 0
-3428 1380 3396 1348 -1347 0
-1988 1476 1860 1348 -1347 0
-1860 1347 0
-3908 1860 3396 1348 -1347 0
-1351 1367 0
-1352 1384 0
-1512 1384 1480 1352 -1351 0
-3400 1351 0
-1380 1384 0
-1411 1415 0
-1416 1411 0
-1928 1416 1924 1412 -1411 0
-1428 1411 0
-1411 1443 0
-1444 1411 0
-1476 1411 0
-1988 1476 1924 1412 -1411 0
-1924 1411 0
-3972 1924 3460 1412 -1411 0
-3460 1411 0
-1416 1424 0
-1416 1432 0
-1416 1928 0
-1424 1936 0
-1432 1464 0
-1464 1448 1460 1444 -1443 0
-1444 1452 0
-1476 1484 0
-1476 1508 0
-1484 1516 0
-1543 1559 0
-1816 1560 1800 1544 -1543 0
-1640 1576 1608 1544 -1543 0
-1864 1608 1800 1544 -1543 0
-1672 1543 0
-1928 1672 1800 1544 -1543 0
-3848 1800 3592 1544 -1543 0
-3592 1543 0
-1708 1580 1676 1548 -1547 0
-3596 1547 0
-1748 1620 1684 1556 -1555 0
-1876 1620 1812 1556 -1555 0
-3604 1555 0
-3616 1568 3608 1560 -1559 0
-3672 1624 3608 1560 -1559 0
-3736 1688 3608 1560 -1559 0
-1560 1816 0
-3864 1816 3608 1560 -1559 0
-3608 1559 0
-1560 3608 0
-1764 1636 1700 1572 -1571 0
-1956 1700 1828 1572 -1571 0
-3620 1571 0
-1580 1584 0
-1580 1836 0
-1592 1656 0
-1912 1656 1848 1592 -1591 0
-3704 1656 3640 1592 -1591 0
-3768 1720 3640 1592 -1591 0
-1591 3639 0
-1592 3640 0
-1596 1660 0
-1916 1660 1852 1596 -1595 0
-3708 1660 3644 1596 -1595 0
-1596 1724 0
-1980 1724 1852 1596 -1595 0
-1595 3643 0
-1596 3644 0
-1603 1607 0
-1608 1603 0
-3656 1608 3652 1604 -1603 0
-1603 1611 0
-1612 1603 0
-3660 1612 3652 1604 -1603 0
-1603 1619 0
-3668 1620 3652 1604 -1603 0
-1603 1635 0
-1636 1603 0
-1764 1636 1732 1604 -1603 0
-3684 1636 3652 1604 -1603 0
-1732 1603 0
-1988 1732 1860 1604 -1603 0
-3780 1732 3652 1604 -1603 0
-1860 1603 0
-3908 1860 3652 1604 -1603 0
-3652 1603 0
-1607 1623 0
-1608 1624 0
-1607 1639 0
-1611 1627 0
-1611 1643 0
-3660 1611 0
-1620 1624 0
-1620 1628 0
-1620 1748 0
-3668 1619 0
-3704 1656 3672 1624 -1623 0
-1624 3672 0
-3680 1632 3676 1628 -1627 0
-3708 1660 3676 1628 -1627 0
-1628 3676 0
-1636 1640 0
-3688 1640 3684 1636 -1635 0
-1636 1644 0
-1636 1652 0
-1780 1652 1764 1636 -1635 0
-1636 1764 0
-3684 1635 0
-3696 1648 3688 1640 -1639 0
-1784 1656 1768 1640 -1639 0
-1640 1768 0
-1640 3688 0
-3696 1648 3692 1644 -1643 0
-1644 1660 0
-1644 3692 0
-1652 1656 0
-1912 1656 1908 1652 -1651 0
-1652 1660 0
-1916 1660 1908 1652 -1651 0
-3960 1912 3704 1656 -1655 0
-1656 3704 0
-3964 1916 3708 1660 -1659 0
-1660 3708 0
-1667 1671 0
-3720 1672 3716 1668 -1667 0
-1667 1675 0
-1676 1667 0
-3724 1676 3716 1668 -1667 0
-1667 1683 0
-1684 1667 0
-3732 1684 3716 1668 -1667 0
-1667 1699 0
-1700 1667 0
-1764 1700 1732 1668 -1667 0
-3748 1700 3716 1668 -1667 0
-1732 1667 0
-1988 1732 1924 1668 -1667 0
-3780 1732 3716 1668 -1667 0
-1924 1667 0
-3972 1924 3716 1668 -1667 0
-3716 1667 0
-1671 1687 0
-1671 1703 0
-3720 1671 0
-1675 1691 0
-1675 1707 0
-1676 1740 0
-1684 1688 0
-1684 1692 0
-1724 1692 1716 1684 -1683 0
-3764 1716 3732 1684 -1683 0
-3796 1748 3732 1684 -1683 0
-3732 1683 0
-3744 1696 3736 1688 -1687 0
-1688 1720 0
-3800 1752 3736 1688 -1687 0
-1688 3736 0
-3744 1696 3740 1692 -1691 0
-3804 1756 3740 1692 -1691 0
-1692 3740 0
-1700 1704 0
-3752 1704 3748 1700 -1699 0
-1700 1708 0
-1964 1708 1956 1700 -1699 0
-3756 1708 3748 1700 -1699 0
-3812 1764 3748 1700 -1699 0
-1700 1956 0
-3748 1699 0
-3760 1712 3752 1704 -1703 0
-1704 1720 0
-3816 1768 3752 1704 -1703 0
-1704 3752 0
-3760 1712 3756 1708 -1707 0
-1708 1724 0
-1708 1772 0
-3820 1772 3756 1708 -1707 0
-4012 1964 3756 1708 -1707 0
-1708 3756 0
-1716 1720 0
-1728 1720 1724 1716 -1715 0
-1976 1720 1972 1716 -1715 0
-1716 1724 0
-1980 1724 1972 1716 -1715 0
-4024 1976 3768 1720 -1719 0
-1720 3768 0
-4028 1980 3772 1724 -1723 0
-1724 3772 0
-1732 1736 0
-1744 1736 1740 1732 -1731 0
-1732 1740 0
-1756 1740 1748 1732 -1731 0
-1732 1748 0
-1780 1748 1764 1732 -1731 0
-1732 1764 0
-1776 1744 1768 1736 -1735 0
-3792 1744 3784 1736 -1735 0
-1736 1752 0
-3800 1752 3784 1736 -1735 0
-1736 1768 0
-3816 1768 3784 1736 -1735 0
-1736 3784 0
-1776 1744 1772 1740 -1739 0
-1740 1756 0
-3804 1756 3788 1740 -1739 0
-1740 1772 0
-3820 1772 3788 1740 -1739 0
-1740 3788 0
-1760 1752 1756 1748 -1747 0
-1748 1756 0
-3808 1760 3800 1752 -1751 0
-1752 3800 0
-3808 1760 3804 1756 -1755 0
-1756 3804 0
-1764 1768 0
-1776 1768 1772 1764 -1763 0
-1764 1772 0
-3824 1776 3816 1768 -1767 0
-1768 3816 0
-3824 1776 3820 1772 -1771 0
-1772 3820 0
-1784 3832 0
-1788 3836 0
-1816 1800 1812 1796 -1795 0
-1836 1804 1828 1796 -1795 0
-1932 1804 1924 1796 -1795 0
-1892 1828 1860 1796 -1795 0
-1988 1860 1924 1796 -1795 0
-3844 1795 0
-1800 1808 0
-1800 1864 0
-1804 1868 0
-1812 1816 0
-1812 1940 0
-1828 1956 0
-1860 1864 0
-1860 1868 0
-1860 1876 0
-1908 1876 1892 1860 -1859 0
-1860 1892 0
-1864 1896 0
-1868 1900 0
-1924 1928 0
-1936 1928 1932 1924 -1923 0
-1924 1940 0
-1924 1956 0
-1928 1944 0
-1940 1972 0
-2008 4056 0
-2012 4060 0
-2024 4072 0
-2028 4076 0
-2063 2054 0
-2135 2071 2119 2055 -2054 0
-2327 2071 2311 2055 -2054 0
-2063 2058 0
-2155 2091 2123 2059 -2058 0
-2112 2080 2096 2064 -2063 0
-2592 2080 2576 2064 -2063 0
-2160 2096 2128 2064 -2063 0
-2224 2096 2192 2064 -2063 0
-2352 2096 2320 2064 -2063 0
-2640 2128 2576 2064 -2063 0
-2448 2192 2320 2064 -2063 0
-3088 2063 0
-2079 2071 2075 2067 -2066 0
-2579 2066 0
-2080 2071 0
-2112 2080 2104 2072 -2071 0
-3104 2080 3096 2072 -2071 0
-2104 2071 0
-2168 2104 2136 2072 -2071 0
-2232 2104 2200 2072 -2071 0
-3128 2104 3096 2072 -2071 0
-2136 2071 0
-2392 2136 2328 2072 -2071 0
-3160 2136 3096 2072 -2071 0
-2071 2199 0
-2200 2071 0
-2455 2199 2327 2071 -2070 0
-3224 2200 3096 2072 -2071 0
-2071 2327 0
-2328 2071 0
-2071 2583 0
-3096 2071 0
-2080 2075 0
-2112 2080 2108 2076 -2075 0
-3104 2080 3100 2076 -2075 0
-2108 2075 0
-2172 2108 2140 2076 -2075 0
-2075 2139 0
-2651 2139 2587 2075 -2074 0
-3164 2140 3100 2076 -2075 0
-2075 2203 0
-2204 2075 0
-3228 2204 3100 2076 -2075 0
-2332 2075 0
-3356 2332 3100 2076 -2075 0
-2588 2075 0
-3100 2075 0
-2080 2144 0
-2080 2208 0
-2080 2336 0
-2080 2592 0
-2096 2087 0
-2112 2096 2104 2088 -2087 0
-2224 2096 2216 2088 -2087 0
-3120 2096 3112 2088 -2087 0
-2104 2087 0
-2168 2104 2152 2088 -2087 0
-3128 2104 3112 2088 -2087 0
-2087 2151 0
-2152 2087 0
-3176 2152 3112 2088 -2087 0
-2087 2215 0
-2216 2087 0
-3240 2216 3112 2088 -2087 0
-2087 2343 0
-3368 2344 3112 2088 -2087 0
-2087 2599 0
-3112 2087 0
-2096 2091 0
-2112 2096 2108 2092 -2091 0
-3120 2096 3116 2092 -2091 0
-2108 2091 0
-2172 2108 2156 2092 -2091 0
-3132 2108 3116 2092 -2091 0
-2091 2155 0
-2156 2091 0
-2091 2219 0
-2220 2091 0
-2091 2347 0
-2348 2091 0
-3372 2348 3116 2092 -2091 0
-3116 2091 0
-2096 2160 0
-2288 2160 2224 2096 -2095 0
-2096 2224 0
-2096 2352 0
-2296 2168 2232 2104 -2103 0
-2104 2232 0
-2108 2172 0
-2300 2172 2236 2108 -2107 0
-2108 2236 0
-2108 3132 0
-3143 2119 3139 2115 -2114 0
-2243 2114 0
-2128 2119 0
-2119 2135 0
-2119 2151 0
-2152 2119 0
-2119 2375 0
-2632 2119 0
-3656 2632 3144 2120 -2119 0
-3152 2128 3148 2124 -2123 0
-2123 2139 0
-2123 2155 0
-2123 2635 0
-2636 2123 0
-2128 2144 0
-2136 2131 0
-2168 2136 2164 2132 -2131 0
-2140 2131 0
-2268 2140 2260 2132 -2131 0
-2164 2131 0
-2260 2131 0
-3284 2260 3156 2132 -2131 0
-2131 2387 0
-3160 2135 0
-2136 3160 0
-2140 2172 0
-2300 2172 2268 2140 -2139 0
-2140 2268 0
-2140 2652 0
-3164 2139 0
-2144 2272 0
-2144 2400 0
-2147 2151 0
-2152 2147 0
-2164 2147 0
-2276 2147 0
-2147 2403 0
-2147 2659 0
-3192 2168 3176 2152 -2151 0
-2152 2280 0
-2536 2280 2408 2152 -2151 0
-2152 2664 0
-3176 2151 0
-3196 2172 3180 2156 -2155 0
-2156 2284 0
-2540 2284 2412 2156 -2155 0
-2155 2411 0
-3436 2412 3180 2156 -2155 0
-2156 2668 0
-3180 2155 0
-2164 2172 0
-2172 2684 0
-2192 2183 0
-2208 2192 2200 2184 -2183 0
-2224 2192 2216 2184 -2183 0
-2183 2199 0
-2200 2183 0
-2696 2183 0
-3208 2183 0
-2236 2204 2220 2188 -2187 0
-2460 2204 2444 2188 -2187 0
-2187 2219 0
-2476 2220 2444 2188 -2187 0
-2700 2187 0
-3212 2187 0
-2192 2224 0
-2195 2199 0
-2200 2195 0
-2208 2200 2204 2196 -2195 0
-2232 2200 2228 2196 -2195 0
-2268 2204 2260 2196 -2195 0
-2228 2195 0
-2260 2195 0
-2195 2707 0
-2296 2232 2264 2200 -2199 0
-3256 2232 3224 2200 -2199 0
-2200 2456 0
-2200 2712 0
-3224 2199 0
-2240 2208 2236 2204 -2203 0
-3232 2208 3228 2204 -2203 0
-2204 2236 0
-2268 2203 0
-2204 2268 0
-2524 2268 2460 2204 -2203 0
-2204 2716 0
-2216 2211 0
-2232 2216 2228 2212 -2211 0
-2211 2219 0
-2220 2211 0
-2236 2220 2228 2212 -2211 0
-2732 2220 2724 2212 -2211 0
-2228 2211 0
-2276 2211 0
-2211 2467 0
-2211 2723 0
-2216 2224 0
-2216 2232 0
-3256 2232 3240 2216 -2215 0
-2215 2727 0
-2216 2728 0
-3240 2215 0
-2220 2224 0
-2240 2224 2236 2220 -2219 0
-3248 2224 3244 2220 -2219 0
-2748 2236 2732 2220 -2219 0
-2220 2476 0
-2220 2732 0
-2228 2232 0
-3256 2232 3252 2228 -2227 0
-2228 2236 0
-2228 2484 0
-2232 2744 0
-2236 2748 0
-2756 2243 0
-2252 2256 0
-2260 2264 0
-2260 2268 0
-2260 2516 0
-2260 2772 0
-3036 2524 2780 2268 -2267 0
-2268 2780 0
-2276 2280 0
-2276 2284 0
-2280 2288 0
-3048 2536 2792 2280 -2279 0
-2280 2792 0
-2284 2288 0
-3052 2540 2796 2284 -2283 0
-2284 2796 0
-2343 2311 2339 2307 -2306 0
-2347 2315 2339 2307 -2306 0
-2387 2323 2371 2307 -2306 0
-2819 2306 0
-2336 2320 2328 2312 -2311 0
-3344 2320 3336 2312 -2311 0
-2840 2328 2824 2312 -2311 0
-3848 2824 3336 2312 -2311 0
-3336 2311 0
-2352 2320 2348 2316 -2315 0
-3344 2320 3340 2316 -2315 0
-2460 2332 2444 2316 -2315 0
-2844 2332 2828 2316 -2315 0
-2348 2315 0
-2412 2348 2380 2316 -2315 0
-2828 2315 0
-3852 2828 3340 2316 -2315 0
-3340 2315 0
-3476 2452 3348 2324 -2323 0
-3352 2327 0
-2328 3352 0
-3356 2331 0
-2472 2344 2468 2340 -2339 0
-2476 2348 2468 2340 -2339 0
-3496 2472 3368 2344 -2343 0
-3368 2343 0
-2344 3368 0
-2348 2364 0
-3372 2347 0
-2348 3372 0
-2380 2371 0
-2404 2371 0
-2500 2371 0
-3012 2500 2884 2372 -2371 0
-3908 2884 3396 2372 -2371 0
-3396 2371 0
-2376 2392 0
-2904 2392 2888 2376 -2375 0
-2444 2435 0
-2435 2451 0
-2452 2435 0
-2435 2467 0
-2468 2435 0
-3012 2500 2948 2436 -2435 0
-2948 2435 0
-3972 2948 3460 2436 -2435 0
-3460 2435 0
-2440 2448 0
-2444 2956 0
-2451 2455 0
-3508 2484 3476 2452 -2451 0
-2492 2476 2484 2468 -2467 0
-2468 2484 0
-2468 2980 0
-4004 2980 3492 2468 -2467 0
-2500 2504 0
-2500 2508 0
-2500 2532 0
-2504 2536 0
-2508 2540 0
-2635 2571 2627 2563 -2562 0
-2707 2579 2691 2563 -2562 0
-2819 2562 0
-2567 2583 0
-2632 2567 0
-3848 2824 3592 2568 -2567 0
-2716 2588 2700 2572 -2571 0
-2844 2588 2828 2572 -2571 0
-2571 2603 0
-3596 2571 0
-2579 2583 0
-2579 2587 0
-2644 2579 0
-2772 2644 2708 2580 -2579 0
-2900 2644 2836 2580 -2579 0
-3604 2579 0
-3616 2592 3608 2584 -2583 0
-3736 2712 3608 2584 -2583 0
-2584 2840 0
-3864 2840 3608 2584 -2583 0
-2584 3608 0
-2588 2592 0
-2720 2592 2716 2588 -2587 0
-2588 2620 0
-2588 2652 0
-2972 2716 2844 2588 -2587 0
-2600 2616 0
-2872 2616 2856 2600 -2599 0
-2684 2620 2668 2604 -2603 0
-2604 2668 0
-2616 2744 0
-3000 2744 2872 2616 -2615 0
-2620 2748 0
-3772 2748 3644 2620 -2619 0
-2620 3644 0
-2627 2631 0
-2632 2627 0
-3656 2632 3652 2628 -2627 0
-2627 2635 0
-3660 2636 3652 2628 -2627 0
-2627 2643 0
-2644 2627 0
-3668 2644 3652 2628 -2627 0
-2627 2659 0
-3684 2660 3652 2628 -2627 0
-2756 2627 0
-3012 2756 2884 2628 -2627 0
-2884 2627 0
-3908 2884 3652 2628 -2627 0
-3652 2627 0
-2631 2647 0
-3656 2631 0
-2768 2640 2764 2636 -2635 0
-2635 2651 0
-2636 2652 0
-2635 2667 0
-3660 2635 0
-2644 2648 0
-2680 2648 2676 2644 -2643 0
-2644 2652 0
-2644 2772 0
-3796 2772 3668 2644 -2643 0
-3704 2680 3672 2648 -2647 0
-2648 3672 0
-2784 2656 2780 2652 -2651 0
-3680 2656 3676 2652 -2651 0
-2652 2684 0
-3708 2684 3676 2652 -2651 0
-2652 2780 0
-3804 2780 3676 2652 -2651 0
-2652 3676 0
-2660 2664 0
-2660 2668 0
-3812 2788 3684 2660 -2659 0
-2664 3688 0
-3696 2672 3692 2668 -2667 0
-3708 2684 3692 2668 -2667 0
-2668 2796 0
-3820 2796 3692 2668 -2667 0
-2668 3692 0
-2688 2680 2684 2676 -2675 0
-2676 2684 0
-2684 3708 0
-2691 2695 0
-3720 2696 3716 2692 -2691 0
-2691 2699 0
-2700 2691 0
-3724 2700 3716 2692 -2691 0
-2708 2691 0
-2691 2723 0
-2724 2691 0
-2756 2691 0
-3012 2756 2948 2692 -2691 0
-3780 2756 3716 2692 -2691 0
-2948 2691 0
-3972 2948 3716 2692 -2691 0
-3716 2691 0
-2695 2711 0
-2695 2727 0
-2699 2715 0
-2699 2731 0
-2708 2712 0
-2708 2716 0
-3744 2720 3736 2712 -2711 0
-3800 2776 3736 2712 -2711 0
-2712 3736 0
-3744 2720 3740 2716 -2715 0
-2716 2748 0
-2716 2780 0
-3804 2780 3740 2716 -2715 0
-3996 2972 3740 2716 -2715 0
-2716 3740 0
-2724 2728 0
-2792 2728 2788 2724 -2723 0
-2724 2732 0
-2804 2740 2788 2724 -2723 0
-3760 2736 3752 2728 -2727 0
-2728 2744 0
-3816 2792 3752 2728 -2727 0
-4008 2984 3752 2728 -2727 0
-2728 3752 0
-3760 2736 3756 2732 -2731 0
-3772 2748 3756 2732 -2731 0
-2732 2796 0
-3820 2796 3756 2732 -2731 0
-2732 3756 0
-4024 3000 3768 2744 -2743 0
-2744 3768 0
-2748 3772 0
-2756 2764 0
-2756 2772 0
-2756 2788 0
-2784 2768 2780 2764 -2763 0
-2764 2780 0
-2764 2796 0
-3808 2784 3804 2780 -2779 0
-2780 3804 0
-2788 2796 0
-2792 3816 0
-2796 3820 0
-2840 2824 2836 2820 -2819 0
-2856 2824 2852 2820 -2819 0
-2956 2828 2948 2820 -2819 0
-2964 2836 2948 2820 -2819 0
-3012 2884 2948 2820 -2819 0
-3844 2819 0
-2828 2892 0
-2836 2844 0
-2836 2900 0
-2852 2980 0
-2884 2888 0
-2884 2892 0
-2884 2900 0
-2884 2916 0
-2892 2908 0
-2948 2952 0
-2948 2964 0
-2948 2980 0
-2952 2968 0
-2952 2984 0
-2964 2996 0
-3088 3079 0
-3079 3095 0
-3128 3096 3112 3080 -3079 0
-3160 3096 3144 3080 -3079 0
-3224 3096 3208 3080 -3079 0
-3352 3096 3336 3080 -3079 0
-3608 3096 3592 3080 -3079 0
-3079 3111 0
-3176 3112 3144 3080 -3079 0
-3240 3112 3208 3080 -3079 0
-3368 3112 3336 3080 -3079 0
-3624 3112 3592 3080 -3079 0
-3079 3143 0
-3272 3144 3208 3080 -3079 0
-3400 3144 3336 3080 -3079 0
-3656 3144 3592 3080 -3079 0
-3079 3207 0
-3464 3208 3336 3080 -3079 0
-3720 3208 3592 3080 -3079 0
-3848 3336 3592 3080 -3079 0
-3088 3083 0
-3083 3099 0
-3132 3100 3116 3084 -3083 0
-3164 3100 3148 3084 -3083 0
-3228 3100 3212 3084 -3083 0
-3356 3100 3340 3084 -3083 0
-3612 3100 3596 3084 -3083 0
-3083 3115 0
-3180 3116 3148 3084 -3083 0
-3244 3116 3212 3084 -3083 0
-3372 3116 3340 3084 -3083 0
-3628 3116 3596 3084 -3083 0
-3083 3147 0
-3276 3148 3212 3084 -3083 0
-3404 3148 3340 3084 -3083 0
-3660 3148 3596 3084 -3083 0
-3083 3211 0
-3468 3212 3340 3084 -3083 0
-3724 3212 3596 3084 -3083 0
-3852 3340 3596 3084 -3083 0
-3088 3104 0
-3088 3120 0
-3088 3152 0
-3088 3216 0
-3088 3344 0
-3088 3600 0
-3132 3100 3124 3092 -3091 0
-3604 3091 0
-3096 3128 0
-3192 3128 3160 3096 -3095 0
-3640 3128 3608 3096 -3095 0
-3095 3159 0
-3096 3160 0
-3288 3160 3224 3096 -3095 0
-3416 3160 3352 3096 -3095 0
-3672 3160 3608 3096 -3095 0
-3095 3223 0
-3096 3224 0
-3736 3224 3608 3096 -3095 0
-3096 3352 0
-3864 3352 3608 3096 -3095 0
-3096 3608 0
-3100 3132 0
-3196 3132 3164 3100 -3099 0
-3260 3132 3228 3100 -3099 0
-3099 3163 0
-3100 3164 0
-3292 3164 3228 3100 -3099 0
-3420 3164 3356 3100 -3099 0
-3676 3164 3612 3100 -3099 0
-3099 3227 0
-3100 3228 0
-3740 3228 3612 3100 -3099 0
-3100 3356 0
-3868 3356 3612 3100 -3099 0
-3100 3612 0
-3104 3168 0
-3104 3232 0
-3104 3360 0
-3104 3616 0
-3128 3112 3124 3108 -3107 0
-3620 3107 0
-3112 3128 0
-3192 3128 3176 3112 -3111 0
-3256 3128 3240 3112 -3111 0
-3640 3128 3624 3112 -3111 0
-3111 3175 0
-3112 3176 0
-3304 3176 3240 3112 -3111 0
-3432 3176 3368 3112 -3111 0
-3688 3176 3624 3112 -3111 0
-3111 3239 0
-3112 3240 0
-3496 3240 3368 3112 -3111 0
-3752 3240 3624 3112 -3111 0
-3112 3368 0
-3880 3368 3624 3112 -3111 0
-3112 3624 0
-3116 3132 0
-3196 3132 3180 3116 -3115 0
-3260 3132 3244 3116 -3115 0
-3388 3132 3372 3116 -3115 0
-3115 3179 0
-3116 3180 0
-3308 3180 3244 3116 -3115 0
-3436 3180 3372 3116 -3115 0
-3692 3180 3628 3116 -3115 0
-3115 3243 0
-3116 3244 0
-3756 3244 3628 3116 -3115 0
-3116 3372 0
-3884 3372 3628 3116 -3115 0
-3116 3628 0
-3120 3184 0
-3120 3248 0
-3320 3192 3256 3128 -3127 0
-3128 3256 0
-3132 3196 0
-3324 3196 3260 3132 -3131 0
-3132 3260 0
-3516 3260 3388 3132 -3131 0
-3132 3644 0
-3656 3144 3652 3140 -3139 0
-3144 3160 0
-3192 3160 3176 3144 -3143 0
-3288 3160 3272 3144 -3143 0
-3672 3160 3656 3144 -3143 0
-3144 3176 0
-3304 3176 3272 3144 -3143 0
-3432 3176 3400 3144 -3143 0
-3688 3176 3656 3144 -3143 0
-3143 3271 0
-3144 3272 0
-3144 3400 0
-3144 3656 0
-3148 3164 0
-3196 3164 3180 3148 -3147 0
-3420 3164 3404 3148 -3147 0
-3676 3164 3660 3148 -3147 0
-3148 3180 0
-3308 3180 3276 3148 -3147 0
-3436 3180 3404 3148 -3147 0
-3147 3275 0
-3148 3276 0
-3788 3276 3660 3148 -3147 0
-3148 3660 0
-3152 3280 0
-3152 3664 0
-3156 3160 0
-3320 3192 3288 3160 -3159 0
-3704 3192 3672 3160 -3159 0
-3160 3288 0
-3544 3288 3416 3160 -3159 0
-3800 3288 3672 3160 -3159 0
-3928 3416 3672 3160 -3159 0
-3160 3672 0
-3324 3196 3292 3164 -3163 0
-3708 3196 3676 3164 -3163 0
-3164 3292 0
-3548 3292 3420 3164 -3163 0
-3804 3292 3676 3164 -3163 0
-3932 3420 3676 3164 -3163 0
-3164 3676 0
-3168 3296 0
-3168 3680 0
-3172 3176 0
-3172 3428 0
-3320 3192 3304 3176 -3175 0
-3704 3192 3688 3176 -3175 0
-3176 3304 0
-3560 3304 3432 3176 -3175 0
-3816 3304 3688 3176 -3175 0
-3944 3432 3688 3176 -3175 0
-3176 3688 0
-3180 3196 0
-3324 3196 3308 3180 -3179 0
-3452 3196 3436 3180 -3179 0
-3708 3196 3692 3180 -3179 0
-3180 3308 0
-3564 3308 3436 3180 -3179 0
-3820 3308 3692 3180 -3179 0
-3948 3436 3692 3180 -3179 0
-3180 3692 0
-3184 3312 0
-3184 3696 0
-3964 3452 3708 3196 -3195 0
-3196 3708 0
-3780 3268 3716 3204 -3203 0
-3208 3224 0
-3256 3224 3240 3208 -3207 0
-3736 3224 3720 3208 -3207 0
-3208 3240 0
-3304 3240 3272 3208 -3207 0
-3496 3240 3464 3208 -3207 0
-3752 3240 3720 3208 -3207 0
-3784 3272 3720 3208 -3207 0
-3208 3720 0
-3212 3228 0
-3260 3228 3244 3212 -3211 0
-3292 3228 3276 3212 -3211 0
-3740 3228 3724 3212 -3211 0
-3212 3244 0
-3308 3244 3276 3212 -3211 0
-3756 3244 3724 3212 -3211 0
-3212 3276 0
-3788 3276 3724 3212 -3211 0
-3212 3468 0
-3212 3724 0
-3216 3728 0
-3220 3224 0
-3220 3228 0
-3768 3256 3736 3224 -3223 0
-3800 3288 3736 3224 -3223 0
-3224 3736 0
-3228 3260 0
-3772 3260 3740 3228 -3227 0
-3804 3292 3740 3228 -3227 0
-3228 3740 0
-3232 3744 0
-3236 3240 0
-3236 3244 0
-3236 3492 0
-3240 3256 0
-3512 3256 3496 3240 -3239 0
-3768 3256 3752 3240 -3239 0
-3240 3304 0
-3560 3304 3496 3240 -3239 0
-3816 3304 3752 3240 -3239 0
-4008 3496 3752 3240 -3239 0
-3240 3752 0
-3772 3260 3756 3244 -3243 0
-3820 3308 3756 3244 -3243 0
-3244 3756 0
-3248 3760 0
-3252 3508 0
-4024 3512 3768 3256 -3255 0
-3256 3768 0
-4028 3516 3772 3260 -3259 0
-3260 3772 0
-3268 3284 0
-3800 3288 3784 3272 -3271 0
-3816 3304 3784 3272 -3271 0
-3272 3784 0
-3804 3292 3788 3276 -3275 0
-3820 3308 3788 3276 -3275 0
-3276 3788 0
-3280 3792 0
-4056 3544 3800 3288 -3287 0
-3288 3800 0
-4060 3548 3804 3292 -3291 0
-3292 3804 0
-3296 3808 0
-4072 3560 3816 3304 -3303 0
-3304 3816 0
-4076 3564 3820 3308 -3307 0
-3308 3820 0
-3312 3824 0
-3344 3336 3340 3332 -3331 0
-3352 3336 3348 3332 -3331 0
-3368 3336 3364 3332 -3331 0
-3400 3336 3396 3332 -3331 0
-3356 3340 3348 3332 -3331 0
-3372 3340 3364 3332 -3331 0
-3468 3340 3460 3332 -3331 0
-3428 3364 3396 3332 -3331 0
-3492 3364 3460 3332 -3331 0
-3844 3331 0
-3336 3368 0
-3348 3356 0
-3364 3368 0
-3364 3372 0
-3372 3388 0
-3396 3400 0
-3396 3404 0
-3460 3464 0
-3460 3468 0
-3492 3496 0
-3587 3591 0
-3600 3592 3596 3588 -3587 0
-3608 3592 3604 3588 -3587 0
-3624 3592 3620 3588 -3587 0
-3656 3592 3652 3588 -3587 0
-3720 3592 3716 3588 -3587 0
-3587 3595 0
-3612 3596 3604 3588 -3587 0
-3628 3596 3620 3588 -3587 0
-3660 3596 3652 3588 -3587 0
-3724 3596 3716 3588 -3587 0
-3587 3603 0
-3636 3604 3620 3588 -3587 0
-3668 3604 3652 3588 -3587 0
-3732 3604 3716 3588 -3587 0
-3587 3619 0
-3684 3620 3652 3588 -3587 0
-3748 3620 3716 3588 -3587 0
-3587 3651 0
-3780 3652 3716 3588 -3587 0
-3587 3715 0
-3844 3587 0
-3591 3607 0
-3592 3608 0
-3640 3608 3624 3592 -3591 0
-3591 3623 0
-3592 3624 0
-3591 3655 0
-3592 3656 0
-3591 3719 0
-3592 3720 0
-3595 3611 0
-3596 3612 0
-3644 3612 3628 3596 -3595 0
-3676 3612 3660 3596 -3595 0
-3595 3627 0
-3596 3628 0
-3692 3628 3660 3596 -3595 0
-3595 3659 0
-3596 3660 0
-3595 3723 0
-3596 3724 0
-3604 3608 0
-3640 3608 3636 3604 -3603 0
-3672 3608 3668 3604 -3603 0
-3604 3612 0
-3644 3612 3636 3604 -3603 0
-3676 3612 3668 3604 -3603 0
-3603 3667 0
-3604 3668 0
-3603 3731 0
-3608 3640 0
-3704 3640 3672 3608 -3607 0
-3768 3640 3736 3608 -3607 0
-3607 3671 0
-3608 3672 0
-3800 3672 3736 3608 -3607 0
-3608 3736 0
-3612 3644 0
-3708 3644 3676 3612 -3611 0
-3772 3644 3740 3612 -3611 0
-3611 3675 0
-3612 3676 0
-3804 3676 3740 3612 -3611 0
-3611 3739 0
-3612 3740 0
-3620 3624 0
-3688 3624 3684 3620 -3619 0
-3620 3628 0
-3692 3628 3684 3620 -3619 0
-3619 3683 0
-3620 3684 0
-3619 3747 0
-3624 3640 0
-3624 3688 0
-3816 3688 3752 3624 -3623 0
-3623 3751 0
-3624 3752 0
-3627 3691 0
-3628 3692 0
-3820 3692 3756 3628 -3627 0
-3628 3756 0
-3640 3704 0
-3832 3704 3768 3640 -3639 0
-3640 3768 0
-3644 3708 0
-3836 3708 3772 3644 -3643 0
-3644 3772 0
-3652 3656 0
-3664 3656 3660 3652 -3651 0
-3672 3656 3668 3652 -3651 0
-3688 3656 3684 3652 -3651 0
-3652 3660 0
-3676 3660 3668 3652 -3651 0
-3692 3660 3684 3652 -3651 0
-3652 3668 0
-3652 3684 0
-3656 3672 0
-3704 3672 3688 3656 -3655 0
-3656 3688 0
-3816 3688 3784 3656 -3655 0
-3656 3784 0
-3660 3676 0
-3708 3676 3692 3660 -3659 0
-3660 3692 0
-3820 3692 3788 3660 -3659 0
-3660 3788 0
-3800 3672 3796 3668 -3667 0
-3668 3676 0
-3804 3676 3796 3668 -3667 0
-3668 3796 0
-3832 3704 3800 3672 -3671 0
-3672 3800 0
-3676 3708 0
-3836 3708 3804 3676 -3675 0
-3676 3804 0
-3684 3688 0
-3696 3688 3692 3684 -3683 0
-3816 3688 3812 3684 -3683 0
-3684 3692 0
-3820 3692 3812 3684 -3683 0
-3684 3812 0
-3688 3704 0
-3688 3816 0
-3692 3708 0
-3836 3708 3820 3692 -3691 0
-3692 3820 0
-3716 3720 0
-3728 3720 3724 3716 -3715 0
-3736 3720 3732 3716 -3715 0
-3752 3720 3748 3716 -3715 0
-3784 3720 3780 3716 -3715 0
-3716 3724 0
-3740 3724 3732 3716 -3715 0
-3756 3724 3748 3716 -3715 0
-3788 3724 3780 3716 -3715 0
-3716 3732 0
-3716 3748 0
-3716 3780 0
-3720 3736 0
-3768 3736 3752 3720 -3719 0
-3800 3736 3784 3720 -3719 0
-3720 3752 0
-3720 3784 0
-3724 3740 0
-3772 3740 3756 3724 -3723 0
-3724 3756 0
-3732 3736 0
-3768 3736 3764 3732 -3731 0
-3732 3740 0
-3772 3740 3764 3732 -3731 0
-3732 3764 0
-3736 3768 0
-3736 3800 0
-3740 3772 0
-3836 3772 3804 3740 -3739 0
-3740 3804 0
-3748 3752 0
-3760 3752 3756 3748 -3747 0
-3748 3756 0
-3752 3768 0
-3832 3768 3816 3752 -3751 0
-3752 3816 0
-3756 3772 0
-3756 3820 0
-3784 3800 0
-3844 3848 0
-3844 3852 0
-3844 3876 0
-3844 3908 0
-3844 3972 0
-3848 3864 0
-3848 3880 0
-3852 3868 0
-3852 3884 0
-3864 3896 0
-3864 3928 0
-3868 3900 0
-3868 3932 0
-3868 3996 0
-3876 4004 0
-3880 3944 0
-3880 4008 0
-3884 3948 0
-3884 4012 0
-3896 3960 0
-3896 4024 0
-3900 3964 0
-3900 4028 0
64 0
244 0
964 0
3844 0
3088 0
-64 -124 -244 -484 -964 -1924 -3844 -3592 -3088 -2080 0
-64 -124 -244 -484 -964 -2948 -3844 -3592 -3088 -1056 0
-64 -124 -244 -740 -964 -1924 -3844 -3336 -3088 -2080 0
-64 -124 -244 -740 -964 -2948 -3844 -3336 -3088 -1056 0
-64 -188 -244 -484 -964 -1860 -3844 -3592 -3088 -2080 0
-64 -188 -244 -484 -964 -2884 -3844 -3592 -3088 -1056 0
-64 -188 -244 -740 -964 -1860 -3844 -3336 -3088 -2080 0
-64 -188 -244 -740 -964 -2884 -3844 -3336 -3088 -1056 0
-64 -124 -244 -468 -964 -1924 -3844 -3592 -3088 -2096 0
-64 -124 -244 -468 -964 -2948 -3844 -3592 -3088 -1072 0
-64 -124 -244 -724 -964 -1924 -3844 -3336 -3088 -2096 0
-64 -124 -244 -724 -964 -2948 -3844 -3336 -3088 -1072 0
-64 -188 -244 -468 -964 -1860 -3844 -3592 -3088 -2096 0
-64 -188 -244 -468 -964 -2884 -3844 -3592 -3088 -1072 0
-64 -188 -244 -724 -964 -1860 -3844 -3336 -3088 -2096 0
-64 -188 -244 -724 -964 -2884 -3844 -3336 -3088 -1072 0
-64 -120 -244 -484 -964 -1924 -3844 -3596 -3088 -2080 0
-64 -120 -244 -484 -964 -2948 -3844 -3596 -3088 -1056 0
-64 -120 -244 -740 -964 -1924 -3844 -3340 -3088 -2080 0
-64 -120 -244 -740 -964 -2948 -3844 -3340 -3088 -1056 0
-64 -184 -244 -484 -964 -1860 -3844 -3596 -3088 -2080 0
-64 -184 -244 -484 -964 -2884 -3844 -3596 -3088 -1056 0
-64 -184 -244 -740 -964 -1860 -3844 -3340 -3088 -2080 0
-64 -184 -244 -740 -964 -2884 -3844 -3340 -3088 -1056 0
-64 -120 -244 -468 -964 -1924 -3844 -3596 -3088 -2096 0
-64 -120 -244 -468 -964 -2948 -3844 -3596 -3088 -1072 0
-64 -120 -244 -724 -964 -1924 -3844 -3340 -3088 -2096 0
-64 -120 -244 -724 -964 -2948 -3844 -3340 -3088 -1072 0
-64 -184 -244 -468 -964 -1860 -3844 -3596 -3088 -2096 0
-64 -184 -244 -468 -964 -2884 -3844 -3596 -3088 -1072 0
-64 -184 -244 -724 -964 -1860 -3844 -3340 -3088 -2096 0
-64 -184 -244 -724 -964 -2884 -3844 -3340 -3088 -1072 0
-64 -124 -236 -716 -964 -1924 -3844 -3336 -3096 -2104 0
-64 -124 -236 -716 -964 -2948 -3844 -3336 -3096 -1080 0
-64 -188 -236 -716 -964 -1860 -3844 -3336 -3096 -2104 0
-64 -188 -236 -716 -964 -2884 -3844 -3336 -3096 -1080 0
-64 -112 -236 -484 -964 -1924 -3844 -3604 -3096 -2080 0
-64 -112 -236 -484 -964 -2948 -3844 -3604 -3096 -1056 0
-64 -112 -236 -740 -964 -1924 -3844 -3348 -3096 -2080 0
-64 -176 -236 -484 -964 -1860 -3844 -3604 -3096 -2080 0
-64 -176 -236 -484 -964 -2884 -3844 -3604 -3096 -1056 0
-64 -112 -236 -460 -964 -1924 -3844 -3604 -3096 -2104 0
-64 -112 -236 -460 -964 -2948 -3844 -3604 -3096 -1080 0
-64 -112 -236 -716 -964 -1924 -3844 -3348 -3096 -2104 0
-64 -112 -236 -716 -964 -2948 -3844 -3348 -3096 -1080 0
-64 -176 -236 -460 -964 -1860 -3844 -3604 -3096 -2104 0
-64 -176 -236 -460 -964 -2884 -3844 -3604 -3096 -1080 0
-64 -176 -236 -716 -964 -2884 -3844 -3348 -3096 -1080 0
-64 -124 -220 -460 -964 -2948 -3844 -3592 -3112 -1080 0
-64 -124 -220 -716 -964 -1924 -3844 -3336 -3112 -2104 0
-64 -124 -220 -716 -964 -2948 -3844 -3336 -3112 -1080 0
-64 -188 -220 -716 -964 -1860 -3844 -3336 -3112 -2104 0
-64 -188 -220 -716 -964 -2884 -3844 -3336 -3112 -1080 0
-64 -96 -220 -468 -964 -1924 -3844 -3620 -3112 -2096 0
-64 -96 -220 -468 -964 -2948 -3844 -3620 -3112 -1072 0
-64 -160 -220 -468 -964 -1860 -3844 -3620 -3112 -2096 0
-64 -160 -220 -468 -964 -2884 -3844 -3620 -3112 -1072 0
-64 -96 -220 -460 -964 -1924 -3844 -3620 -3112 -2104 0
-64 -96 -220 -460 -964 -2948 -3844 -3620 -3112 -1080 0
-64 -96 -220 -716 -964 -1924 -3844 -3364 -3112 -2104 0
-64 -96 -220 -716 -964 -2948 -3844 -3364 -3112 -1080 0
-64 -160 -220 -460 -964 -1860 -3844 -3620 -3112 -2104 0
-64 -160 -220 -460 -964 -2884 -3844 -3620 -3112 -1080 0
-64 -160 -220 -716 -964 -1860 -3844 -3364 -3112 -2104 0
-64 -160 -220 -716 -964 -2884 -3844 -3364 -3112 -1080 0
-64 -120 -232 -456 -964 -2948 -3844 -3596 -3100 -1084 0
-64 -120 -232 -712 -964 -1924 -3844 -3340 -3100 -2108 0
-64 -184 -232 -712 -964 -1860 -3844 -3340 -3100 -2108 0
-64 -184 -232 -712 -964 -2884 -3844 -3340 -3100 -1084 0
-64 -112 -232 -484 -964 -1924 -3844 -3604 -3100 -2080 0
-64 -112 -232 -484 -964 -2948 -3844 -3604 -3100 -1056 0
-64 -112 -232 -740 -964 -2948 -3844 -3348 -3100 -1056 0
-64 -176 -232 -484 -964 -1860 -3844 -3604 -3100 -2080 0
-64 -176 -232 -484 -964 -2884 -3844 -3604 -3100 -1056 0
-64 -176 -232 -740 -964 -1860 -3844 -3348 -3100 -2080 0
-64 -112 -232 -456 -964 -1924 -3844 -3604 -3100 -2108 0
-64 -112 -232 -456 -964 -2948 -3844 -3604 -3100 -1084 0
-64 -112 -232 -712 -964 -1924 -3844 -3348 -3100 -2108 0
-64 -176 -232 -456 -964 -1860 -3844 -3604 -3100 -2108 0
-64 -176 -232 -456 -964 -2884 -3844 -3604 -3100 -1084 0
-64 -176 -232 -712 -964 -1860 -3844 -3348 -3100 -2108 0
-64 -176 -232 -712 -964 -2884 -3844 -3348 -3100 -1084 0
-64 -120 -216 -456 -964 -2948 -3844 -3596 -3116 -1084 0
-64 -120 -216 -712 -964 -1924 -3844 -3340 -3116 -2108 0
-64 -120 -216 -712 -964 -2948 -3844 -3340 -3116 -1084 0
-64 -184 -216 -712 -964 -1860 -3844 -3340 -3116 -2108 0
-64 -184 -216 -712 -964 -2884 -3844 -3340 -3116 -1084 0
-64 -96 -216 -468 -964 -1924 -3844 -3620 -3116 -2096 0
-64 -96 -216 -468 -964 -2948 -3844 -3620 -3116 -1072 0
-64 -160 -216 -468 -964 -1860 -3844 -3620 -3116 -2096 0
-64 -160 -216 -468 -964 -2884 -3844 -3620 -3116 -1072 0
-64 -96 -216 -456 -964 -1924 -3844 -3620 -3116 -2108 0
-64 -96 -216 -456 -964 -2948 -3844 -3620 -3116 -1084 0
-64 -96 -216 -712 -964 -1924 -3844 -3364 -3116 -2108 0
-64 -96 -216 -712 -964 -2948 -3844 -3364 -3116 -1084 0
-64 -160 -216 -456 -964 -1860 -3844 -3620 -3116 -2108 0
-64 -160 -216 -456 -964 -2884 -3844 -3620 -3116 -1084 0
-64 -160 -216 -712 -964 -1860 -3844 -3364 -3116 -2108 0
-64 -112 -208 -460 -964 -1924 -3844 -3604 -3124 -2104 0
-64 -112 -208 -460 -964 -2948 -3844 -3604 -3124 -1080 0
-64 -176 -208 -460 -964 -1860 -3844 -3604 -3124 -2104 0
-64 -160 -208 -456 -964 -2884 -3844 -3620 -3124 -1084 0
-96 -124 -244 -692 -932 -1924 -3844 -3336 -3088 -2128 0
-160 -216 -244 -372 -868 -1828 -3844 -3596 -3088 -2192 0
-112 -236 -244 -692 -916 -2836 -3844 -3336 -3088 -1104 0
-64 -124 -372 -868 -964 -1924 -3716 -3208 -3088 -2080 0
-64 -124 -372 -868 -964 -2948 -3716 -3208 -3088 -1056 0
-64 -316 -372 -484 -964 -1732 -3716 -3592 -3088 -2080 0
-64 -316 -372 -484 -964 -2756 -3716 -3592 -3088 -1056 0
-64 -316 -372 -868 -964 -1732 -3716 -3208 -3088 -2080 0
-64 -316 -372 -868 -964 -2756 -3716 -3208 -3088 -1056 0
-64 -124 -372 -852 -964 -1924 -3716 -3208 -3088 -2096 0
-64 -124 -372 -852 -964 -2948 -3716 -3208 -3088 -1072 0
-64 -316 -372 -468 -964 -1732 -3716 -3592 -3088 -2096 0
-64 -316 -372 -468 -964 -2756 -3716 -3592 -3088 -1072 0
-64 -316 -372 -852 -964 -1732 -3716 -3208 -3088 -2096 0
-64 -316 -372 -852 -964 -2756 -3716 -3208 -3088 -1072 0
-64 -120 -372 -868 -964 -1924 -3716 -3212 -3088 -2080 0
-64 -120 -372 -868 -964 -2948 -3716 -3212 -3088 -1056 0
-64 -312 -372 -484 -964 -2756 -3716 -3596 -3088 -1056 0
-64 -312 -372 -868 -964 -1732 -3716 -3212 -3088 -2080 0
-64 -312 -372 -868 -964 -2756 -3716 -3212 -3088 -1056 0
-64 -120 -372 -852 -964 -1924 -3716 -3212 -3088 -2096 0
-64 -120 -372 -852 -964 -2948 -3716 -3212 -3088 -1072 0
-64 -312 -372 -468 -964 -1732 -3716 -3596 -3088 -2096 0
-64 -312 -372 -468 -964 -2756 -3716 -3596 -3088 -1072 0
-64 -312 -372 -852 -964 -1732 -3716 -3212 -3088 -2096 0
-64 -312 -372 -852 -964 -2756 -3716 -3212 -3088 -1072 0
-64 -568 -628 -740 -964 -1476 -3460 -3340 -3088 -2080 0
-64 -568 -628 -868 -964 -2500 -3460 -3212 -3088 -1056 0
-64 -188 -436 -932 -964 -1860 -3652 -3144 -3088 -2080 0
-64 -188 -436 -932 -964 -2884 -3652 -3144 -3088 -1056 0
-64 -316 -436 -484 -964 -1732 -3652 -3592 -3088 -2080 0
-64 -316 -436 -484 -964 -2756 -3652 -3592 -3088 -1056 0
-64 -316 -436 -932 -964 -1732 -3652 -3144 -3088 -2080 0
-64 -316 -436 -932 -964 -2756 -3652 -3144 -3088 -1056 0
-64 -188 -436 -916 -964 -1860 -3652 -3144 -3088 -2096 0
-64 -188 -436 -916 -964 -2884 -3652 -3144 -3088 -1072 0
-64 -316 -436 -468 -964 -1732 -3652 -3592 -3088 -2096 0
-64 -316 -436 -468 -964 -2756 -3652 -3592 -3088 -1072 0
-64 -316 -436 -916 -964 -1732 -3652 -3144 -3088 -2096 0
-64 -316 -436 -916 -964 -2756 -3652 -3144 -3088 -1072 0
-64 -184 -436 -932 -964 -1860 -3652 -3148 -3088 -2080 0
-64 -184 -436 -932 -964 -2884 -3652 -3148 -3088 -1056 0
-64 -312 -436 -484 -964 -1732 -3652 -3596 -3088 -2080 0
-64 -312 -436 -484 -964 -2756 -3652 -3596 -3088 -1056 0
-64 -312 -436 -932 -964 -1732 -3652 -3148 -3088 -2080 0
-64 -312 -436 -932 -964 -2756 -3652 -3148 -3088 -1056 0
-64 -184 -436 -916 -964 -1860 -3652 -3148 -3088 -2096 0
-64 -184 -436 -916 -964 -2884 -3652 -3148 -3088 -1072 0
-64 -312 -436 -468 -964 -1732 -3652 -3596 -3088 -2096 0
-64 -312 -436 -468 -964 -2756 -3652 -3596 -3088 -1072 0
-64 -312 -436 -916 -964 -1732 -3652 -3148 -3088 -2096 0
-64 -312 -436 -916 -964 -2756 -3652 -3148 -3088 -1072 0
-64 -188 -692 -932 -964 -1860 -3396 -3144 -3088 -2080 0
-64 -188 -692 -932 -964 -2884 -3396 -3144 -3088 -1056 0
-64 -572 -692 -932 -964 -1476 -3396 -3144 -3088 -2080 0
-64 -572 -692 -724 -964 -2500 -3396 -3336 -3088 -1072 0
-64 -568 -692 -724 -964 -1476 -3396 -3340 -3088 -2096 0
-64 -124 -244 -1236 -1476 -1924 -3844 -2824 -2576 -2096 0
-64 -120 -244 -1252 -1476 -3460 -3844 -2828 -2576 -544 0
-64 -188 -244 -2260 -2500 -2884 -3844 -1800 -1552 -1072 0
-64 -188 -244 -2260 -2500 -3396 -3844 -1800 -1552 -560 0
-64 -184 -244 -484 -2500 -3396 -3844 -3596 -1552 -544 0
-64 -188 -244 -740 -1732 -3652 -3844 -3336 -2320 -288 0
-64 -124 -244 -724 -1732 -3716 -3844 -3336 -2320 -304 0
-64 -120 -244 -1252 -1732 -1924 -3844 -2828 -2320 -2080 0
-64 -184 -244 -740 -1732 -3652 -3844 -3340 -2320 -288 0
-64 -120 -244 -1236 -1732 -1924 -3844 -2828 -2320 -2096 0
-64 -184 -244 -724 -1732 -3652 -3844 -3340 -2320 -304 0
-64 -124 -244 -740 -2756 -3716 -3844 -3336 -1296 -288 0
-64 -124 -244 -2276 -2756 -3716 -3844 -1800 -1296 -288 0
-64 -124 -244 -724 -2756 -3716 -3844 -3336 -1296 -304 0
-64 -184 -244 -740 -2756 -3652 -3844 -3340 -1296 -288 0
-64 -120 -244 -724 -2756 -3716 -3844 -3340 -1296 -304 0
-64 -120 -244 -2260 -2756 -2948 -3844 -1804 -1296 -1072 0
-64 -184 -244 -724 -2756 -3652 -3844 -3340 -1296 -304 0
-2108 -124 -244 -484 -964 -904 -1800 -3592 -3088 -3100 0
-2108 -124 -244 -740 -964 -904 -1800 -3336 -3088 -3100 0
-2108 -188 -244 -484 -964 -840 -1800 -3592 -3088 -3100 0
-2108 -2164 -244 -740 -964 -904 -1800 -1296 -3088 -3100 0
-2108 -2228 -244 -740 -964 -840 -1800 -1296 -3088 -3100 0
-2104 -120 -244 -484 -964 -908 -1804 -3596 -3088 -3096 0
-2104 -184 -244 -484 -964 -844 -1804 -3596 -3088 -3096 0
-2104 -120 -244 -468 -964 -908 -1804 -3596 -3088 -3112 0
-2104 -184 -244 -468 -964 -844 -1804 -3596 -3088 -3112 0
-1084 -124 -244 -484 -964 -904 -2824 -3592 -3088 -3100 0
-1084 -188 -244 -484 -964 -840 -2824 -3592 -3088 -3100 0
-1084 -124 -244 -468 -964 -904 -2824 -3592 -3088 -3116 0
-1084 -1140 -244 -484 -964 -904 -2824 -2576 -3088 -3100 0
-1084 -1140 -244 -740 -964 -904 -2824 -2320 -3088 -3100 0
-1080 -120 -244 -484 -964 -908 -2828 -3596 -3088 -3096 0
-1080 -184 -244 -484 -964 -844 -2828 -3596 -3088 -3096 0
-1080 -184 -244 -468 -964 -844 -2828 -3596 -3088 -3112 0
-1080 -1140 -244 -484 -964 -908 -2828 -2576 -3088 -3096 0
-1080 -1204 -244 -484 -964 -2884 -2828 -2576 -3088 -1056 0
