p cnf 65536 11912
-31 30 0
-32 0
-227 226 0
-228 0
511 0
767 0
895 0
1007 0
1023 0
1279 0
1407 0
1519 0
1535 0
1663 0
1775 0
1791 0
-1795 1794 0
-1796 0
1855 0
1919 0
2023 0
2031 0
-2050 0
2049 0
-2055 0
-2059 0
-2067 0
-2076 0
-2115 0
-2179 0
-2184 0
4096 0
-4098 0
4097 0
-4115 0
-4124 0
-4227 0
6144 0
-6147 0
6145 0
-6152 0
-6164 0
6186 0
-6212 0
-6276 0
-8194 0
8193 0
-8199 0
-8208 0
-8216 0
-8220 0
-8259 0
-8292 0
-8323 0
-8388 0
10240 0
-10243 0
10241 0
-10248 0
-10252 0
-10308 0
10314 0
10502 0
10506 0
10758 0
10762 0
11270 0
11274 0
-12291 0
12289 0
-12296 0
-12300 0
-12308 0
-12356 0
-12420 0
12434 0
-14340 0
14342 0
14346 0
14354 0
14370 0
14374 0
14378 0
14386 0
14402 0
14410 0
14447 0
14455 0
14459 0
14466 0
14482 0
14511 0
14519 0
14523 0
14543 0
14551 0
14555 0
14598 0
14602 0
14854 0
14858 0
14927 0
15127 0
15267 0
15299 0
15366 0
15370 0
15639 0
15779 0
15811 0
15895 0
16035 0
16067 0
-16386 0
16385 0
-16391 0
-16580 0
18432 0
18433 0
18474 0
18566 0
18694 0
18698 0
18950 0
18954 0
19462 0
19466 0
-20483 0
20481 0
-20488 0
-20500 0
-20516 0
-22532 0
22534 0
22538 0
22546 0
22562 0
22570 0
22639 0
22651 0
22658 0
22662 0
22715 0
22743 0
22747 0
22790 0
22794 0
23046 0
23050 0
23319 0
23558 0
23562 0
23831 0
24087 0
24577 0
-26627 26626 0
-26628 0
26630 0
26634 0
26642 0
26658 0
26666 0
26735 0
26747 0
26754 0
26758 0
26811 0
26843 0
26882 0
26886 0
26890 0
27138 0
27142 0
27146 0
27415 0
27650 0
27654 0
27658 0
27927 0
28183 0
28678 0
28682 0
28690 0
28706 0
28714 0
28722 0
28802 0
28859 0
28891 0
29603 0
30722 0
30726 0
30730 0
30738 0
30754 0
30767 0
30775 0
30779 0
30786 0
30799 0
30807 0
30811 0
30823 0
30827 0
30831 0
30835 0
30839 0
30843 0
30850 0
30863 0
30871 0
30875 0
30887 0
30891 0
30895 0
30899 0
30903 0
30907 0
30919 0
30923 0
30927 0
30931 0
30935 0
30939 0
30991 0
30999 0
31031 0
31055 0
31115 0
31139 0
31143 0
31171 0
31247 0
31255 0
31311 0
31371 0
31375 0
31399 0
31427 0
31495 0
31503 0
31507 0
31683 0
31759 0
31823 0
31883 0
32007 0
32015 0
32019 0
32023 0
32195 0
32263 0
32279 0
-32770 0
32769 0
-32775 0
-32796 0
-32835 0
34816 0
-34819 0
34817 0
34858 0
34890 0
-36867 0
36865 0
36906 0
-36996 0
37010 0
38918 0
38922 0
38954 0
38986 0
39042 0
39058 0
39087 0
39095 0
39127 0
40387 0
40961 0
43018 0
43074 0
43082 0
43119 0
45066 0
45074 0
45090 0
45098 0
45130 0
45167 0
45179 0
45186 0
45202 0
45231 0
45239 0
45243 0
45271 0
47106 0
47110 0
47114 0
47122 0
47138 0
47151 0
47159 0
47163 0
47170 0
47183 0
47191 0
47195 0
47207 0
47211 0
47215 0
47219 0
47223 0
47227 0
-47236 47235 0
47234 0
-47244 47243 0
47247 0
47255 0
47259 0
47271 0
47275 0
47279 0
47283 0
47287 0
47291 0
47303 0
47307 0
47311 0
47319 0
47323 0
47507 0
47631 0
47691 0
47695 0
47763 0
47783 0
47891 0
47895 0
48275 0
48659 0
48663 0
49153 0
51206 0
51238 0
51323 0
51375 0
51387 0
53254 0
53378 0
55298 0
55302 0
55306 0
55314 0
55330 0
55343 0
55351 0
55355 0
55362 0
55375 0
55383 0
55387 0
55399 0
55403 0
55407 0
55415 0
55426 0
55439 0
55447 0
55451 0
55463 0
55467 0
55471 0
55475 0
55479 0
55483 0
55495 0
55503 0
55511 0
55515 0
57474 0
57531 0
57559 0
59394 0
59398 0
59402 0
59410 0
59426 0
59439 0
59447 0
59451 0
-59460 59459 0
59458 0
59471 0
59479 0
59483 0
59495 0
59499 0
59503 0
59507 0
59511 0
59515 0
59522 0
59535 0
59543 0
59547 0
59559 0
59563 0
59567 0
59571 0
59575 0
59579 0
59591 0
59599 0
59607 0
59611 0
59663 0
59727 0
59787 0
59791 0
59811 0
59815 0
59919 0
60043 0
60047 0
60071 0
60431 0
60495 0
60555 0
60559 0
61442 0
61446 0
61450 0
61458 0
61487 0
61495 0
61499 0
61506 0
61519 0
61527 0
61531 0
61543 0
61547 0
61551 0
61555 0
61559 0
61563 0
61570 0
61583 0
61591 0
61595 0
61607 0
61611 0
61615 0
61619 0
61623 0
61627 0
61639 0
61647 0
61651 0
61655 0
61659 0
61711 0
61719 0
61723 0
61743 0
61775 0
61783 0
61787 0
61795 0
61811 0
61839 0
61847 0
61859 0
61863 0
61867 0
61967 0
61975 0
61979 0
62031 0
62039 0
62043 0
62095 0
62103 0
62107 0
62219 0
62223 0
62227 0
62243 0
62275 0
62283 0
62291 0
62307 0
62320 0
62328 0
62332 0
62384 0
62392 0
62396 0
62416 0
62424 0
62428 0
62479 0
62487 0
62491 0
62543 0
62735 0
62743 0
62747 0
62832 0
62840 0
62844 0
62896 0
62904 0
62908 0
62928 0
62936 0
62940 0
62991 0
62999 0
63003 0
63088 0
63096 0
63100 0
63152 0
63160 0
63164 0
63184 0
63192 0
63196 0
63490 0
63503 0
63511 0
63515 0
63527 0
63531 0
63535 0
63539 0
63543 0
63547 0
63559 0
63563 0
63567 0
63571 0
63575 0
63579 0
63587 0
63591 0
63595 0
63603 0
63623 0
63627 0
63631 0
63635 0
63639 0
63643 0
63651 0
63655 0
63659 0
63683 0
63687 0
63691 0
63736 0
63751 0
63755 0
63759 0
63767 0
63779 0
63811 0
63819 0
63856 0
63864 0
63868 0
63875 0
63907 0
63920 0
63928 0
63932 0
63952 0
63960 0
63964 0
64007 0
64011 0
64023 0
64035 0
64067 0
64075 0
64112 0
64120 0
64124 0
64131 0
64176 0
64184 0
64188 0
64208 0
64216 0
64220 0
64259 0
64275 0
64312 0
64336 0
64344 0
64400 0
64456 0
64519 0
64523 0
64527 0
64547 0
64579 0
64587 0
64624 0
64632 0
64636 0
64643 0
64688 0
64696 0
64700 0
64707 0
64720 0
64728 0
64732 0
64771 0
64779 0
64816 0
64824 0
64848 0
64912 0
64920 0
64936 0
64968 0
65027 0
65035 0
65072 0
65080 0
65104 0
65112 0
65168 0
65176 0
65224 0
-31 14 0
-14 46 0
-14 78 0
-14 142 0
-14 270 0
-14 526 0
-14 1038 0
-14 2062 0
-14 4110 0
-14 8206 0
-14 16398 0
-14 32782 0
-31 22 0
-22 54 0
-22 86 0
-22 150 0
-22 278 0
-22 534 0
-22 1046 0
-22 2070 0
-22 4118 0
-22 8214 0
-22 16406 0
-22 32790 0
-31 26 0
-26 58 0
-26 90 0
-26 154 0
-26 282 0
-26 538 0
-26 1050 0
-26 2074 0
-26 4122 0
-26 8218 0
-26 16410 0
-26 32794 0
-31 63 0
-2112 64 2080 32 -31 0
-4160 64 4128 32 -31 0
-8256 64 8224 32 -31 0
-16448 64 16416 32 -31 0
-32832 64 32800 32 -31 0
-31 95 0
-31 159 0
-31 287 0
-31 543 0
-31 1055 0
-31 2079 0
-31 4127 0
-31 8223 0
-63 127 0
-64 128 0
-2176 128 2112 64 -63 0
-4224 128 4160 64 -63 0
-8320 128 8256 64 -63 0
-16512 128 16448 64 -63 0
-32896 128 32832 64 -63 0
-63 191 0
-63 319 0
-63 575 0
-63 1087 0
-63 2111 0
-63 4159 0
-63 8255 0
-63 16447 0
-96 128 0
-2176 128 2144 96 -95 0
-4224 128 4192 96 -95 0
-8320 128 8288 96 -95 0
-16512 128 16480 96 -95 0
-32896 128 32864 96 -95 0
-95 223 0
-95 2143 0
-95 4191 0
-95 8287 0
-95 16479 0
-98 102 0
-98 106 0
-98 114 0
-227 98 0
-98 354 0
-98 610 0
-98 1122 0
-98 2146 0
-98 4194 0
-98 8290 0
-98 16482 0
-98 32866 0
-127 255 0
-128 256 0
-2304 256 2176 128 -127 0
-4352 256 4224 128 -127 0
-8448 256 8320 128 -127 0
-16640 256 16512 128 -127 0
-33024 256 32896 128 -127 0
-127 383 0
-127 639 0
-127 1151 0
-127 2175 0
-127 4223 0
-127 8319 0
-127 16511 0
-127 32895 0
-160 192 0
-2240 192 2208 160 -159 0
-4288 192 4256 160 -159 0
-8384 192 8352 160 -159 0
-16576 192 16544 160 -159 0
-32960 192 32928 160 -159 0
-159 2207 0
-159 4255 0
-159 8351 0
-159 16543 0
-162 166 0
-162 170 0
-162 178 0
-227 162 0
-162 418 0
-162 674 0
-162 1186 0
-162 2210 0
-162 4258 0
-162 8354 0
-162 16546 0
-162 32930 0
-192 256 0
-2304 256 2240 192 -191 0
-4352 256 4288 192 -191 0
-8448 256 8384 192 -191 0
-16640 256 16576 192 -191 0
-33024 256 32960 192 -191 0
-191 2239 0
-191 4287 0
-191 8383 0
-191 16575 0
-191 32959 0
-194 198 0
-194 202 0
-194 210 0
-227 194 0
-194 450 0
-194 706 0
-194 1218 0
-194 2242 0
-194 4290 0
-194 8386 0
-194 16578 0
-194 32962 0
-224 256 0
-2304 256 2272 224 -223 0
-4352 256 4320 224 -223 0
-8448 256 8416 224 -223 0
-16640 256 16608 224 -223 0
-223 2271 0
-223 4319 0
-223 8415 0
-223 16607 0
-223 32991 0
-227 231 0
-2280 232 2276 228 -227 0
-4328 232 4324 228 -227 0
-8424 232 8420 228 -227 0
-16616 232 16612 228 -227 0
-33000 232 32996 228 -227 0
-227 235 0
-227 243 0
-227 483 0
-227 739 0
-227 1251 0
-227 2275 0
-227 4323 0
-227 8419 0
-231 239 0
-232 240 0
-2288 240 2280 232 -231 0
-4336 240 4328 232 -231 0
-8432 240 8424 232 -231 0
-16624 240 16616 232 -231 0
-33008 240 33000 232 -231 0
-231 247 0
-231 487 0
-231 743 0
-231 1255 0
-231 2279 0
-231 4327 0
-231 8423 0
-231 16615 0
-236 240 0
-2288 240 2284 236 -235 0
-4336 240 4332 236 -235 0
-8432 240 8428 236 -235 0
-235 251 0
-235 2283 0
-235 4331 0
-235 8427 0
-235 16619 0
-240 256 0
-2304 256 2288 240 -239 0
-4352 256 4336 240 -239 0
-8448 256 8432 240 -239 0
-16640 256 16624 240 -239 0
-33024 256 33008 240 -239 0
-239 495 0
-239 751 0
-239 1263 0
-244 248 0
-2296 248 2292 244 -243 0
-4344 248 4340 244 -243 0
-8440 248 8436 244 -243 0
-243 2291 0
-243 4339 0
-243 8435 0
-243 16627 0
-248 256 0
-2304 256 2296 248 -247 0
-4352 256 4344 248 -247 0
-8448 256 8440 248 -247 0
-252 256 0
-2304 256 2300 252 -251 0
-4352 256 4348 252 -251 0
-8448 256 8444 252 -251 0
-256 512 0
-2560 512 2304 256 -255 0
-4608 512 4352 256 -255 0
-8704 512 8448 256 -255 0
-16896 512 16640 256 -255 0
-33280 512 33024 256 -255 0
-288 320 0
-2368 320 2336 288 -287 0
-4416 320 4384 288 -287 0
-8512 320 8480 288 -287 0
-16704 320 16672 288 -287 0
-33088 320 33056 288 -287 0
-287 799 0
-287 1311 0
-287 2335 0
-287 4383 0
-287 8479 0
-287 16671 0
-320 384 0
-2432 384 2368 320 -319 0
-4480 384 4416 320 -319 0
-8576 384 8512 320 -319 0
-16768 384 16704 320 -319 0
-33152 384 33088 320 -319 0
-319 831 0
-319 1343 0
-384 512 0
-2560 512 2432 384 -383 0
-4608 512 4480 384 -383 0
-8704 512 8576 384 -383 0
-16896 512 16768 384 -383 0
-33280 512 33152 384 -383 0
-484 488 0
-2536 488 2532 484 -483 0
-4584 488 4580 484 -483 0
-8680 488 8676 484 -483 0
-16872 488 16868 484 -483 0
-33256 488 33252 484 -483 0
-483 995 0
-483 1507 0
-483 2531 0
-483 4579 0
-483 8675 0
-483 16867 0
-488 496 0
-2544 496 2536 488 -487 0
-4592 496 4584 488 -487 0
-8688 496 8680 488 -487 0
-16880 496 16872 488 -487 0
-33264 496 33256 488 -487 0
-487 999 0
-487 1511 0
-496 512 0
-2560 512 2544 496 -495 0
-4608 512 4592 496 -495 0
-8704 512 8688 496 -495 0
-16896 512 16880 496 -495 0
-33280 512 33264 496 -495 0
-512 1024 0
-3072 1024 2560 512 -511 0
-5120 1024 4608 512 -511 0
-9216 1024 8704 512 -511 0
-17408 1024 16896 512 -511 0
-33792 1024 33280 512 -511 0
-544 576 0
-2624 576 2592 544 -543 0
-4672 576 4640 544 -543 0
-8768 576 8736 544 -543 0
-16960 576 16928 544 -543 0
-33344 576 33312 544 -543 0
-543 1567 0
-543 2591 0
-543 4639 0
-543 8735 0
-543 16927 0
-576 640 0
-2688 640 2624 576 -575 0
-4736 640 4672 576 -575 0
-8832 640 8768 576 -575 0
-17024 640 16960 576 -575 0
-33408 640 33344 576 -575 0
-575 1599 0
-640 768 0
-2816 768 2688 640 -639 0
-4864 768 4736 640 -639 0
-8960 768 8832 640 -639 0
-17152 768 17024 640 -639 0
-33536 768 33408 640 -639 0
-740 744 0
-2792 744 2788 740 -739 0
-4840 744 4836 740 -739 0
-8936 744 8932 740 -739 0
-17128 744 17124 740 -739 0
-33512 744 33508 740 -739 0
-739 1763 0
-739 2787 0
-739 4835 0
-739 8931 0
-739 17123 0
-744 752 0
-2800 752 2792 744 -743 0
-4848 752 4840 744 -743 0
-8944 752 8936 744 -743 0
-17136 752 17128 744 -743 0
-33520 752 33512 744 -743 0
-743 1767 0
-752 768 0
-2816 768 2800 752 -751 0
-4864 768 4848 752 -751 0
-8960 768 8944 752 -751 0
-17152 768 17136 752 -751 0
-33536 768 33520 752 -751 0
-768 1024 0
-3072 1024 2816 768 -767 0
-5120 1024 4864 768 -767 0
-9216 1024 8960 768 -767 0
-17408 1024 17152 768 -767 0
-33792 1024 33536 768 -767 0
-770 774 0
-770 778 0
-770 786 0
-770 802 0
-770 834 0
-770 898 0
-1795 770 0
-770 2818 0
-770 4866 0
-770 8962 0
-770 17154 0
-770 33538 0
-800 832 0
-2880 832 2848 800 -799 0
-4928 832 4896 800 -799 0
-9024 832 8992 800 -799 0
-17216 832 17184 800 -799 0
-799 1823 0
-799 2847 0
-799 4895 0
-799 8991 0
-799 17183 0
-799 33567 0
-832 896 0
-2944 896 2880 832 -831 0
-4992 896 4928 832 -831 0
-9088 896 9024 832 -831 0
-17280 896 17216 832 -831 0
-896 1024 0
-3072 1024 2944 896 -895 0
-5120 1024 4992 896 -895 0
-9216 1024 9088 896 -895 0
-17408 1024 17280 896 -895 0
-996 1000 0
-3048 1000 3044 996 -995 0
-5096 1000 5092 996 -995 0
-9192 1000 9188 996 -995 0
-17384 1000 17380 996 -995 0
-995 2019 0
-995 3043 0
-995 5091 0
-995 9187 0
-995 17379 0
-995 33763 0
-1000 1008 0
-3056 1008 3048 1000 -999 0
-5104 1008 5096 1000 -999 0
-9200 1008 9192 1000 -999 0
-17392 1008 17384 1000 -999 0
-1008 1024 0
-3072 1024 3056 1008 -1007 0
-5120 1024 5104 1008 -1007 0
-9216 1024 9200 1008 -1007 0
-17408 1024 17392 1008 -1007 0
-1024 2048 0
-4096 2048 3072 1024 -1023 0
-6144 2048 5120 1024 -1023 0
-10240 2048 9216 1024 -1023 0
-18432 2048 17408 1024 -1023 0
-34816 2048 33792 1024 -1023 0
-1056 1088 0
-3136 1088 3104 1056 -1055 0
-5184 1088 5152 1056 -1055 0
-9280 1088 9248 1056 -1055 0
-17472 1088 17440 1056 -1055 0
-33856 1088 33824 1056 -1055 0
-1055 3103 0
-1055 5151 0
-1055 9247 0
-1055 17439 0
-1088 1152 0
-3200 1152 3136 1088 -1087 0
-5248 1152 5184 1088 -1087 0
-9344 1152 9280 1088 -1087 0
-17536 1152 17472 1088 -1087 0
-33920 1152 33856 1088 -1087 0
-1152 1280 0
-3328 1280 3200 1152 -1151 0
-5376 1280 5248 1152 -1151 0
-9472 1280 9344 1152 -1151 0
-17664 1280 17536 1152 -1151 0
-34048 1280 33920 1152 -1151 0
-1252 1256 0
-3304 1256 3300 1252 -1251 0
-5352 1256 5348 1252 -1251 0
-9448 1256 9444 1252 -1251 0
-17640 1256 17636 1252 -1251 0
-34024 1256 34020 1252 -1251 0
-1251 3299 0
-1251 5347 0
-1251 9443 0
-1251 17635 0
-1256 1264 0
-3312 1264 3304 1256 -1255 0
-5360 1264 5352 1256 -1255 0
-9456 1264 9448 1256 -1255 0
-17648 1264 17640 1256 -1255 0
-34032 1264 34024 1256 -1255 0
-1264 1280 0
-3328 1280 3312 1264 -1263 0
-5376 1280 5360 1264 -1263 0
-9472 1280 9456 1264 -1263 0
-17664 1280 17648 1264 -1263 0
-34048 1280 34032 1264 -1263 0
-1280 1536 0
-3584 1536 3328 1280 -1279 0
-5632 1536 5376 1280 -1279 0
-9728 1536 9472 1280 -1279 0
-17920 1536 17664 1280 -1279 0
-34304 1536 34048 1280 -1279 0
-1282 1286 0
-1282 1290 0
-1282 1298 0
-1282 1314 0
-1282 1346 0
-1282 1410 0
-1795 1282 0
-1282 3330 0
-1282 5378 0
-1282 9474 0
-1282 17666 0
-1282 34050 0
-1312 1344 0
-3392 1344 3360 1312 -1311 0
-5440 1344 5408 1312 -1311 0
-9536 1344 9504 1312 -1311 0
-17728 1344 17696 1312 -1311 0
-1311 3359 0
-1311 5407 0
-1311 9503 0
-1311 17695 0
-1311 34079 0
-1344 1408 0
-3456 1408 3392 1344 -1343 0
-5504 1408 5440 1344 -1343 0
-9600 1408 9536 1344 -1343 0
-17792 1408 17728 1344 -1343 0
-1408 1536 0
-3584 1536 3456 1408 -1407 0
-5632 1536 5504 1408 -1407 0
-9728 1536 9600 1408 -1407 0
-17920 1536 17792 1408 -1407 0
-1508 1512 0
-3560 1512 3556 1508 -1507 0
-5608 1512 5604 1508 -1507 0
-9704 1512 9700 1508 -1507 0
-17896 1512 17892 1508 -1507 0
-1507 3555 0
-1507 5603 0
-1507 9699 0
-1507 17891 0
-1507 34275 0
-1512 1520 0
-3568 1520 3560 1512 -1511 0
-5616 1520 5608 1512 -1511 0
-9712 1520 9704 1512 -1511 0
-17904 1520 17896 1512 -1511 0
-1520 1536 0
-3584 1536 3568 1520 -1519 0
-5632 1536 5616 1520 -1519 0
-9728 1536 9712 1520 -1519 0
-17920 1536 17904 1520 -1519 0
-1536 2048 0
-4096 2048 3584 1536 -1535 0
-6144 2048 5632 1536 -1535 0
-10240 2048 9728 1536 -1535 0
-18432 2048 17920 1536 -1535 0
-34816 2048 34304 1536 -1535 0
-1538 1542 0
-1538 1546 0
-1538 1554 0
-1538 1570 0
-1538 1602 0
-1538 1666 0
-1795 1538 0
-1538 3586 0
-1538 5634 0
-1538 9730 0
-1538 17922 0
-1538 34306 0
-1568 1600 0
-3648 1600 3616 1568 -1567 0
-5696 1600 5664 1568 -1567 0
-9792 1600 9760 1568 -1567 0
-17984 1600 17952 1568 -1567 0
-1567 3615 0
-1567 5663 0
-1567 9759 0
-1567 17951 0
-1567 34335 0
-1600 1664 0
-3712 1664 3648 1600 -1599 0
-5760 1664 5696 1600 -1599 0
-9856 1664 9792 1600 -1599 0
-18048 1664 17984 1600 -1599 0
-1664 1792 0
-3840 1792 3712 1664 -1663 0
-5888 1792 5760 1664 -1663 0
-9984 1792 9856 1664 -1663 0
-18176 1792 18048 1664 -1663 0
-1764 1768 0
-3816 1768 3812 1764 -1763 0
-5864 1768 5860 1764 -1763 0
-9960 1768 9956 1764 -1763 0
-18152 1768 18148 1764 -1763 0
-1763 3811 0
-1763 5859 0
-1763 9955 0
-1763 18147 0
-1763 34531 0
-1768 1776 0
-3824 1776 3816 1768 -1767 0
-5872 1776 5864 1768 -1767 0
-9968 1776 9960 1768 -1767 0
-18160 1776 18152 1768 -1767 0
-1776 1792 0
-3840 1792 3824 1776 -1775 0
-5888 1792 5872 1776 -1775 0
-9984 1792 9968 1776 -1775 0
-18176 1792 18160 1776 -1775 0
-1792 2048 0
-4096 2048 3840 1792 -1791 0
-6144 2048 5888 1792 -1791 0
-10240 2048 9984 1792 -1791 0
-18432 2048 18176 1792 -1791 0
-1795 1799 0
-3848 1800 3844 1796 -1795 0
-5896 1800 5892 1796 -1795 0
-9992 1800 9988 1796 -1795 0
-18184 1800 18180 1796 -1795 0
-34568 1800 34564 1796 -1795 0
-1795 1803 0
-1795 1811 0
-1795 1827 0
-1795 1859 0
-1795 1923 0
-1795 3843 0
-1795 5891 0
-1795 9987 0
-1799 1807 0
-1800 1808 0
-3856 1808 3848 1800 -1799 0
-5904 1808 5896 1800 -1799 0
-10000 1808 9992 1800 -1799 0
-18192 1808 18184 1800 -1799 0
-34576 1808 34568 1800 -1799 0
-1799 1815 0
-1799 3847 0
-1799 5895 0
-1799 9991 0
-1799 18183 0
-1804 1808 0
-3856 1808 3852 1804 -1803 0
-5904 1808 5900 1804 -1803 0
-10000 1808 9996 1804 -1803 0
-1803 1819 0
-1803 3851 0
-1803 5899 0
-1803 9995 0
-1803 18187 0
-1808 1824 0
-3872 1824 3856 1808 -1807 0
-5920 1824 5904 1808 -1807 0
-10016 1824 10000 1808 -1807 0
-18208 1824 18192 1808 -1807 0
-34592 1824 34576 1808 -1807 0
-1812 1816 0
-3864 1816 3860 1812 -1811 0
-5912 1816 5908 1812 -1811 0
-10008 1816 10004 1812 -1811 0
-1811 3859 0
-1811 5907 0
-1811 10003 0
-1811 18195 0
-1816 1824 0
-3872 1824 3864 1816 -1815 0
-5920 1824 5912 1816 -1815 0
-10016 1824 10008 1816 -1815 0
-1820 1824 0
-3872 1824 3868 1820 -1819 0
-5920 1824 5916 1820 -1819 0
-10016 1824 10012 1820 -1819 0
-1824 1856 0
-3904 1856 3872 1824 -1823 0
-5952 1856 5920 1824 -1823 0
-10048 1856 10016 1824 -1823 0
-18240 1856 18208 1824 -1823 0
-34624 1856 34592 1824 -1823 0
-1828 1832 0
-1827 1891 0
-3940 1892 3876 1828 -1827 0
-5988 1892 5924 1828 -1827 0
-10084 1892 10020 1828 -1827 0
-1827 1955 0
-1827 3875 0
-1827 5923 0
-1827 10019 0
-1827 18211 0
-1832 1840 0
-1840 1856 0
-1856 1920 0
-3968 1920 3904 1856 -1855 0
-6016 1920 5952 1856 -1855 0
-10112 1920 10048 1856 -1855 0
-18304 1920 18240 1856 -1855 0
-34688 1920 34624 1856 -1855 0
-1860 1864 0
-3940 1892 3908 1860 -1859 0
-5988 1892 5956 1860 -1859 0
-10084 1892 10052 1860 -1859 0
-1859 1987 0
-1859 3907 0
-1859 5955 0
-1859 10051 0
-1859 18243 0
-1864 1872 0
-1872 1888 0
-1888 1920 0
-1892 1896 0
-4068 2020 3940 1892 -1891 0
-6116 2020 5988 1892 -1891 0
-10212 2020 10084 1892 -1891 0
-1896 1904 0
-1904 1920 0
-1920 2048 0
-4096 2048 3968 1920 -1919 0
-6144 2048 6016 1920 -1919 0
-10240 2048 10112 1920 -1919 0
-18432 2048 18304 1920 -1919 0
-34816 2048 34688 1920 -1919 0
-1924 1928 0
-4004 1956 3972 1924 -1923 0
-6052 1956 6020 1924 -1923 0
-10148 1956 10116 1924 -1923 0
-1923 3971 0
-1923 6019 0
-1923 10115 0
-1923 18307 0
-1928 1936 0
-1936 1952 0
-1952 1984 0
-1956 1960 0
-4068 2020 4004 1956 -1955 0
-6116 2020 6052 1956 -1955 0
-10212 2020 10148 1956 -1955 0
-1960 1968 0
-1968 1984 0
-1984 2048 0
-1988 1992 0
-4068 2020 4036 1988 -1987 0
-6116 2020 6084 1988 -1987 0
-10212 2020 10180 1988 -1987 0
-1992 2000 0
-2000 2016 0
-2016 2048 0
-2020 2024 0
-4072 2024 4068 2020 -2019 0
-6120 2024 6116 2020 -2019 0
-10216 2024 10212 2020 -2019 0
-18408 2024 18404 2020 -2019 0
-34792 2024 34788 2020 -2019 0
-2024 2032 0
-4080 2032 4072 2024 -2023 0
-6128 2032 6120 2024 -2023 0
-10224 2032 10216 2024 -2023 0
-18416 2032 18408 2024 -2023 0
-34800 2032 34792 2024 -2023 0
-2032 2048 0
-4096 2048 4080 2032 -2031 0
-6144 2048 6128 2032 -2031 0
-10240 2048 10224 2032 -2031 0
-18432 2048 18416 2032 -2031 0
-34816 2048 34800 2032 -2031 0
-14338 6146 10242 2050 -2049 0
-38914 6146 34818 2050 -2049 0
-26626 10242 18434 2050 -2049 0
-43010 10242 34818 2050 -2049 0
-2063 2054 0
-10375 2183 10247 2055 -2054 0
-2054 6150 0
-14343 6151 10247 2055 -2054 0
-2054 10246 0
-2054 18438 0
-2054 34822 0
-2063 2058 0
-2058 6154 0
-2058 10250 0
-43019 10251 34827 2059 -2058 0
-2058 18442 0
-2058 34826 0
-2080 2063 0
-2063 6159 0
-2063 10255 0
-2071 2066 0
-2066 6162 0
-14355 6163 10259 2067 -2066 0
-2066 10258 0
-26643 10259 18451 2067 -2066 0
-2066 18450 0
-2066 34834 0
-2080 2071 0
-2071 6167 0
-2071 10263 0
-2071 18455 0
-2071 34839 0
-2080 2075 0
-2075 6171 0
-22556 6172 18460 2076 -2075 0
-2075 10267 0
-2075 18459 0
-2079 6175 0
-2080 6176 0
-2079 10271 0
-2080 10272 0
-2079 18463 0
-2147 2082 0
-2082 6178 0
-2082 10274 0
-2082 18466 0
-2082 34850 0
-2095 2086 0
-2095 2090 0
-2112 2095 0
-2095 6191 0
-2095 10287 0
-2095 18479 0
-2103 2098 0
-2112 2103 0
-2103 6199 0
-2103 10295 0
-2103 18487 0
-2112 2107 0
-2107 6203 0
-2107 10299 0
-2107 18491 0
-2111 6207 0
-2112 6208 0
-2111 10303 0
-2112 10304 0
-2111 18495 0
-2111 34879 0
-2147 2114 0
-2114 6210 0
-2114 10306 0
-26691 10307 18499 2115 -2114 0
-2114 18498 0
-2114 34882 0
-2127 2118 0
-2127 2122 0
-2144 2127 0
-2127 6223 0
-2127 10319 0
-2127 18511 0
-2135 2130 0
-2144 2135 0
-2135 6231 0
-2135 10327 0
-2135 18519 0
-2144 2139 0
-2139 6235 0
-2139 10331 0
-2139 18523 0
-2143 6239 0
-2144 6240 0
-2143 10335 0
-2144 10336 0
-2143 18527 0
-2143 34911 0
-2276 2147 0
-2147 6243 0
-2147 10339 0
-2147 18531 0
-2280 2151 0
-2151 6247 0
-2151 10343 0
-2151 18535 0
-2284 2155 0
-2155 6251 0
-2155 10347 0
-2155 18539 0
-2176 2159 0
-2159 6255 0
-2159 10351 0
-2159 18543 0
-2159 34927 0
-2292 2163 0
-2163 6259 0
-2163 10355 0
-2163 18547 0
-2176 2167 0
-2167 6263 0
-2167 10359 0
-2167 18551 0
-2167 34935 0
-2176 2171 0
-2171 6267 0
-2171 10363 0
-2171 18555 0
-2171 34939 0
-2176 6272 0
-2176 10368 0
-2176 18560 0
-2211 2178 0
-2178 6274 0
-39043 6275 34947 2179 -2178 0
-2178 10370 0
-26755 10371 18563 2179 -2178 0
-2178 18562 0
-2178 34946 0
-2191 2182 0
-14472 6280 10376 2184 -2183 0
-2191 2186 0
-2208 2191 0
-2191 6287 0
-2191 10383 0
-2191 18575 0
-2199 2194 0
-2208 2199 0
-2199 6295 0
-2199 10391 0
-2199 18583 0
-2208 2203 0
-2203 6299 0
-2203 10395 0
-2203 18587 0
-2207 6303 0
-2208 6304 0
-2207 10399 0
-2208 10400 0
-2207 18591 0
-2207 34975 0
-2276 2211 0
-2211 6307 0
-2211 10403 0
-2280 2215 0
-2215 6311 0
-2215 10407 0
-2215 18599 0
-2284 2219 0
-2219 6315 0
-2219 10411 0
-2219 18603 0
-2240 2223 0
-2223 6319 0
-2223 10415 0
-2223 18607 0
-2223 34991 0
-2292 2227 0
-2227 6323 0
-2227 10419 0
-2227 18611 0
-2240 2231 0
-2231 6327 0
-2231 10423 0
-2231 18615 0
-2231 34999 0
-2240 2235 0
-2235 6331 0
-2235 10427 0
-2235 18619 0
-2235 35003 0
-2240 6336 0
-2240 10432 0
-2240 18624 0
-2276 2243 0
-2243 6339 0
-2243 10435 0
-2243 18627 0
-2280 2247 0
-2247 6343 0
-2247 10439 0
-2247 18631 0
-2284 2251 0
-2251 6347 0
-2251 10443 0
-2251 18635 0
-2272 2255 0
-2255 6351 0
-2255 10447 0
-2255 18639 0
-2255 35023 0
-2292 2259 0
-2259 6355 0
-2259 10451 0
-2259 18643 0
-2272 2263 0
-2263 6359 0
-2263 10455 0
-2263 18647 0
-2263 35031 0
-2272 2267 0
-2267 6363 0
-2267 10459 0
-2267 18651 0
-2267 35035 0
-2272 6368 0
-2272 10464 0
-2272 18656 0
-2275 6371 0
-2276 6372 0
-2275 10467 0
-2276 10468 0
-2275 18659 0
-2279 6375 0
-2280 6376 0
-2279 10471 0
-2280 10472 0
-2279 18663 0
-2279 35047 0
-2283 6379 0
-2284 6380 0
-2283 10475 0
-2284 10476 0
-2283 18667 0
-2283 35051 0
-2304 2287 0
-2288 6384 0
-2288 10480 0
-2288 18672 0
-2291 6387 0
-2292 6388 0
-2291 10483 0
-2292 10484 0
-2291 18675 0
-2291 35059 0
-2304 2295 0
-2296 6392 0
-2296 10488 0
-2296 18680 0
-2304 2299 0
-2300 6396 0
-2300 10492 0
-2300 18684 0
-2304 6400 0
-2304 10496 0
-2304 18688 0
-2304 35072 0
-2819 2306 0
-2306 6402 0
-2306 10498 0
-2306 18690 0
-2306 35074 0
-2319 2310 0
-2319 2314 0
-2336 2319 0
-2319 6415 0
-2319 10511 0
-2319 18703 0
-2327 2322 0
-2336 2327 0
-2327 6423 0
-2327 10519 0
-2327 18711 0
-2336 2331 0
-2331 6427 0
-2331 10523 0
-2331 18715 0
-2335 6431 0
-2336 6432 0
-2335 10527 0
-2336 10528 0
-2335 18719 0
-2335 35103 0
-2403 2338 0
-2403 2370 0
-2532 2403 0
-2403 6499 0
-2403 10595 0
-2403 18787 0
-2467 2434 0
-2532 2467 0
-2467 6563 0
-2467 10659 0
-2467 18851 0
-2532 2499 0
-2499 6595 0
-2499 10691 0
-2499 18883 0
-2531 6627 0
-2532 6628 0
-2531 10723 0
-2532 10724 0
-2531 18915 0
-2531 35299 0
-2819 2562 0
-2562 6658 0
-2562 10754 0
-2562 18946 0
-2562 35330 0
-2575 2566 0
-2575 2570 0
-2592 2575 0
-2575 6671 0
-2575 10767 0
-2575 18959 0
-2583 2578 0
-2592 2583 0
-2583 6679 0
-2583 10775 0
-2583 18967 0
-2592 2587 0
-2587 6683 0
-2587 10779 0
-2587 18971 0
-2591 6687 0
-2592 6688 0
-2591 10783 0
-2592 10784 0
-2591 18975 0
-2591 35359 0
-2659 2594 0
-2659 2626 0
-2788 2659 0
-2659 6755 0
-2659 10851 0
-2659 19043 0
-2723 2690 0
-2788 2723 0
-2723 6819 0
-2723 10915 0
-2723 19107 0
-2788 2755 0
-2755 6851 0
-2755 10947 0
-2755 19139 0
-2787 6883 0
-2788 6884 0
-2787 10979 0
-2788 10980 0
-2787 19171 0
-2787 35555 0
-3844 2819 0
-2819 6915 0
-2819 11011 0
-2819 19203 0
-3848 2823 0
-2823 6919 0
-2823 11015 0
-2823 19207 0
-3852 2827 0
-2827 6923 0
-2827 11019 0
-2827 19211 0
-2848 2831 0
-2831 6927 0
-2831 11023 0
-2831 19215 0
-2831 35599 0
-3860 2835 0
-2835 6931 0
-2835 11027 0
-2835 19219 0
-2848 2839 0
-2839 6935 0
-2839 11031 0
-2839 19223 0
-2839 35607 0
-2848 2843 0
-2843 6939 0
-2843 11035 0
-2843 19227 0
-2843 35611 0
-2848 6944 0
-2848 11040 0
-2848 19232 0
-3876 2851 0
-2851 6947 0
-2851 11043 0
-2851 19235 0
-3908 2883 0
-2883 6979 0
-2883 11075 0
-2883 19267 0
-3044 2915 0
-2915 7011 0
-2915 11107 0
-2915 19299 0
-2915 35683 0
-3972 2947 0
-2947 7043 0
-2947 11139 0
-2947 19331 0
-3044 2979 0
-2979 7075 0
-2979 11171 0
-2979 19363 0
-2979 35747 0
-3044 3011 0
-3011 7107 0
-3011 11203 0
-3011 19395 0
-3011 35779 0
-3044 7140 0
-3044 11236 0
-3044 19428 0
-3331 3074 0
-3074 7170 0
-3074 11266 0
-3074 19458 0
-3074 35842 0
-3087 3078 0
-3087 3082 0
-3104 3087 0
-3087 7183 0
-3087 11279 0
-3087 19471 0
-3095 3090 0
-3104 3095 0
-3095 7191 0
-3095 11287 0
-3095 19479 0
-3104 3099 0
-3099 7195 0
-3099 11291 0
-3099 19483 0
-3103 7199 0
-3104 7200 0
-3103 11295 0
-3104 11296 0
-3103 19487 0
-3103 35871 0
-3171 3106 0
-3171 3138 0
-3300 3171 0
-3171 7267 0
-3171 11363 0
-3171 19555 0
-3235 3202 0
-3300 3235 0
-3235 7331 0
-3235 11427 0
-3235 19619 0
-3300 3267 0
-3267 7363 0
-3267 11459 0
-3267 19651 0
-3299 7395 0
-3300 7396 0
-3299 11491 0
-3300 11492 0
-3299 19683 0
-3299 36067 0
-3844 3331 0
-3331 7427 0
-3331 11523 0
-3331 19715 0
-3848 3335 0
-3335 7431 0
-3335 11527 0
-3335 19719 0
-3852 3339 0
-3339 7435 0
-3339 11531 0
-3339 19723 0
-3360 3343 0
-3343 7439 0
-3343 11535 0
-3343 19727 0
-3343 36111 0
-3860 3347 0
-3347 7443 0
-3347 11539 0
-3347 19731 0
-3360 3351 0
-3351 7447 0
-3351 11543 0
-3351 19735 0
-3351 36119 0
-3360 3355 0
-3355 7451 0
-3355 11547 0
-3355 19739 0
-3355 36123 0
-3360 7456 0
-3360 11552 0
-3360 19744 0
-3876 3363 0
-3363 7459 0
-3363 11555 0
-3363 19747 0
-3908 3395 0
-3395 7491 0
-3395 11587 0
-3395 19779 0
-3556 3427 0
-3427 7523 0
-3427 11619 0
-3427 19811 0
-3427 36195 0
-3972 3459 0
-3459 7555 0
-3459 11651 0
-3459 19843 0
-3556 3491 0
-3491 7587 0
-3491 11683 0
-3491 19875 0
-3491 36259 0
-3556 3523 0
-3523 7619 0
-3523 11715 0
-3523 19907 0
-3523 36291 0
-3556 7652 0
-3556 11748 0
-3556 19940 0
-3844 3587 0
-3587 7683 0
-3587 11779 0
-3587 19971 0
-3848 3591 0
-3591 7687 0
-3591 11783 0
-3591 19975 0
-3852 3595 0
-3595 7691 0
-3595 11787 0
-3595 19979 0
-3616 3599 0
-3599 7695 0
-3599 11791 0
-3599 19983 0
-3599 36367 0
-3860 3603 0
-3603 7699 0
-3603 11795 0
-3603 19987 0
-3616 3607 0
-3607 7703 0
-3607 11799 0
-3607 19991 0
-3607 36375 0
-3616 3611 0
-3611 7707 0
-3611 11803 0
-3611 19995 0
-3611 36379 0
-3616 7712 0
-3616 11808 0
-3616 20000 0
-3876 3619 0
-3619 7715 0
-3619 11811 0
-3619 20003 0
-3908 3651 0
-3651 7747 0
-3651 11843 0
-3651 20035 0
-3812 3683 0
-3683 7779 0
-3683 11875 0
-3683 20067 0
-3683 36451 0
-3972 3715 0
-3715 7811 0
-3715 11907 0
-3715 20099 0
-3812 3747 0
-3747 7843 0
-3747 11939 0
-3747 20131 0
-3747 36515 0
-3812 3779 0
-3779 7875 0
-3779 11971 0
-3779 20163 0
-3779 36547 0
-3812 7908 0
-3812 12004 0
-3812 20196 0
-3843 7939 0
-3843 12035 0
-3843 20227 0
-3847 7943 0
-3848 7944 0
-3847 12039 0
-3848 12040 0
-3847 20231 0
-3847 36615 0
-3851 7947 0
-3852 7948 0
-3851 12043 0
-3852 12044 0
-3851 20235 0
-3851 36619 0
-3872 3855 0
-3856 7952 0
-3856 12048 0
-3856 20240 0
-3859 7955 0
-3860 7956 0
-3859 12051 0
-3860 12052 0
-3859 20243 0
-3859 36627 0
-3872 3863 0
-3864 7960 0
-3864 12056 0
-3864 20248 0
-3872 3867 0
-3868 7964 0
-3868 12060 0
-3868 20252 0
-3872 7968 0
-3872 12064 0
-3872 20256 0
-3872 36640 0
-3875 7971 0
-3876 7972 0
-3875 12067 0
-3876 12068 0
-3875 20259 0
-3875 36643 0
-3907 8003 0
-3908 8004 0
-3907 12099 0
-3908 12100 0
-3907 20291 0
-3907 36675 0
-4068 3939 0
-3940 8036 0
-3940 12132 0
-3940 20324 0
-3971 8067 0
-3972 8068 0
-3971 12163 0
-3972 12164 0
-3971 20355 0
-3971 36739 0
-4068 4003 0
-4004 8100 0
-4004 12196 0
-4004 20388 0
-4068 4035 0
-4036 8132 0
-4036 12228 0
-4036 20420 0
-4068 8164 0
-4068 12260 0
-4068 20452 0
-4068 36836 0
-14338 6146 12290 4098 -4097 0
-22530 6146 20482 4098 -4097 0
-38914 6146 36866 4098 -4097 0
-28674 12290 20482 4098 -4097 0
-45058 12290 36866 4098 -4097 0
-4111 4102 0
-4102 12294 0
-4102 20486 0
-4102 36870 0
-4111 4106 0
-4106 12298 0
-4106 20490 0
-4106 36874 0
-4128 4111 0
-4111 12303 0
-4111 20495 0
-4119 4114 0
-14355 6163 12307 4115 -4114 0
-4114 12306 0
-4114 20498 0
-4114 36882 0
-4128 4119 0
-4119 12311 0
-4119 20503 0
-4119 36887 0
-4128 4123 0
-38940 6172 36892 4124 -4123 0
-4123 12315 0
-4123 20507 0
-4127 12319 0
-4128 12320 0
-4127 20511 0
-4128 20512 0
-4195 4130 0
-4130 12322 0
-4130 20514 0
-4130 36898 0
-4143 4134 0
-4143 4138 0
-4160 4143 0
-4143 12335 0
-4143 20527 0
-4151 4146 0
-4160 4151 0
-4151 12343 0
-4151 20535 0
-4160 4155 0
-4155 12347 0
-4155 20539 0
-4159 12351 0
-4160 12352 0
-4159 20543 0
-4159 36927 0
-4195 4162 0
-4162 12354 0
-4162 20546 0
-4162 36930 0
-4175 4166 0
-4175 4170 0
-4192 4175 0
-4175 12367 0
-4175 20559 0
-4183 4178 0
-4192 4183 0
-4183 12375 0
-4183 20567 0
-4192 4187 0
-4187 12379 0
-4187 20571 0
-4191 12383 0
-4192 12384 0
-4191 20575 0
-4191 36959 0
-4324 4195 0
-4195 12387 0
-4328 4199 0
-4199 12391 0
-4199 20583 0
-4332 4203 0
-4203 12395 0
-4203 20587 0
-4224 4207 0
-4207 12399 0
-4207 20591 0
-4207 36975 0
-4340 4211 0
-4211 12403 0
-4211 20595 0
-4224 4215 0
-4215 12407 0
-4215 20599 0
-4215 36983 0
-4224 4219 0
-4219 12411 0
-4219 20603 0
-4219 36987 0
-4224 12416 0
-4224 20608 0
-4259 4226 0
-14467 6275 12419 4227 -4226 0
-4226 12418 0
-28803 12419 20611 4227 -4226 0
-4226 20610 0
-4226 36994 0
-4239 4230 0
-4239 4234 0
-4256 4239 0
-4239 12431 0
-4239 20623 0
-4247 4242 0
-4256 4247 0
-4247 12439 0
-4247 20631 0
-4247 37015 0
-4256 4251 0
-4251 12443 0
-4251 20635 0
-4255 12447 0
-4256 12448 0
-4255 20639 0
-4255 37023 0
-4324 4259 0
-4259 12451 0
-4259 20643 0
-4259 37027 0
-4328 4263 0
-4263 12455 0
-4263 20647 0
-4332 4267 0
-4267 12459 0
-4267 20651 0
-4267 37035 0
-4288 4271 0
-4271 12463 0
-4271 20655 0
-4271 37039 0
-4340 4275 0
-4275 12467 0
-4275 20659 0
-4288 4279 0
-4279 12471 0
-4279 20663 0
-4279 37047 0
-4288 4283 0
-4283 12475 0
-4283 20667 0
-4283 37051 0
-4288 12480 0
-4288 20672 0
-4324 4291 0
-4291 12483 0
-4291 20675 0
-4328 4295 0
-4295 12487 0
-4295 20679 0
-4332 4299 0
-4299 12491 0
-4299 20683 0
-4320 4303 0
-4303 12495 0
-4303 20687 0
-4303 37071 0
-4340 4307 0
-4307 12499 0
-4307 20691 0
-4320 4311 0
-4311 12503 0
-4311 20695 0
-4311 37079 0
-4320 4315 0
-4315 12507 0
-4315 20699 0
-4315 37083 0
-4320 12512 0
-4320 20704 0
-4323 12515 0
-4324 12516 0
-4323 20707 0
-4324 20708 0
-4327 12519 0
-4328 12520 0
-4327 20711 0
-4327 37095 0
-4331 12523 0
-4332 12524 0
-4331 20715 0
-4331 37099 0
-4352 4335 0
-4336 12528 0
-4336 20720 0
-4339 12531 0
-4340 12532 0
-4339 20723 0
-4339 37107 0
-4352 4343 0
-4344 12536 0
-4344 20728 0
-4352 4347 0
-4348 12540 0
-4348 20732 0
-4352 12544 0
-4352 20736 0
-4352 37120 0
-4867 4354 0
-4354 12546 0
-4354 20738 0
-4354 37122 0
-4367 4358 0
-4367 4362 0
-4384 4367 0
-4367 12559 0
-4367 20751 0
-4375 4370 0
-4384 4375 0
-4375 12567 0
-4375 20759 0
-4384 4379 0
-4379 12571 0
-4379 20763 0
-4383 12575 0
-4384 12576 0
-4383 20767 0
-4383 37151 0
-4451 4386 0
-4451 4418 0
-4580 4451 0
-4451 12643 0
-4451 20835 0
-4515 4482 0
-4580 4515 0
-4515 12707 0
-4515 20899 0
-4580 4547 0
-4547 12739 0
-4547 20931 0
-4579 12771 0
-4580 12772 0
-4579 20963 0
-4579 37347 0
-4867 4610 0
-4610 12802 0
-4610 20994 0
-4610 37378 0
-4623 4614 0
-4623 4618 0
-4640 4623 0
-4623 12815 0
-4623 21007 0
-4631 4626 0
-4640 4631 0
-4631 12823 0
-4631 21015 0
-4640 4635 0
-4635 12827 0
-4635 21019 0
-4639 12831 0
-4640 12832 0
-4639 21023 0
-4639 37407 0
-4707 4642 0
-4707 4674 0
-4836 4707 0
-4707 12899 0
-4707 21091 0
-4771 4738 0
-4836 4771 0
-4771 12963 0
-4771 21155 0
-4836 4803 0
-4803 12995 0
-4803 21187 0
-4835 13027 0
-4836 13028 0
-4835 21219 0
-4835 37603 0
-5892 4867 0
-4867 13059 0
-4867 21251 0
-5896 4871 0
-4871 13063 0
-4871 21255 0
-5900 4875 0
-4875 13067 0
-4875 21259 0
-4896 4879 0
-4879 13071 0
-4879 21263 0
-4879 37647 0
-5908 4883 0
-4883 13075 0
-4883 21267 0
-4896 4887 0
-4887 13079 0
-4887 21271 0
-4887 37655 0
-4896 4891 0
-4891 13083 0
-4891 21275 0
-4891 37659 0
-4896 13088 0
-4896 21280 0
-5924 4899 0
-4899 13091 0
-4899 21283 0
-5956 4931 0
-4931 13123 0
-4931 21315 0
-5092 4963 0
-4963 13155 0
-4963 21347 0
-4963 37731 0
-6020 4995 0
-4995 13187 0
-4995 21379 0
-5092 5027 0
-5027 13219 0
-5027 21411 0
-5027 37795 0
-5092 5059 0
-5059 13251 0
-5059 21443 0
-5059 37827 0
-5092 13284 0
-5092 21476 0
-5379 5122 0
-5122 13314 0
-5122 21506 0
-5122 37890 0
-5135 5126 0
-5135 5130 0
-5152 5135 0
-5135 13327 0
-5135 21519 0
-5143 5138 0
-5152 5143 0
-5143 13335 0
-5143 21527 0
-5152 5147 0
-5147 13339 0
-5147 21531 0
-5151 13343 0
-5152 13344 0
-5151 21535 0
-5151 37919 0
-5219 5154 0
-5219 5186 0
-5348 5219 0
-5219 13411 0
-5219 21603 0
-5283 5250 0
-5348 5283 0
-5283 13475 0
-5283 21667 0
-5348 5315 0
-5315 13507 0
-5315 21699 0
-5347 13539 0
-5348 13540 0
-5347 21731 0
-5347 38115 0
-5892 5379 0
-5379 13571 0
-5896 5383 0
-5383 13575 0
-5383 21767 0
-5900 5387 0
-5387 13579 0
-5387 21771 0
-5408 5391 0
-5391 13583 0
-5391 21775 0
-5391 38159 0
-5908 5395 0
-5395 13587 0
-5395 21779 0
-5408 5399 0
-5399 13591 0
-5399 21783 0
-5399 38167 0
-5408 5403 0
-5403 13595 0
-5403 21787 0
-5403 38171 0
-5408 13600 0
-5408 21792 0
-5924 5411 0
-5411 13603 0
-5411 21795 0
-5956 5443 0
-5443 13635 0
-5443 21827 0
-5604 5475 0
-5475 13667 0
-5475 21859 0
-5475 38243 0
-6020 5507 0
-5507 13699 0
-5507 21891 0
-5604 5539 0
-5539 13731 0
-5539 21923 0
-5539 38307 0
-5604 5571 0
-5571 13763 0
-5571 21955 0
-5571 38339 0
-5604 13796 0
-5604 21988 0
-5892 5635 0
-5635 13827 0
-5896 5639 0
-5639 13831 0
-5639 22023 0
-5900 5643 0
-5643 13835 0
-5643 22027 0
-5664 5647 0
-5647 13839 0
-5647 22031 0
-5647 38415 0
-5908 5651 0
-5651 13843 0
-5651 22035 0
-5664 5655 0
-5655 13847 0
-5655 22039 0
-5655 38423 0
-5664 5659 0
-5659 13851 0
-5659 22043 0
-5659 38427 0
-5664 13856 0
-5664 22048 0
-5924 5667 0
-5667 13859 0
-5667 22051 0
-5956 5699 0
-5699 13891 0
-5699 22083 0
-5860 5731 0
-5731 13923 0
-5731 22115 0
-5731 38499 0
-6020 5763 0
-5763 13955 0
-5763 22147 0
-5860 5795 0
-5795 13987 0
-5795 22179 0
-5795 38563 0
-5860 5827 0
-5827 14019 0
-5827 22211 0
-5827 38595 0
-5860 14052 0
-5860 22244 0
-5891 14083 0
-5892 14084 0
-5891 22275 0
-5895 14087 0
-5896 14088 0
-5895 22279 0
-5895 38663 0
-5899 14091 0
-5900 14092 0
-5899 22283 0
-5899 38667 0
-5920 5903 0
-5904 14096 0
-5904 22288 0
-5907 14099 0
-5908 14100 0
-5907 22291 0
-5907 38675 0
-5920 5911 0
-5912 14104 0
-5912 22296 0
-5920 5915 0
-5916 14108 0
-5916 22300 0
-5920 14112 0
-5920 22304 0
-5920 38688 0
-5923 14115 0
-5924 14116 0
-5923 22307 0
-5923 38691 0
-5955 14147 0
-5956 14148 0
-5955 22339 0
-5955 38723 0
-6116 5987 0
-5988 14180 0
-5988 22372 0
-6019 14211 0
-6020 14212 0
-6019 22403 0
-6019 38787 0
-6116 6051 0
-6052 14244 0
-6052 22436 0
-6116 6083 0
-6084 14276 0
-6084 22468 0
-6116 14308 0
-6116 22500 0
-6116 38884 0
-6151 6146 0
-6159 6151 6155 6147 -6146 0
-6163 6146 0
-6243 6179 6211 6147 -6146 0
-6307 6179 6275 6147 -6146 0
-6275 6146 0
-22659 6275 22531 6147 -6146 0
-6146 14338 0
-14339 6146 0
-30722 14338 22530 6146 -6145 0
-30723 14339 22531 6147 -6146 0
-47106 14338 38914 6146 -6145 0
-6146 22530 0
-22531 6146 0
-55298 22530 38914 6146 -6145 0
-55299 22531 38915 6147 -6146 0
-6146 38914 0
-6176 6160 6168 6152 -6151 0
-6151 6215 0
-30727 14343 22535 6151 -6150 0
-6151 22535 0
-22536 6151 0
-6155 6187 0
-22571 6187 22539 6155 -6154 0
-6155 6667 0
-6159 14351 0
-6160 14352 0
-6159 22543 0
-6159 38927 0
-6163 6195 0
-14484 6292 14356 6164 -6163 0
-14356 6163 0
-30739 14355 22547 6163 -6162 0
-47123 14355 38931 6163 -6162 0
-6163 22547 0
-6163 38931 0
-6167 14359 0
-6168 14360 0
-6167 22551 0
-6167 38935 0
-6172 6204 0
-6171 14363 0
-6172 14364 0
-6171 22555 0
-55324 22556 38940 6172 -6171 0
-6171 38939 0
-6175 14367 0
-6176 14368 0
-6175 22559 0
-6176 22560 0
-6175 38943 0
-6176 38944 0
-6244 6179 0
-6308 6179 0
-6179 14371 0
-47139 14371 38947 6179 -6178 0
-6187 14379 0
-30763 14379 22571 6187 -6186 0
-6191 14383 0
-6191 22575 0
-6191 38959 0
-6195 14387 0
-6199 14391 0
-6199 22583 0
-6199 38967 0
-6204 6268 0
-6203 14395 0
-6203 22587 0
-6203 38971 0
-6208 14400 0
-6208 22592 0
-55364 22596 38980 6212 -6211 0
-6215 22599 0
-6223 14415 0
-6223 22607 0
-6223 38991 0
-6231 14423 0
-6231 22615 0
-6231 38999 0
-6235 14427 0
-6235 22619 0
-6235 39003 0
-6240 14432 0
-6240 22624 0
-6243 14435 0
-47204 14436 39012 6244 -6243 0
-6243 22627 0
-6247 14439 0
-6247 22631 0
-6247 39015 0
-6251 14443 0
-6251 22635 0
-6251 39019 0
-6259 14451 0
-6259 22643 0
-6259 39027 0
-6268 14460 0
-6272 14464 0
-6272 22656 0
-6272 39040 0
-6344 6280 6340 6276 -6275 0
-6275 14467 0
-30851 14467 22659 6275 -6274 0
-47235 14467 39043 6275 -6274 0
-55427 22659 39043 6275 -6274 0
-55428 22660 39044 6276 -6275 0
-6275 39043 0
-6280 6288 0
-6280 14472 0
-6288 6352 0
-6287 14479 0
-6287 22671 0
-6287 39055 0
-6292 6300 0
-6295 14487 0
-6295 22679 0
-6295 39063 0
-6299 14491 0
-6299 22683 0
-6299 39067 0
-6300 39068 0
-6304 14496 0
-6304 22688 0
-22708 6324 22692 6308 -6307 0
-6307 14499 0
-6308 14500 0
-47268 14500 39076 6308 -6307 0
-6307 22691 0
-6307 39075 0
-6311 14503 0
-6311 22695 0
-6311 39079 0
-6315 14507 0
-6315 22699 0
-6315 39083 0
-6323 14515 0
-6324 14516 0
-6323 22707 0
-6323 39091 0
-6336 14528 0
-6336 22720 0
-6336 39104 0
-14536 6344 14532 6340 -6339 0
-6339 14531 0
-6340 14532 0
-6339 22723 0
-6343 14535 0
-6343 22727 0
-6343 39111 0
-6347 14539 0
-6347 22731 0
-6347 39115 0
-6352 22736 0
-6355 14547 0
-6355 22739 0
-6355 39123 0
-6368 14560 0
-6368 22752 0
-6368 39136 0
-6371 14563 0
-6372 14564 0
-6371 22755 0
-6372 22756 0
-6371 39139 0
-6376 14568 0
-6376 22760 0
-6380 14572 0
-6380 22764 0
-6384 14576 0
-6384 22768 0
-6384 39152 0
-6388 14580 0
-6388 22772 0
-6392 14584 0
-6392 22776 0
-6392 39160 0
-6396 14588 0
-6396 22780 0
-6396 39164 0
-6415 14607 0
-6415 22799 0
-6415 39183 0
-6423 14615 0
-6423 22807 0
-6423 39191 0
-6427 14619 0
-6427 22811 0
-6427 39195 0
-6432 14624 0
-6432 22816 0
-6499 14691 0
-6499 22883 0
-6499 39267 0
-6563 14755 0
-6563 22947 0
-6563 39331 0
-6595 14787 0
-6595 22979 0
-6595 39363 0
-6628 14820 0
-6628 23012 0
-6667 23051 0
-6671 14863 0
-6671 23055 0
-6671 39439 0
-6679 14871 0
-6679 23063 0
-6679 39447 0
-6683 14875 0
-6683 23067 0
-6683 39451 0
-6688 14880 0
-6688 23072 0
-6755 14947 0
-6755 23139 0
-6755 39523 0
-6819 15011 0
-6819 23203 0
-6819 39587 0
-6851 15043 0
-6851 23235 0
-6851 39619 0
-6884 15076 0
-6884 23268 0
-6915 15107 0
-6915 23299 0
-6919 15111 0
-6919 23303 0
-6919 39687 0
-6923 15115 0
-6923 23307 0
-6923 39691 0
-6931 15123 0
-6931 23315 0
-6931 39699 0
-6944 15136 0
-6944 23328 0
-6944 39712 0
-6947 15139 0
-6947 23331 0
-6947 39715 0
-6979 15171 0
-6979 23363 0
-6979 39747 0
-7043 15235 0
-7043 23427 0
-7043 39811 0
-7140 15332 0
-7140 23524 0
-7140 39908 0
-7183 15375 0
-7183 23567 0
-7183 39951 0
-7191 15383 0
-7191 23575 0
-7191 39959 0
-7195 15387 0
-7195 23579 0
-7195 39963 0
-7200 15392 0
-7200 23584 0
-7267 15459 0
-7267 23651 0
-7267 40035 0
-7331 15523 0
-7331 23715 0
-7331 40099 0
-7363 15555 0
-7363 23747 0
-7363 40131 0
-7396 15588 0
-7396 23780 0
-7427 15619 0
-7427 23811 0
-7431 15623 0
-7431 23815 0
-7431 40199 0
-7435 15627 0
-7435 23819 0
-7435 40203 0
-7443 15635 0
-7443 23827 0
-7443 40211 0
-7456 15648 0
-7456 23840 0
-7456 40224 0
-7459 15651 0
-7459 23843 0
-7459 40227 0
-7491 15683 0
-7491 23875 0
-7491 40259 0
-7555 15747 0
-7555 23939 0
-7555 40323 0
-7652 15844 0
-7652 24036 0
-7652 40420 0
-7684 7748 0
-40516 7748 40452 7684 -7683 0
-7683 15875 0
-7683 24067 0
-7687 15879 0
-7687 24071 0
-7687 40455 0
-7691 15883 0
-7691 24075 0
-7691 40459 0
-7699 15891 0
-7699 24083 0
-7699 40467 0
-7712 15904 0
-7712 24096 0
-7712 40480 0
-7715 15907 0
-7715 24099 0
-7715 40483 0
-7748 7876 0
-40644 7876 40516 7748 -7747 0
-7747 15939 0
-7747 24131 0
-7747 40515 0
-7811 16003 0
-7811 24195 0
-7811 40579 0
-7876 16068 0
-48836 16068 40644 7876 -7875 0
-7908 16100 0
-7908 24292 0
-7908 40676 0
-7939 16131 0
-7939 24323 0
-7939 40707 0
-7944 16136 0
-7944 24328 0
-7948 16140 0
-7948 24332 0
-7952 16144 0
-7952 24336 0
-7952 40720 0
-7956 16148 0
-7956 24340 0
-7960 16152 0
-7960 24344 0
-7960 40728 0
-7964 16156 0
-7964 24348 0
-7964 40732 0
-7972 16164 0
-7972 24356 0
-8004 16196 0
-8004 24388 0
-8036 16228 0
-8036 24420 0
-8036 40804 0
-8068 16260 0
-8068 24452 0
-8100 16292 0
-8100 24484 0
-8100 40868 0
-8132 16324 0
-8132 24516 0
-8132 40900 0
-14338 10242 12290 8194 -8193 0
-26626 10242 24578 8194 -8193 0
-43010 10242 40962 8194 -8193 0
-28674 12290 24578 8194 -8193 0
-57346 24578 40962 8194 -8193 0
-8207 8198 0
-14343 10247 12295 8199 -8198 0
-26631 10247 24583 8199 -8198 0
-28679 12295 24583 8199 -8198 0
-8198 24582 0
-8198 40966 0
-8207 8202 0
-8202 24586 0
-8202 40970 0
-8224 8207 0
-28688 12304 24592 8208 -8207 0
-8215 8210 0
-8210 24594 0
-8210 40978 0
-8224 8215 0
-28696 12312 24600 8216 -8215 0
-8215 24599 0
-8215 40983 0
-8224 8219 0
-26652 10268 24604 8220 -8219 0
-43036 10268 40988 8220 -8219 0
-8219 24603 0
-8219 40987 0
-8223 24607 0
-8291 8226 0
-8226 24610 0
-8226 40994 0
-8239 8230 0
-8239 8234 0
-8256 8239 0
-8239 24623 0
-8247 8242 0
-8256 8247 0
-8247 24631 0
-8256 8251 0
-8251 24635 0
-8255 24639 0
-8255 41023 0
-8291 8258 0
-14403 10307 12355 8259 -8258 0
-28739 12355 24643 8259 -8258 0
-8258 24642 0
-8258 41026 0
-8271 8262 0
-8271 8266 0
-8288 8271 0
-8271 24655 0
-8279 8274 0
-8288 8279 0
-8279 24663 0
-8288 8283 0
-8283 24667 0
-8287 24671 0
-8287 41055 0
-8420 8291 0
-43108 10340 41060 8292 -8291 0
-8291 24675 0
-8424 8295 0
-8295 24679 0
-8428 8299 0
-8299 24683 0
-8320 8303 0
-8303 24687 0
-8303 41071 0
-8436 8307 0
-8307 24691 0
-8320 8311 0
-8311 24695 0
-8311 41079 0
-8320 8315 0
-8315 24699 0
-8315 41083 0
-8320 24704 0
-8355 8322 0
-28803 12419 24707 8323 -8322 0
-8322 24706 0
-8322 41090 0
-8335 8326 0
-8335 8330 0
-8352 8335 0
-8335 24719 0
-8343 8338 0
-8352 8343 0
-8343 24727 0
-8352 8347 0
-8347 24731 0
-8351 24735 0
-8351 41119 0
-8420 8355 0
-8355 41123 0
-8424 8359 0
-8359 24743 0
-8428 8363 0
-8363 24747 0
-8384 8367 0
-8367 24751 0
-8367 41135 0
-8436 8371 0
-8371 24755 0
-8384 8375 0
-8375 24759 0
-8375 41143 0
-8384 8379 0
-8379 24763 0
-8379 41147 0
-8384 24768 0
-8420 8387 0
-14532 10436 12484 8388 -8387 0
-43204 10436 41156 8388 -8387 0
-8387 24771 0
-8424 8391 0
-8391 24775 0
-8428 8395 0
-8395 24779 0
-8416 8399 0
-8399 24783 0
-8399 41167 0
-8436 8403 0
-8403 24787 0
-8416 8407 0
-8407 24791 0
-8407 41175 0
-8416 8411 0
-8411 24795 0
-8411 41179 0
-8416 24800 0
-8419 24803 0
-8423 24807 0
-8423 41191 0
-8427 24811 0
-8427 41195 0
-8448 8431 0
-8432 24816 0
-8435 24819 0
-8435 41203 0
-8448 8439 0
-8440 24824 0
-8448 8443 0
-8444 24828 0
-8448 24832 0
-8448 41216 0
-8963 8450 0
-8450 24834 0
-8450 41218 0
-8463 8454 0
-8463 8458 0
-8480 8463 0
-8463 24847 0
-8471 8466 0
-8480 8471 0
-8471 24855 0
-8480 8475 0
-8475 24859 0
-8479 24863 0
-8479 41247 0
-8547 8482 0
-8547 8514 0
-8676 8547 0
-8547 24931 0
-8611 8578 0
-8676 8611 0
-8611 24995 0
-8676 8643 0
-8643 25027 0
-8675 25059 0
-8675 41443 0
-8963 8706 0
-8706 25090 0
-8706 41474 0
-8719 8710 0
-8719 8714 0
-8736 8719 0
-8719 25103 0
-8727 8722 0
-8736 8727 0
-8727 25111 0
-8736 8731 0
-8731 25115 0
-8735 25119 0
-8735 41503 0
-8803 8738 0
-8803 8770 0
-8932 8803 0
-8803 25187 0
-8867 8834 0
-8932 8867 0
-8867 25251 0
-8932 8899 0
-8899 25283 0
-8931 25315 0
-8931 41699 0
-9988 8963 0
-8963 25347 0
-8963 41731 0
-9992 8967 0
-8967 25351 0
-9996 8971 0
-8971 25355 0
-8992 8975 0
-8975 25359 0
-8975 41743 0
-10004 8979 0
-8979 25363 0
-8992 8983 0
-8983 25367 0
-8983 41751 0
-8992 8987 0
-8987 25371 0
-8987 41755 0
-8992 25376 0
-10020 8995 0
-8995 25379 0
-10052 9027 0
-9027 25411 0
-9188 9059 0
-9059 25443 0
-9059 41827 0
-10116 9091 0
-9091 25475 0
-9188 9123 0
-9123 25507 0
-9123 41891 0
-9188 9155 0
-9155 25539 0
-9155 41923 0
-9188 25572 0
-9475 9218 0
-9218 25602 0
-9218 41986 0
-9231 9222 0
-9231 9226 0
-9248 9231 0
-9231 25615 0
-9239 9234 0
-9248 9239 0
-9239 25623 0
-9248 9243 0
-9243 25627 0
-9247 25631 0
-9247 42015 0
-9315 9250 0
-9315 9282 0
-9444 9315 0
-9315 25699 0
-9379 9346 0
-9444 9379 0
-9379 25763 0
-9444 9411 0
-9411 25795 0
-9443 25827 0
-9443 42211 0
-9988 9475 0
-9992 9479 0
-9479 25863 0
-9996 9483 0
-9483 25867 0
-9504 9487 0
-9487 25871 0
-9487 42255 0
-10004 9491 0
-9491 25875 0
-9504 9495 0
-9495 25879 0
-9495 42263 0
-9504 9499 0
-9499 25883 0
-9499 42267 0
-9504 25888 0
-10020 9507 0
-9507 25891 0
-10052 9539 0
-9539 25923 0
-9700 9571 0
-9571 25955 0
-9571 42339 0
-10116 9603 0
-9603 25987 0
-9700 9635 0
-9635 26019 0
-9635 42403 0
-9700 9667 0
-9667 26051 0
-9667 42435 0
-9700 26084 0
-9992 9735 0
-9735 26119 0
-9996 9739 0
-9739 26123 0
-9760 9743 0
-9743 26127 0
-9743 42511 0
-10004 9747 0
-9747 26131 0
-9760 9751 0
-9751 26135 0
-9751 42519 0
-9760 9755 0
-9755 26139 0
-9755 42523 0
-9760 26144 0
-10020 9763 0
-9763 26147 0
-10052 9795 0
-9795 26179 0
-9956 9827 0
-9827 26211 0
-9827 42595 0
-10116 9859 0
-9859 26243 0
-9956 9891 0
-9891 26275 0
-9891 42659 0
-9956 9923 0
-9923 26307 0
-9923 42691 0
-9956 26340 0
-9987 26371 0
-9991 26375 0
-9991 42759 0
-9995 26379 0
-9995 42763 0
-10016 9999 0
-10000 26384 0
-10003 26387 0
-10003 42771 0
-10016 10007 0
-10008 26392 0
-10016 10011 0
-10012 26396 0
-10016 26400 0
-10016 42784 0
-10019 26403 0
-10019 42787 0
-10051 26435 0
-10051 42819 0
-10212 10083 0
-10084 26468 0
-10115 26499 0
-10115 42883 0
-10212 10147 0
-10148 26532 0
-10212 10179 0
-10180 26564 0
-10212 26596 0
-10212 42980 0
-10247 10242 0
-10251 10242 0
-10259 10242 0
-10275 10242 0
-10307 10242 0
-10371 10242 0
-10242 14338 0
-14339 10242 0
-30722 14338 26626 10242 -10241 0
-30723 14339 26627 10243 -10242 0
-47106 14338 43010 10242 -10241 0
-47107 14339 43011 10243 -10242 0
-10242 26626 0
-59394 26626 43010 10242 -10241 0
-59395 26627 43011 10243 -10242 0
-10242 43010 0
-43011 10242 0
-10256 10247 0
-26640 10256 26632 10248 -10247 0
-10264 10247 0
-10376 10247 0
-10247 10503 0
-10504 10247 0
-43271 10503 43015 10247 -10246 0
-10247 10759 0
-43527 10759 43015 10247 -10246 0
-10247 11271 0
-44039 11271 43015 10247 -10246 0
-10247 14343 0
-30728 14344 26632 10248 -10247 0
-26632 10247 0
-59399 26631 43015 10247 -10246 0
-10256 10251 0
-10272 10256 10268 10252 -10251 0
-10268 10251 0
-10380 10251 0
-10251 14347 0
-14348 10251 0
-30731 14347 26635 10251 -10250 0
-47115 14347 43019 10251 -10250 0
-59403 26635 43019 10251 -10250 0
-43020 10251 0
-10256 10288 0
-10544 10288 10512 10256 -10255 0
-26672 10288 26640 10256 -10255 0
-43056 10288 43024 10256 -10255 0
-43088 10320 43024 10256 -10255 0
-10256 10384 0
-10255 26639 0
-10255 43023 0
-10259 14355 0
-14356 10259 0
-30739 14355 26643 10259 -10258 0
-47123 14355 43027 10259 -10258 0
-26680 10296 26648 10264 -10263 0
-43064 10296 43032 10264 -10263 0
-10264 10328 0
-26712 10328 26648 10264 -10263 0
-43096 10328 43032 10264 -10263 0
-14488 10392 14360 10264 -10263 0
-27160 10776 26648 10264 -10263 0
-10263 26647 0
-10263 43031 0
-26684 10300 26652 10268 -10267 0
-43068 10300 43036 10268 -10267 0
-26716 10332 26652 10268 -10267 0
-43100 10332 43036 10268 -10267 0
-10268 14364 0
-30748 14364 26652 10268 -10267 0
-47132 14364 43036 10268 -10267 0
-10267 26651 0
-59420 26652 43036 10268 -10267 0
-10267 43035 0
-10271 26655 0
-10272 26656 0
-10271 43039 0
-10272 43040 0
-10340 10275 0
-10404 10275 0
-10275 14371 0
-14372 10275 0
-30755 14371 26659 10275 -10274 0
-47139 14371 43043 10275 -10274 0
-10288 10352 0
-43120 10352 43056 10288 -10287 0
-10288 10416 0
-43184 10416 43056 10288 -10287 0
-14640 10544 14384 10288 -10287 0
-30768 14384 26672 10288 -10287 0
-10287 26671 0
-10287 43055 0
-10296 10360 0
-26744 10360 26680 10296 -10295 0
-43128 10360 43064 10296 -10295 0
-10296 10424 0
-43192 10424 43064 10296 -10295 0
-30776 14392 26680 10296 -10295 0
-10295 26679 0
-10295 43063 0
-10300 10364 0
-26748 10364 26684 10300 -10299 0
-43132 10364 43068 10300 -10299 0
-10300 10428 0
-26812 10428 26684 10300 -10299 0
-43196 10428 43068 10300 -10299 0
-10299 26683 0
-10299 43067 0
-10304 26688 0
-10312 10307 0
-10307 10315 0
-26699 10315 26691 10307 -10306 0
-43108 10340 43076 10308 -10307 0
-10436 10307 0
-14404 10307 0
-10307 26691 0
-43076 10307 0
-10344 10311 0
-30792 14408 26696 10312 -10311 0
-10315 14411 0
-30795 14411 26699 10315 -10314 0
-10320 10448 0
-43216 10448 43088 10320 -10319 0
-10319 26703 0
-10319 43087 0
-10328 10456 0
-14552 10456 14424 10328 -10327 0
-26840 10456 26712 10328 -10327 0
-43224 10456 43096 10328 -10327 0
-10328 14424 0
-10327 26711 0
-10327 43095 0
-10332 10460 0
-26844 10460 26716 10332 -10331 0
-47196 14428 43100 10332 -10331 0
-10331 26715 0
-10331 43099 0
-10336 26720 0
-10336 43104 0
-10352 10344 10348 10340 -10339 0
-10340 10348 0
-43116 10348 43108 10340 -10339 0
-10340 14436 0
-30820 14436 26724 10340 -10339 0
-47204 14436 43108 10340 -10339 0
-10339 26723 0
-59492 26724 43108 10340 -10339 0
-10339 43107 0
-10343 26727 0
-10343 43111 0
-10368 10352 10364 10348 -10347 0
-10348 10364 0
-10348 14444 0
-47212 14444 43116 10348 -10347 0
-10347 26731 0
-10347 43115 0
-10352 14448 0
-47216 14448 43120 10352 -10351 0
-10355 26739 0
-10355 43123 0
-10360 14456 0
-30840 14456 26744 10360 -10359 0
-47224 14456 43128 10360 -10359 0
-10364 14460 0
-30844 14460 26748 10364 -10363 0
-47228 14460 43132 10364 -10363 0
-10368 26752 0
-10368 43136 0
-26763 10379 26755 10371 -10370 0
-10371 14467 0
-14468 10371 0
-30851 14467 26755 10371 -10370 0
-47235 14467 43139 10371 -10370 0
-59523 26755 43139 10371 -10370 0
-14472 10375 0
-30860 14476 26764 10380 -10379 0
-10384 14480 0
-10383 26767 0
-10383 43151 0
-10392 10456 0
-10391 26775 0
-10391 43159 0
-10395 26779 0
-10395 43163 0
-10400 26784 0
-26804 10420 26788 10404 -10403 0
-10404 14500 0
-47268 14500 43172 10404 -10403 0
-10403 26787 0
-10403 43171 0
-10407 26791 0
-10407 43175 0
-10411 26795 0
-10411 43179 0
-10416 14512 0
-47280 14512 43184 10416 -10415 0
-10420 14516 0
-10419 26803 0
-10419 43187 0
-10424 14520 0
-47288 14520 43192 10424 -10423 0
-10428 14524 0
-30908 14524 26812 10428 -10427 0
-47292 14524 43196 10428 -10427 0
-10432 26816 0
-10432 43200 0
-26828 10444 26820 10436 -10435 0
-47300 14532 43204 10436 -10435 0
-10435 26819 0
-10435 43203 0
-10439 26823 0
-10439 43207 0
-10444 10460 0
-26844 10460 26828 10444 -10443 0
-10443 26827 0
-10443 43211 0
-10448 14544 0
-47312 14544 43216 10448 -10447 0
-10451 26835 0
-10451 43219 0
-10456 14552 0
-30936 14552 26840 10456 -10455 0
-47320 14552 43224 10456 -10455 0
-10456 26840 0
-10460 14556 0
-30940 14556 26844 10460 -10459 0
-10464 26848 0
-10464 43232 0
-10467 26851 0
-10468 26852 0
-10467 43235 0
-10468 43236 0
-10472 26856 0
-10476 26860 0
-10476 43244 0
-10480 26864 0
-10480 43248 0
-10484 26868 0
-10488 26872 0
-10488 43256 0
-10492 26876 0
-10492 43260 0
-10499 10507 0
-43275 10507 43267 10499 -10498 0
-10512 10503 0
-26904 10520 26888 10504 -10503 0
-10503 14599 0
-47367 14599 43271 10503 -10502 0
-10507 14603 0
-47371 14603 43275 10507 -10506 0
-10511 26895 0
-10511 43279 0
-10520 11032 0
-27416 11032 26904 10520 -10519 0
-10520 11544 0
-31000 14616 26904 10520 -10519 0
-10519 26903 0
-10519 43287 0
-10523 26907 0
-10523 43291 0
-10528 26912 0
-10595 26979 0
-10595 43363 0
-10659 27043 0
-10659 43427 0
-10691 27075 0
-10691 43459 0
-10724 27108 0
-10755 10763 0
-43531 10763 43523 10755 -10754 0
-10759 14855 0
-47623 14855 43527 10759 -10758 0
-10763 14859 0
-47627 14859 43531 10763 -10762 0
-10767 27151 0
-10767 43535 0
-10776 11800 0
-28184 11800 27160 10776 -10775 0
-10775 27159 0
-10775 43543 0
-10779 27163 0
-10779 43547 0
-10784 27168 0
-10851 27235 0
-10851 43619 0
-10915 27299 0
-10915 43683 0
-10947 27331 0
-10947 43715 0
-10980 27364 0
-11012 11016 0
-43784 11016 43780 11012 -11011 0
-11011 27395 0
-11016 11032 0
-43800 11032 43784 11016 -11015 0
-11015 27399 0
-11015 43783 0
-11019 27403 0
-11019 43787 0
-11027 27411 0
-11027 43795 0
-11032 15128 0
-31512 15128 27416 11032 -11031 0
-47896 15128 43800 11032 -11031 0
-11040 27424 0
-11040 43808 0
-11043 27427 0
-11043 43811 0
-11075 27459 0
-11075 43843 0
-11139 27523 0
-11139 43907 0
-11236 27620 0
-11236 44004 0
-11267 11275 0
-44043 11275 44035 11267 -11266 0
-11271 15367 0
-48135 15367 44039 11271 -11270 0
-11275 15371 0
-48139 15371 44043 11275 -11274 0
-11279 27663 0
-11279 44047 0
-11287 27671 0
-11287 44055 0
-11291 27675 0
-11291 44059 0
-11296 27680 0
-11363 27747 0
-11363 44131 0
-11427 27811 0
-11427 44195 0
-11459 27843 0
-11459 44227 0
-11492 27876 0
-11524 11528 0
-44308 11540 44292 11524 -11523 0
-11523 27907 0
-11528 11544 0
-11527 27911 0
-11527 44295 0
-11531 27915 0
-11531 44299 0
-11540 11544 0
-44312 11544 44308 11540 -11539 0
-11539 27923 0
-11539 44307 0
-11544 15640 0
-48408 15640 44312 11544 -11543 0
-11552 27936 0
-11552 44320 0
-11555 27939 0
-11555 44323 0
-11587 27971 0
-11587 44355 0
-11651 28035 0
-11651 44419 0
-11748 28132 0
-11748 44516 0
-11780 11784 0
-44552 11784 44548 11780 -11779 0
-11779 28163 0
-11784 11800 0
-44568 11800 44552 11784 -11783 0
-11783 28167 0
-11783 44551 0
-11787 28171 0
-11787 44555 0
-11795 28179 0
-11795 44563 0
-11800 15896 0
-32280 15896 28184 11800 -11799 0
-48664 15896 44568 11800 -11799 0
-11808 28192 0
-11808 44576 0
-11811 28195 0
-11811 44579 0
-11843 28227 0
-11843 44611 0
-11907 28291 0
-11907 44675 0
-12004 28388 0
-12004 44772 0
-12035 28419 0
-12035 44803 0
-12040 28424 0
-12044 28428 0
-12048 28432 0
-12048 44816 0
-12052 28436 0
-12056 28440 0
-12056 44824 0
-12060 28444 0
-12060 44828 0
-12068 28452 0
-12100 28484 0
-12132 28516 0
-12132 44900 0
-12164 28548 0
-12196 28580 0
-12196 44964 0
-12228 28612 0
-12228 44996 0
-12295 12290 0
-12303 12295 12299 12291 -12290 0
-12311 12295 12307 12291 -12290 0
-45063 12295 45059 12291 -12290 0
-12299 12290 0
-12307 12290 0
-12323 12290 0
-12355 12290 0
-12419 12290 0
-14467 12419 14339 12291 -12290 0
-12290 14338 0
-14339 12290 0
-30722 14338 28674 12290 -12289 0
-47106 14338 45058 12290 -12289 0
-12290 28674 0
-28675 12290 0
-61442 28674 45058 12290 -12289 0
-12290 45058 0
-45059 12290 0
-12304 12295 0
-12320 12304 12312 12296 -12295 0
-12312 12295 0
-12295 14343 0
-14344 12295 0
-47111 14343 45063 12295 -12294 0
-12295 45063 0
-12316 12299 0
-14348 12299 0
-30731 14347 28683 12299 -12298 0
-47116 14348 45068 12300 -12299 0
-12304 14352 0
-47120 14352 45072 12304 -12303 0
-12303 28687 0
-12303 45071 0
-12320 12312 12316 12308 -12307 0
-45084 12316 45076 12308 -12307 0
-12307 12435 0
-28819 12435 28691 12307 -12306 0
-12307 12563 0
-12307 12819 0
-12307 14355 0
-14356 12307 0
-47124 14356 45076 12308 -12307 0
-12307 28691 0
-28692 12307 0
-61459 28691 45075 12307 -12306 0
-12312 12344 0
-12312 12376 0
-28824 12440 28696 12312 -12311 0
-12312 14360 0
-47128 14360 45080 12312 -12311 0
-12311 28695 0
-12311 45079 0
-12316 14364 0
-47132 14364 45084 12316 -12315 0
-12315 28699 0
-12316 28700 0
-61468 28700 45084 12316 -12315 0
-12315 45083 0
-12319 28703 0
-12320 28704 0
-12319 45087 0
-12320 45088 0
-12388 12323 0
-12452 12323 0
-12323 14371 0
-47139 14371 45091 12323 -12322 0
-61475 28707 45091 12323 -12322 0
-12335 28719 0
-12335 45103 0
-12344 12472 0
-12343 28727 0
-12343 45111 0
-12347 28731 0
-12347 45115 0
-12352 28736 0
-12352 45120 0
-45252 12484 45124 12356 -12355 0
-14404 12355 0
-47171 14403 45123 12355 -12354 0
-12367 28751 0
-12367 45135 0
-12376 12504 0
-12375 28759 0
-12375 45143 0
-12379 28763 0
-12379 45147 0
-12384 28768 0
-12387 28771 0
-61540 28772 45156 12388 -12387 0
-12387 45155 0
-12391 28775 0
-12391 45159 0
-12395 28779 0
-12395 45163 0
-12403 28787 0
-12403 45171 0
-12416 28800 0
-12416 45184 0
-45252 12484 45188 12420 -12419 0
-12419 14467 0
-30851 14467 28803 12419 -12418 0
-30852 14468 28804 12420 -12419 0
-47235 14467 45187 12419 -12418 0
-12419 28803 0
-12431 28815 0
-12431 45199 0
-12435 14483 0
-30867 14483 28819 12435 -12434 0
-12440 12472 0
-12440 12504 0
-28888 12504 28824 12440 -12439 0
-30872 14488 28824 12440 -12439 0
-12439 28823 0
-12439 45207 0
-12443 28827 0
-12443 45211 0
-12448 28832 0
-12448 45216 0
-12452 12456 0
-28844 12460 28836 12452 -12451 0
-12451 28835 0
-61604 28836 45220 12452 -12451 0
-12451 45219 0
-12456 12464 0
-12455 28839 0
-12455 45223 0
-12460 12464 0
-28848 12464 28844 12460 -12459 0
-12459 28843 0
-12459 45227 0
-12464 14512 0
-30896 14512 28848 12464 -12463 0
-12467 28851 0
-12467 45235 0
-12472 14520 0
-12480 28864 0
-12480 45248 0
-12484 12488 0
-12484 14532 0
-47300 14532 45252 12484 -12483 0
-12483 28867 0
-12484 28868 0
-12483 45251 0
-12488 14536 0
-12487 28871 0
-12487 45255 0
-12491 28875 0
-12491 45259 0
-12499 28883 0
-12499 45267 0
-12504 14552 0
-30936 14552 28888 12504 -12503 0
-12512 28896 0
-12512 45280 0
-12515 28899 0
-12516 28900 0
-12515 45283 0
-12516 45284 0
-12520 28904 0
-12524 28908 0
-12528 28912 0
-12528 45296 0
-12532 28916 0
-12532 45300 0
-12536 28920 0
-12536 45304 0
-12540 28924 0
-12540 45308 0
-12559 28943 0
-12559 45327 0
-12563 14611 0
-12567 28951 0
-12567 45335 0
-12571 28955 0
-12571 45339 0
-12576 28960 0
-12643 29027 0
-12643 45411 0
-12707 29091 0
-12707 45475 0
-12739 29123 0
-12739 45507 0
-12772 29156 0
-12815 29199 0
-12815 45583 0
-12819 14867 0
-12823 29207 0
-12823 45591 0
-12827 29211 0
-12827 45595 0
-12832 29216 0
-12899 29283 0
-12899 45667 0
-12963 29347 0
-12963 45731 0
-12995 29379 0
-12995 45763 0
-13028 29412 0
-13060 13124 0
-45892 13124 45828 13060 -13059 0
-31492 15108 29444 13060 -13059 0
-13059 29443 0
-13060 29444 0
-13059 45827 0
-13063 29447 0
-13063 45831 0
-13067 29451 0
-13067 45835 0
-13075 29459 0
-13075 45843 0
-13088 29472 0
-13088 45856 0
-13091 29475 0
-13091 45859 0
-13124 13252 0
-46020 13252 45892 13124 -13123 0
-13123 29507 0
-13123 45891 0
-13187 29571 0
-13187 45955 0
-13252 15300 0
-48068 15300 46020 13252 -13251 0
-13284 29668 0
-13284 46052 0
-13327 29711 0
-13327 46095 0
-13335 29719 0
-13335 46103 0
-13339 29723 0
-13339 46107 0
-13344 29728 0
-13411 29795 0
-13411 46179 0
-13475 29859 0
-13475 46243 0
-13507 29891 0
-13507 46275 0
-13540 29924 0
-13572 13636 0
-46404 13636 46340 13572 -13571 0
-13571 29955 0
-13575 29959 0
-13575 46343 0
-13579 29963 0
-13579 46347 0
-13587 29971 0
-13587 46355 0
-13600 29984 0
-13600 46368 0
-13603 29987 0
-13603 46371 0
-13636 13764 0
-46532 13764 46404 13636 -13635 0
-13635 30019 0
-13635 46403 0
-13699 30083 0
-13699 46467 0
-13764 15812 0
-48580 15812 46532 13764 -13763 0
-13796 30180 0
-13796 46564 0
-13827 30211 0
-13831 30215 0
-13831 46599 0
-13835 30219 0
-13835 46603 0
-13843 30227 0
-13843 46611 0
-13856 30240 0
-13856 46624 0
-13859 30243 0
-13859 46627 0
-13891 30275 0
-13891 46659 0
-13955 30339 0
-13955 46723 0
-14052 30436 0
-14052 46820 0
-14083 30467 0
-14084 30468 0
-14083 46851 0
-14088 30472 0
-14092 30476 0
-14096 30480 0
-14096 46864 0
-14100 30484 0
-14104 30488 0
-14104 46872 0
-14108 30492 0
-14108 46876 0
-14116 30500 0
-14148 30532 0
-14180 30564 0
-14180 46948 0
-14212 30596 0
-14244 30628 0
-14244 47012 0
-14276 30660 0
-14276 47044 0
-14343 14338 0
-14344 14339 0
-14351 14343 14347 14339 -14338 0
-14359 14343 14355 14339 -14338 0
-14375 14343 14371 14339 -14338 0
-14407 14343 14403 14339 -14338 0
-14471 14343 14467 14339 -14338 0
-30727 14343 30723 14339 -14338 0
-47111 14343 47107 14339 -14338 0
-14347 14338 0
-14339 14347 0
-14348 14339 0
-14363 14347 14355 14339 -14338 0
-14364 14348 14356 14340 -14339 0
-14379 14347 14371 14339 -14338 0
-14411 14347 14403 14339 -14338 0
-14475 14347 14467 14339 -14338 0
-30731 14347 30723 14339 -14338 0
-47115 14347 47107 14339 -14338 0
-14355 14338 0
-14356 14339 0
-14419 14355 14403 14339 -14338 0
-30739 14355 30723 14339 -14338 0
-14339 14371 0
-14372 14339 0
-14435 14371 14403 14339 -14338 0
-14499 14371 14467 14339 -14338 0
-30755 14371 30723 14339 -14338 0
-47139 14371 47107 14339 -14338 0
-14403 14338 0
-14404 14339 0
-14531 14403 14467 14339 -14338 0
-30787 14403 30723 14339 -14338 0
-47171 14403 47107 14339 -14338 0
-14467 14338 0
-14339 14467 0
-14468 14339 0
-30851 14467 30723 14339 -14338 0
-47235 14467 47107 14339 -14338 0
-14595 14338 0
-30979 14595 30723 14339 -14338 0
-14852 14339 0
-31235 14851 30723 14339 -14338 0
-31747 15363 30723 14339 -14338 0
-30723 14338 0
-14339 30723 0
-30724 14339 0
-63491 30723 47107 14339 -14338 0
-47107 14338 0
-14339 47107 0
-14368 14352 14360 14344 -14343 0
-30736 14352 30728 14344 -14343 0
-47120 14352 47112 14344 -14343 0
-30744 14360 30728 14344 -14343 0
-47128 14360 47112 14344 -14343 0
-14343 14375 0
-14376 14343 0
-14440 14376 14408 14344 -14343 0
-30759 14375 30727 14343 -14342 0
-47143 14375 47111 14343 -14342 0
-14343 14407 0
-14536 14408 14472 14344 -14343 0
-30792 14408 30728 14344 -14343 0
-47175 14407 47111 14343 -14342 0
-14343 14471 0
-14472 14343 0
-47239 14471 47111 14343 -14342 0
-14343 30727 0
-30728 14343 0
-14344 30728 0
-63496 30728 47112 14344 -14343 0
-14343 47111 0
-14352 14347 0
-14348 14352 0
-14368 14352 14364 14348 -14347 0
-30736 14352 30732 14348 -14347 0
-14364 14347 0
-14492 14364 14476 14348 -14347 0
-47132 14364 47116 14348 -14347 0
-14347 14379 0
-14507 14379 14475 14347 -14346 0
-30763 14379 30731 14347 -14346 0
-30764 14380 30732 14348 -14347 0
-14347 14411 0
-14923 14411 14859 14347 -14346 0
-30795 14411 30731 14347 -14346 0
-14476 14347 0
-14348 14476 0
-30859 14475 30731 14347 -14346 0
-30860 14476 30732 14348 -14347 0
-14347 14859 0
-14347 30731 0
-63500 30732 47116 14348 -14347 0
-14352 14384 0
-14896 14384 14864 14352 -14351 0
-30768 14384 30736 14352 -14351 0
-14544 14416 14480 14352 -14351 0
-14928 14416 14864 14352 -14351 0
-14352 14480 0
-14351 30735 0
-14352 30736 0
-14351 47119 0
-14352 47120 0
-14360 14355 0
-14356 14360 0
-14368 14360 14364 14356 -14355 0
-30748 14364 30740 14356 -14355 0
-47132 14364 47124 14356 -14355 0
-14355 14387 0
-47156 14388 47124 14356 -14355 0
-14355 14419 0
-14356 14420 0
-47187 14419 47123 14355 -14354 0
-30868 14484 30740 14356 -14355 0
-14355 14611 0
-47380 14612 47124 14356 -14355 0
-14355 14867 0
-47636 14868 47124 14356 -14355 0
-14355 15379 0
-48148 15380 47124 14356 -14355 0
-30740 14355 0
-14356 30740 0
-63508 30740 47124 14356 -14355 0
-14355 47123 0
-14520 14392 14488 14360 -14359 0
-14360 14424 0
-47384 14616 47128 14360 -14359 0
-47640 14872 47128 14360 -14359 0
-48152 15384 47128 14360 -14359 0
-14359 30743 0
-14360 30744 0
-63512 30744 47128 14360 -14359 0
-14359 47127 0
-14360 47128 0
-14364 14396 0
-14460 14396 14428 14364 -14363 0
-30780 14396 30748 14364 -14363 0
-47164 14396 47132 14364 -14363 0
-14364 14428 0
-47196 14428 47132 14364 -14363 0
-30876 14492 30748 14364 -14363 0
-14363 30747 0
-14364 30748 0
-63516 30748 47132 14364 -14363 0
-14363 47131 0
-14364 47132 0
-14368 30752 0
-14368 47136 0
-14371 14375 0
-14376 14371 0
-30759 14375 30755 14371 -14370 0
-47143 14375 47139 14371 -14370 0
-14371 14379 0
-14380 14371 0
-14395 14379 14387 14371 -14370 0
-30763 14379 30755 14371 -14370 0
-47147 14379 47139 14371 -14370 0
-14371 14387 0
-14388 14371 0
-30771 14387 30755 14371 -14370 0
-14436 14371 0
-14564 14436 14500 14372 -14371 0
-14500 14371 0
-30884 14500 30756 14372 -14371 0
-14371 14627 0
-14371 14883 0
-14371 15395 0
-14371 30755 0
-63523 30755 47139 14371 -14370 0
-63524 30756 47140 14372 -14371 0
-14371 47139 0
-14392 14375 0
-14376 14392 0
-14520 14392 14504 14376 -14375 0
-30888 14504 30760 14376 -14375 0
-14375 30759 0
-63527 30759 47143 14375 -14374 0
-14375 47143 0
-14384 14379 0
-30768 14384 30764 14380 -14379 0
-14396 14379 0
-14380 14396 0
-30780 14396 30764 14380 -14379 0
-14444 14379 0
-14508 14379 0
-14379 30763 0
-63531 30763 47147 14379 -14378 0
-14379 47147 0
-14384 14448 0
-30832 14448 30768 14384 -14383 0
-14384 14512 0
-31024 14640 30768 14384 -14383 0
-14400 14392 14396 14388 -14387 0
-14387 30771 0
-14388 30772 0
-63539 30771 47155 14387 -14386 0
-14387 47155 0
-14392 14456 0
-14584 14456 14520 14392 -14391 0
-14392 14520 0
-30904 14520 30776 14392 -14391 0
-14396 14460 0
-14588 14460 14524 14396 -14395 0
-14396 14524 0
-30908 14524 30780 14396 -14395 0
-14396 30780 0
-63548 30780 47164 14396 -14395 0
-14400 30784 0
-14400 47168 0
-14403 14407 0
-14408 14403 0
-14404 14408 0
-14403 14411 0
-30796 14412 30788 14404 -14403 0
-47180 14412 47172 14404 -14403 0
-14564 14436 14532 14404 -14403 0
-30820 14436 30788 14404 -14403 0
-47204 14436 47172 14404 -14403 0
-30916 14532 30788 14404 -14403 0
-14403 14659 0
-14403 14915 0
-14403 15427 0
-14403 30787 0
-30788 14403 0
-63555 30787 47171 14403 -14402 0
-63556 30788 47172 14404 -14403 0
-14403 47171 0
-14544 14416 14536 14408 -14407 0
-30800 14416 30792 14408 -14407 0
-47184 14416 47176 14408 -14407 0
-30824 14440 30792 14408 -14407 0
-47208 14440 47176 14408 -14407 0
-30920 14536 30792 14408 -14407 0
-14408 30792 0
-14416 14411 0
-14412 14416 0
-14448 14416 14444 14412 -14411 0
-14428 14411 0
-14412 14428 0
-14412 14444 0
-47691 14923 47179 14411 -14410 0
-14411 30795 0
-63563 30795 47179 14411 -14410 0
-14411 47179 0
-14416 14448 0
-14576 14448 14544 14416 -14415 0
-47216 14448 47184 14416 -14415 0
-14416 14544 0
-30928 14544 30800 14416 -14415 0
-47312 14544 47184 14416 -14415 0
-14416 30800 0
-14428 14419 0
-14419 30803 0
-14420 30804 0
-14419 47187 0
-14424 30808 0
-14428 14460 0
-14588 14460 14556 14428 -14427 0
-14428 14556 0
-47324 14556 47196 14428 -14427 0
-14432 30816 0
-14432 47200 0
-14436 14440 0
-47208 14440 47204 14436 -14435 0
-14436 14444 0
-47212 14444 47204 14436 -14435 0
-14436 14692 0
-14436 14948 0
-14435 30819 0
-14436 30820 0
-63588 30820 47204 14436 -14435 0
-14435 47203 0
-14436 47204 0
-14440 14448 0
-30832 14448 30824 14440 -14439 0
-47216 14448 47208 14440 -14439 0
-14440 14456 0
-47224 14456 47208 14440 -14439 0
-14444 14448 0
-14464 14448 14460 14444 -14443 0
-14444 14460 0
-47228 14460 47212 14444 -14443 0
-14444 30828 0
-63596 30828 47212 14444 -14443 0
-14448 30832 0
-63600 30832 47216 14448 -14447 0
-14448 47216 0
-14456 30840 0
-63608 30840 47224 14456 -14455 0
-14456 47224 0
-14460 30844 0
-63612 30844 47228 14460 -14459 0
-14460 47228 0
-14464 30848 0
-14464 47232 0
-14467 14471 0
-14480 14472 14476 14468 -14467 0
-14504 14472 14500 14468 -14467 0
-47239 14471 47235 14467 -14466 0
-47240 14472 47236 14468 -14467 0
-14467 14475 0
-14468 14476 0
-47243 14475 47235 14467 -14466 0
-14467 14483 0
-14468 14484 0
-47251 14483 47235 14467 -14466 0
-14564 14500 14532 14468 -14467 0
-30884 14500 30852 14468 -14467 0
-47268 14500 47236 14468 -14467 0
-14532 14467 0
-30916 14532 30852 14468 -14467 0
-47300 14532 47236 14468 -14467 0
-14467 14723 0
-14467 14979 0
-14467 15491 0
-14467 30851 0
-30852 14467 0
-63619 30851 47235 14467 -14466 0
-63620 30852 47236 14468 -14467 0
-14467 47235 0
-14468 47236 0
-14472 14488 0
-14520 14488 14504 14472 -14471 0
-47272 14504 47240 14472 -14471 0
-30920 14536 30856 14472 -14471 0
-14471 30855 0
-14472 30856 0
-14471 47239 0
-14476 14480 0
-14496 14480 14492 14476 -14475 0
-14492 14475 0
-14476 14492 0
-30892 14508 30860 14476 -14475 0
-14475 30859 0
-14476 30860 0
-63628 30860 47244 14476 -14475 0
-14475 47243 0
-14480 14512 0
-30896 14512 30864 14480 -14479 0
-14480 14544 0
-30928 14544 30864 14480 -14479 0
-14480 30864 0
-14484 14488 0
-14484 14492 0
-14483 30867 0
-14484 30868 0
-63635 30867 47251 14483 -14482 0
-14483 47251 0
-14488 14520 0
-14584 14520 14552 14488 -14487 0
-63640 30872 47256 14488 -14487 0
-14492 14524 0
-14588 14524 14556 14492 -14491 0
-30908 14524 30876 14492 -14491 0
-14492 14556 0
-14492 47260 0
-14496 30880 0
-14496 47264 0
-14500 14504 0
-14512 14504 14508 14500 -14499 0
-14500 14508 0
-30900 14516 30884 14500 -14499 0
-47284 14516 47268 14500 -14499 0
-14500 14756 0
-47524 14756 47268 14500 -14499 0
-14500 15012 0
-31396 15012 30884 14500 -14499 0
-31908 15524 30884 14500 -14499 0
-14499 30883 0
-14500 30884 0
-63652 30884 47268 14500 -14499 0
-14499 47267 0
-14500 47268 0
-14528 14512 14520 14504 -14503 0
-14504 14520 0
-14508 14512 0
-14528 14512 14524 14508 -14507 0
-14508 14524 0
-63660 30892 47276 14508 -14507 0
-14512 30896 0
-63664 30896 47280 14512 -14511 0
-14512 47280 0
-14516 14520 0
-14528 14520 14524 14516 -14515 0
-14516 14524 0
-14516 47284 0
-14520 30904 0
-63672 30904 47288 14520 -14519 0
-14520 47288 0
-14524 30908 0
-63676 30908 47292 14524 -14523 0
-14524 47292 0
-14528 47296 0
-14532 14536 0
-14532 14540 0
-30924 14540 30916 14532 -14531 0
-14532 14788 0
-31172 14788 30916 14532 -14531 0
-14532 15044 0
-31428 15044 30916 14532 -14531 0
-14531 30915 0
-14532 30916 0
-63684 30916 47300 14532 -14531 0
-14531 47299 0
-14532 47300 0
-14536 14544 0
-14536 14552 0
-63688 30920 47304 14536 -14535 0
-14540 14556 0
-30940 14556 30924 14540 -14539 0
-14544 30928 0
-63696 30928 47312 14544 -14543 0
-14544 47312 0
-14552 30936 0
-63704 30936 47320 14552 -14551 0
-14552 47320 0
-14556 30940 0
-63708 30940 47324 14556 -14555 0
-14556 47324 0
-14564 30948 0
-14564 47332 0
-14568 30952 0
-14568 47336 0
-14572 30956 0
-14572 47340 0
-14576 47344 0
-14580 30964 0
-14580 47348 0
-14584 47352 0
-14588 30972 0
-14588 47356 0
-14595 14627 0
-14595 14723 0
-15108 14595 0
-14599 30983 0
-63751 30983 47367 14599 -14598 0
-14603 30987 0
-63755 30987 47371 14603 -14602 0
-14612 14616 0
-15640 14616 15636 14612 -14611 0
-47892 15124 47380 14612 -14611 0
-14611 47379 0
-14616 15128 0
-16152 15128 15640 14616 -14615 0
-47896 15128 47384 14616 -14615 0
-14616 15640 0
-63768 31000 47384 14616 -14615 0
-14624 31008 0
-14624 47392 0
-14627 31011 0
-14627 47395 0
-14659 47427 0
-14692 15204 0
-14692 15716 0
-14724 14788 0
-47556 14788 47492 14724 -14723 0
-14723 31107 0
-14723 47491 0
-16292 15268 15780 14756 -14755 0
-14756 15780 0
-48548 15780 47524 14756 -14755 0
-14788 15300 0
-16324 15300 15812 14788 -14787 0
-31684 15300 31172 14788 -14787 0
-48068 15300 47556 14788 -14787 0
-14788 15812 0
-32196 15812 31172 14788 -14787 0
-48580 15812 47556 14788 -14787 0
-14820 31204 0
-14820 47588 0
-14851 14883 0
-14851 14979 0
-47876 15108 47620 14852 -14851 0
-48644 15876 47620 14852 -14851 0
-14855 31239 0
-64007 31239 47623 14855 -14854 0
-14859 31243 0
-64011 31243 47627 14859 -14858 0
-14960 14896 14928 14864 -14863 0
-14864 31248 0
-14868 14872 0
-15896 14872 15892 14868 -14867 0
-14867 47635 0
-14872 15128 0
-16152 15128 15896 14872 -14871 0
-14872 15896 0
-48664 15896 47640 14872 -14871 0
-14880 31264 0
-14880 47648 0
-14883 31267 0
-14883 47651 0
-14915 47683 0
-31344 14960 31312 14928 -14927 0
-14948 15972 0
-15076 15012 15044 14980 -14979 0
-14980 15044 0
-14979 31363 0
-14979 47747 0
-15012 15268 0
-16292 15268 16036 15012 -15011 0
-15012 16036 0
-32420 16036 31396 15012 -15011 0
-15044 15300 0
-16324 15300 16068 15044 -15043 0
-15044 16068 0
-32452 16068 31428 15044 -15043 0
-15076 31460 0
-15076 47844 0
-15108 15112 0
-15107 31491 0
-15107 47875 0
-15112 15128 0
-15124 15128 0
-15128 31512 0
-64280 31512 47896 15128 -15127 0
-15128 47896 0
-15204 47972 0
-15236 15300 0
-48068 15300 48004 15236 -15235 0
-15268 31652 0
-64420 31652 48036 15268 -15267 0
-15268 48036 0
-15300 31684 0
-64452 31684 48068 15300 -15299 0
-15300 48068 0
-15363 15395 0
-15363 15491 0
-15367 31751 0
-64519 31751 48135 15367 -15366 0
-15371 31755 0
-64523 31755 48139 15371 -15370 0
-15380 15384 0
-15379 48147 0
-16152 15640 15896 15384 -15383 0
-15384 15896 0
-15392 31776 0
-15392 48160 0
-15395 31779 0
-15395 48163 0
-15427 48195 0
-15492 15556 0
-16068 15556 16004 15492 -15491 0
-48324 15556 48260 15492 -15491 0
-15491 31875 0
-15491 48259 0
-15524 15780 0
-32164 15780 31908 15524 -15523 0
-15556 15812 0
-16324 15812 16068 15556 -15555 0
-15556 16068 0
-48836 16068 48324 15556 -15555 0
-15588 31972 0
-15588 48356 0
-15619 32003 0
-15619 48387 0
-15636 48404 0
-15640 32024 0
-64792 32024 48408 15640 -15639 0
-15640 48408 0
-15716 48484 0
-15748 15812 0
-48580 15812 48516 15748 -15747 0
-15780 32164 0
-64932 32164 48548 15780 -15779 0
-15780 48548 0
-15812 32196 0
-64964 32196 48580 15812 -15811 0
-15812 48580 0
-15876 15880 0
-15875 32259 0
-15875 48643 0
-15880 15896 0
-15892 48660 0
-15896 32280 0
-65048 32280 48664 15896 -15895 0
-15896 48664 0
-15972 48740 0
-16004 16036 0
-16100 16036 16068 16004 -16003 0
-16004 16068 0
-16036 32420 0
-65188 32420 48804 16036 -16035 0
-16036 48804 0
-16068 32452 0
-65220 32452 48836 16068 -16067 0
-16068 48836 0
-16136 32520 0
-16136 48904 0
-16140 32524 0
-16140 48908 0
-16144 32528 0
-16148 32532 0
-16148 48916 0
-16152 32536 0
-16164 32548 0
-16164 48932 0
-16196 32580 0
-16196 48964 0
-16260 32644 0
-16260 49028 0
-22530 18434 20482 16386 -16385 0
-26626 18434 24578 16386 -16385 0
-51202 18434 49154 16386 -16385 0
-28674 20482 24578 16386 -16385 0
-53250 20482 49154 16386 -16385 0
-16399 16390 0
-28679 20487 24583 16391 -16390 0
-16390 49158 0
-16399 16394 0
-16394 49162 0
-16416 16399 0
-16407 16402 0
-16402 49170 0
-16416 16407 0
-16416 16411 0
-16411 49179 0
-16483 16418 0
-16418 49186 0
-16431 16422 0
-16431 16426 0
-16448 16431 0
-16439 16434 0
-16448 16439 0
-16447 49215 0
-16483 16450 0
-16450 49218 0
-16463 16454 0
-16463 16458 0
-16480 16463 0
-16471 16466 0
-16480 16471 0
-16479 49247 0
-16612 16483 0
-16512 16495 0
-16495 49263 0
-16512 16503 0
-16503 49271 0
-16512 16507 0
-16507 49275 0
-16547 16514 0
-16514 49282 0
-16527 16518 0
-16527 16522 0
-16544 16527 0
-16535 16530 0
-16544 16535 0
-16543 49311 0
-16612 16547 0
-16576 16559 0
-16559 49327 0
-16576 16567 0
-16567 49335 0
-16576 16571 0
-16571 49339 0
-16612 16579 0
-22724 18628 20676 16580 -16579 0
-51396 18628 49348 16580 -16579 0
-28868 20676 24772 16580 -16579 0
-16579 49347 0
-16608 16591 0
-16591 49359 0
-16608 16599 0
-16599 49367 0
-16608 16603 0
-16603 49371 0
-16615 49383 0
-16619 49387 0
-16640 16623 0
-16627 49395 0
-16640 16631 0
-16640 16635 0
-16640 49408 0
-17155 16642 0
-16642 49410 0
-16655 16646 0
-16655 16650 0
-16672 16655 0
-16663 16658 0
-16672 16663 0
-16671 49439 0
-16739 16674 0
-16739 16706 0
-16868 16739 0
-16803 16770 0
-16868 16803 0
-16867 49635 0
-17155 16898 0
-16898 49666 0
-16911 16902 0
-16911 16906 0
-16928 16911 0
-16919 16914 0
-16928 16919 0
-16927 49695 0
-16995 16930 0
-16995 16962 0
-17124 16995 0
-17059 17026 0
-17124 17059 0
-17123 49891 0
-18180 17155 0
-17155 49923 0
-17184 17167 0
-17167 49935 0
-17184 17175 0
-17175 49943 0
-17184 17179 0
-17179 49947 0
-17380 17251 0
-17251 50019 0
-17380 17315 0
-17315 50083 0
-17380 17347 0
-17347 50115 0
-17667 17410 0
-17410 50178 0
-17423 17414 0
-17423 17418 0
-17440 17423 0
-17431 17426 0
-17440 17431 0
-17439 50207 0
-17507 17442 0
-17507 17474 0
-17636 17507 0
-17571 17538 0
-17636 17571 0
-17635 50403 0
-18180 17667 0
-17696 17679 0
-17679 50447 0
-17696 17687 0
-17687 50455 0
-17696 17691 0
-17691 50459 0
-17892 17763 0
-17763 50531 0
-17892 17827 0
-17827 50595 0
-17892 17859 0
-17859 50627 0
-17952 17935 0
-17935 50703 0
-17952 17943 0
-17943 50711 0
-17952 17947 0
-17947 50715 0
-18148 18019 0
-18019 50787 0
-18148 18083 0
-18083 50851 0
-18148 18115 0
-18115 50883 0
-18183 50951 0
-18187 50955 0
-18208 18191 0
-18195 50963 0
-18208 18199 0
-18208 18203 0
-18208 50976 0
-18211 50979 0
-18243 51011 0
-18404 18275 0
-18307 51075 0
-18404 18339 0
-18404 18371 0
-18404 51172 0
-18443 18434 0
-18451 18434 0
-18467 18434 0
-18499 18434 0
-18563 18434 0
-18434 22530 0
-22531 18434 0
-30722 22530 26626 18434 -18433 0
-55298 22530 51202 18434 -18433 0
-18434 26626 0
-26627 18434 0
-59394 26626 51202 18434 -18433 0
-18434 51202 0
-51203 18434 0
-18439 18567 0
-51335 18567 51207 18439 -18438 0
-18439 18695 0
-51463 18695 51207 18439 -18438 0
-18439 18951 0
-51719 18951 51207 18439 -18438 0
-18439 19463 0
-52231 19463 51207 18439 -18438 0
-18439 22535 0
-55303 22535 51207 18439 -18438 0
-18460 18443 0
-18443 18475 0
-51243 18475 51211 18443 -18442 0
-18572 18443 0
-22540 18443 0
-59403 26635 51211 18443 -18442 0
-51212 18443 0
-22548 18451 0
-30739 22547 26643 18451 -18450 0
-18455 51223 0
-18460 18492 0
-18460 18524 0
-51292 18524 51228 18460 -18459 0
-51356 18588 51228 18460 -18459 0
-55324 22556 51228 18460 -18459 0
-18459 51227 0
-18463 51231 0
-59427 26659 51235 18467 -18466 0
-51236 18467 0
-18475 22571 0
-55339 22571 51243 18475 -18474 0
-18479 51247 0
-18487 51255 0
-18492 18556 0
-18492 18620 0
-18491 51259 0
-18628 18499 0
-18499 22595 0
-22596 18499 0
-18511 51279 0
-18519 51287 0
-18524 18556 0
-51324 18556 51292 18524 -18523 0
-18524 18652 0
-51420 18652 51292 18524 -18523 0
-18523 51291 0
-18531 51299 0
-18535 51303 0
-18539 51307 0
-18547 51315 0
-18556 22652 0
-55420 22652 51324 18556 -18555 0
-18560 51328 0
-18572 18563 0
-22667 18571 22659 18563 -18562 0
-26763 18571 26755 18563 -18562 0
-18563 18579 0
-18563 22659 0
-30851 22659 26755 18563 -18562 0
-55427 22659 51331 18563 -18562 0
-18567 22663 0
-55431 22663 51335 18567 -18566 0
-22684 18588 22668 18572 -18571 0
-30860 22668 26764 18572 -18571 0
-18575 51343 0
-18579 22675 0
-18583 51351 0
-18588 18620 0
-51388 18620 51356 18588 -18587 0
-18587 51355 0
-18599 51367 0
-18603 51371 0
-18611 51379 0
-18620 22716 0
-55484 22716 51388 18620 -18619 0
-18620 26812 0
-18624 51392 0
-55492 22724 51396 18628 -18627 0
-18631 51399 0
-18635 51403 0
-18643 51411 0
-18652 22748 0
-55516 22748 51420 18652 -18651 0
-18656 51424 0
-18659 51427 0
-18672 51440 0
-18680 51448 0
-18684 51452 0
-18691 18699 0
-51467 18699 51459 18691 -18690 0
-18695 22791 0
-55559 22791 51463 18695 -18694 0
-18699 22795 0
-55563 22795 51467 18699 -18698 0
-18703 51471 0
-18711 51479 0
-18715 51483 0
-18787 51555 0
-18851 51619 0
-18883 51651 0
-18947 18955 0
-51723 18955 51715 18947 -18946 0
-18951 23047 0
-55815 23047 51719 18951 -18950 0
-18955 23051 0
-55819 23051 51723 18955 -18954 0
-18959 51727 0
-18967 51735 0
-18971 51739 0
-19043 51811 0
-19107 51875 0
-19139 51907 0
-19204 19208 0
-51976 19208 51972 19204 -19203 0
-19208 19224 0
-51992 19224 51976 19208 -19207 0
-19207 51975 0
-19211 51979 0
-19219 51987 0
-19224 23320 0
-56088 23320 51992 19224 -19223 0
-19232 52000 0
-19235 52003 0
-19267 52035 0
-19331 52099 0
-19428 52196 0
-19459 19467 0
-52235 19467 52227 19459 -19458 0
-19463 23559 0
-56327 23559 52231 19463 -19462 0
-19467 23563 0
-56331 23563 52235 19467 -19466 0
-19471 52239 0
-19479 52247 0
-19483 52251 0
-19555 52323 0
-19619 52387 0
-19651 52419 0
-19716 19720 0
-52488 19720 52484 19716 -19715 0
-19720 19736 0
-52504 19736 52488 19720 -19719 0
-19719 52487 0
-19723 52491 0
-19731 52499 0
-19736 23832 0
-56600 23832 52504 19736 -19735 0
-19744 52512 0
-19747 52515 0
-19779 52547 0
-19843 52611 0
-19940 52708 0
-19972 19976 0
-52744 19976 52740 19972 -19971 0
-19976 19992 0
-52760 19992 52744 19976 -19975 0
-19975 52743 0
-19979 52747 0
-19987 52755 0
-19992 24088 0
-56856 24088 52760 19992 -19991 0
-20000 52768 0
-20003 52771 0
-20035 52803 0
-20099 52867 0
-20196 52964 0
-20227 52995 0
-20240 53008 0
-20248 53016 0
-20252 53020 0
-20324 53092 0
-20388 53156 0
-20420 53188 0
-20487 20482 0
-20503 20487 20499 20483 -20482 0
-53255 20487 53251 20483 -20482 0
-20499 20482 0
-20643 20515 20611 20483 -20482 0
-20547 20482 0
-20611 20482 0
-22659 20611 22531 20483 -20482 0
-20482 22530 0
-30722 22530 28674 20482 -20481 0
-30723 22531 28675 20483 -20482 0
-55298 22530 53250 20482 -20481 0
-20482 28674 0
-61442 28674 53250 20482 -20481 0
-20482 53250 0
-20504 20487 0
-20487 20615 0
-22664 20616 22536 20488 -20487 0
-20487 22535 0
-30727 22535 28679 20487 -20486 0
-20495 53263 0
-53272 20504 53268 20500 -20499 0
-30739 22547 28691 20499 -20498 0
-30744 22552 28696 20504 -20503 0
-20503 53271 0
-20508 22556 0
-55324 22556 53276 20508 -20507 0
-20511 53279 0
-20512 53280 0
-20515 20523 0
-28716 20524 28708 20516 -20515 0
-20515 20531 0
-28724 20532 28708 20516 -20515 0
-30756 22564 28708 20516 -20515 0
-20524 20528 0
-20523 22571 0
-20528 20656 0
-20527 53295 0
-20532 20536 0
-30772 22580 28724 20532 -20531 0
-20536 20664 0
-20535 53303 0
-20539 53307 0
-20676 20547 0
-20559 53327 0
-20567 53335 0
-20571 53339 0
-20583 53351 0
-20587 53355 0
-20595 53363 0
-20608 53376 0
-20616 20611 0
-20644 20611 0
-20611 28803 0
-20615 22663 0
-20623 53391 0
-20631 53399 0
-20635 53403 0
-28844 20652 28836 20644 -20643 0
-28852 20660 28836 20644 -20643 0
-20643 53411 0
-20647 53415 0
-20652 20656 0
-30892 22700 28844 20652 -20651 0
-20651 53419 0
-20656 22704 0
-20660 20664 0
-30900 22708 28852 20660 -20659 0
-20659 53427 0
-20664 22712 0
-20672 53440 0
-20676 28868 0
-20675 53443 0
-20679 53447 0
-20683 53451 0
-20691 53459 0
-20704 53472 0
-20707 53475 0
-20708 53476 0
-20720 53488 0
-20728 53496 0
-20732 53500 0
-20751 53519 0
-20759 53527 0
-20763 53531 0
-20835 53603 0
-20899 53667 0
-20931 53699 0
-21007 53775 0
-21015 53783 0
-21019 53787 0
-21091 53859 0
-21155 53923 0
-21187 53955 0
-31492 23300 29444 21252 -21251 0
-21252 29444 0
-21251 54019 0
-21255 54023 0
-21259 54027 0
-21267 54035 0
-21280 54048 0
-21283 54051 0
-21315 54083 0
-21379 54147 0
-21476 54244 0
-21519 54287 0
-21527 54295 0
-21531 54299 0
-21603 54371 0
-21667 54435 0
-21699 54467 0
-21767 54535 0
-21771 54539 0
-21779 54547 0
-21792 54560 0
-21795 54563 0
-21827 54595 0
-21891 54659 0
-21988 54756 0
-22023 54791 0
-22027 54795 0
-22035 54803 0
-22048 54816 0
-22051 54819 0
-22083 54851 0
-22147 54915 0
-22244 55012 0
-22275 55043 0
-22288 55056 0
-22296 55064 0
-22300 55068 0
-22372 55140 0
-22436 55204 0
-22468 55236 0
-22543 22535 22539 22531 -22530 0
-22552 22536 22548 22532 -22531 0
-30727 22535 30723 22531 -22530 0
-55303 22535 55299 22531 -22530 0
-22539 22530 0
-22531 22539 0
-22540 22531 0
-22555 22539 22547 22531 -22530 0
-22603 22539 22595 22531 -22530 0
-30731 22539 30723 22531 -22530 0
-55307 22539 55299 22531 -22530 0
-22547 22530 0
-22531 22547 0
-22548 22531 0
-22579 22547 22563 22531 -22530 0
-22675 22547 22659 22531 -22530 0
-30739 22547 30723 22531 -22530 0
-55315 22547 55299 22531 -22530 0
-55316 22548 55300 22532 -22531 0
-22531 22563 0
-22564 22531 0
-22627 22563 22595 22531 -22530 0
-30755 22563 30723 22531 -22530 0
-55331 22563 55299 22531 -22530 0
-22595 22530 0
-22596 22531 0
-22659 22530 0
-22660 22531 0
-55427 22659 55299 22531 -22530 0
-22787 22530 0
-30979 22787 30723 22531 -22530 0
-31235 23043 30723 22531 -22530 0
-31747 23555 30723 22531 -22530 0
-30723 22530 0
-22531 30723 0
-63491 30723 55299 22531 -22530 0
-22544 22535 0
-22608 22544 22600 22536 -22535 0
-30736 22544 30728 22536 -22535 0
-55312 22544 55304 22536 -22535 0
-22616 22552 22600 22536 -22535 0
-30744 22552 30728 22536 -22535 0
-55320 22552 55304 22536 -22535 0
-22535 22567 0
-22535 22599 0
-22535 22663 0
-22664 22535 0
-30855 22663 30727 22535 -22534 0
-55431 22663 55303 22535 -22534 0
-22535 30727 0
-22536 30728 0
-63495 30727 55303 22535 -22534 0
-63496 30728 55304 22536 -22535 0
-22535 55303 0
-22544 22539 0
-22560 22544 22556 22540 -22539 0
-55312 22544 55308 22540 -22539 0
-55324 22556 55308 22540 -22539 0
-30763 22571 30731 22539 -22538 0
-22604 22539 0
-30795 22603 30731 22539 -22538 0
-22540 22668 0
-30859 22667 30731 22539 -22538 0
-30987 22795 30731 22539 -22538 0
-22539 30731 0
-22544 22576 0
-22544 22608 0
-22736 22608 22672 22544 -22543 0
-22544 22672 0
-22543 55311 0
-22552 22547 0
-22560 22552 22556 22548 -22547 0
-22548 22556 0
-30748 22556 30740 22548 -22547 0
-55324 22556 55316 22548 -22547 0
-22547 22579 0
-30771 22579 30739 22547 -22546 0
-55380 22612 55316 22548 -22547 0
-22548 22676 0
-30868 22676 30740 22548 -22547 0
-30740 22547 0
-22548 30740 0
-22552 22584 0
-22552 22616 0
-22744 22616 22680 22552 -22551 0
-22552 30744 0
-22551 55319 0
-22556 22588 0
-22652 22588 22620 22556 -22555 0
-30780 22588 30748 22556 -22555 0
-55356 22588 55324 22556 -22555 0
-22556 22620 0
-22556 22684 0
-30876 22684 30748 22556 -22555 0
-22556 30748 0
-63516 30748 55324 22556 -22555 0
-22555 55323 0
-22560 55328 0
-22564 22568 0
-30763 22571 30755 22563 -22562 0
-30771 22579 30755 22563 -22562 0
-22628 22563 0
-22756 22628 22692 22564 -22563 0
-22692 22563 0
-22564 22692 0
-30884 22692 30756 22564 -22563 0
-22563 30755 0
-22563 55331 0
-22568 22576 0
-22696 22567 0
-22567 30759 0
-22567 55335 0
-55336 22567 0
-22572 22576 0
-22592 22576 22588 22572 -22571 0
-22571 30763 0
-63531 30763 55339 22571 -22570 0
-22571 55339 0
-22576 22704 0
-22580 22584 0
-30772 22579 0
-22579 55347 0
-22584 22648 0
-22584 22712 0
-22588 22652 0
-22780 22652 22716 22588 -22587 0
-22588 22716 0
-22588 30780 0
-63548 30780 55356 22588 -22587 0
-22592 55360 0
-22596 22600 0
-22632 22600 22628 22596 -22595 0
-22612 22595 0
-22756 22628 22724 22596 -22595 0
-30820 22628 30788 22596 -22595 0
-55396 22628 55364 22596 -22595 0
-30916 22724 30788 22596 -22595 0
-22595 22851 0
-22595 23107 0
-22595 23619 0
-30788 22595 0
-63556 30788 55364 22596 -22595 0
-22600 22608 0
-55376 22608 55368 22600 -22599 0
-22616 22599 0
-55400 22632 55368 22600 -22599 0
-22599 30791 0
-22600 30792 0
-22608 22603 0
-22736 22608 22732 22604 -22603 0
-22620 22603 0
-30828 22636 30796 22604 -22603 0
-30924 22732 30796 22604 -22603 0
-22603 30795 0
-22608 22736 0
-22620 22611 0
-22611 30803 0
-22616 22744 0
-22616 30808 0
-22620 22748 0
-30940 22748 30812 22620 -22619 0
-22624 55392 0
-22628 22636 0
-30828 22636 30820 22628 -22627 0
-55404 22636 55396 22628 -22627 0
-30836 22644 30820 22628 -22627 0
-22628 22884 0
-22628 23140 0
-22628 30820 0
-22627 55395 0
-22636 22640 0
-22636 22652 0
-22636 30828 0
-63596 30828 55404 22636 -22635 0
-63600 30832 55408 22640 -22639 0
-22640 55408 0
-22644 22648 0
-22648 55416 0
-22652 30844 0
-63612 30844 55420 22652 -22651 0
-22652 55420 0
-22656 55424 0
-30856 22664 30852 22660 -22659 0
-55432 22664 55428 22660 -22659 0
-22668 22659 0
-30859 22667 30851 22659 -22658 0
-55436 22668 55428 22660 -22659 0
-22660 22676 0
-30867 22675 30851 22659 -22658 0
-55460 22692 55428 22660 -22659 0
-22659 22915 0
-22659 23171 0
-22659 23683 0
-22659 30851 0
-30852 22659 0
-63619 30851 55427 22659 -22658 0
-22659 55427 0
-22664 22672 0
-30864 22672 30856 22664 -22663 0
-22664 22680 0
-30872 22680 30856 22664 -22663 0
-30888 22696 30856 22664 -22663 0
-22663 30855 0
-63623 30855 55431 22663 -22662 0
-22663 55431 0
-22664 55432 0
-22668 22672 0
-22668 22684 0
-22668 30860 0
-22667 55435 0
-22672 22704 0
-30896 22704 30864 22672 -22671 0
-22672 22736 0
-30928 22736 30864 22672 -22671 0
-22672 30864 0
-22672 55440 0
-22712 22680 22708 22676 -22675 0
-22676 22740 0
-22676 30868 0
-22680 22712 0
-22776 22712 22744 22680 -22679 0
-30904 22712 30872 22680 -22679 0
-22680 22744 0
-30936 22744 30872 22680 -22679 0
-22680 55448 0
-22684 22716 0
-22780 22716 22748 22684 -22683 0
-22684 22748 0
-22688 55456 0
-22692 22696 0
-22704 22696 22700 22692 -22691 0
-22692 22700 0
-30892 22700 30884 22692 -22691 0
-55468 22700 55460 22692 -22691 0
-30900 22708 30884 22692 -22691 0
-22692 30884 0
-22691 55459 0
-22696 22712 0
-55480 22712 55464 22696 -22695 0
-22696 55464 0
-22700 22704 0
-22720 22704 22716 22700 -22699 0
-22700 22716 0
-22704 30896 0
-22704 55472 0
-22708 22712 0
-22720 22712 22716 22708 -22707 0
-30904 22712 30900 22708 -22707 0
-22708 22716 0
-63668 30900 55476 22708 -22707 0
-22712 30904 0
-22712 55480 0
-22716 30908 0
-63676 30908 55484 22716 -22715 0
-22716 55484 0
-22724 22728 0
-22724 22732 0
-22724 22980 0
-22724 23236 0
-22724 30916 0
-63684 30916 55492 22724 -22723 0
-22723 55491 0
-22728 22736 0
-55504 22736 55496 22728 -22727 0
-22728 22744 0
-22728 30920 0
-22732 22748 0
-22736 30928 0
-22736 55504 0
-22740 55508 0
-22744 30936 0
-63704 30936 55512 22744 -22743 0
-22744 55512 0
-22748 30940 0
-63708 30940 55516 22748 -22747 0
-22748 55516 0
-22756 55524 0
-22760 55528 0
-22764 55532 0
-22772 55540 0
-22776 55544 0
-22780 55548 0
-22787 22819 0
-22787 22915 0
-23300 22787 0
-22791 30983 0
-63751 30983 55559 22791 -22790 0
-22795 30987 0
-63755 30987 55563 22795 -22794 0
-22795 55563 0
-22816 55584 0
-22819 55587 0
-22851 55619 0
-22884 23396 0
-22884 23908 0
-22915 55683 0
-22980 23492 0
-22980 24004 0
-23012 55780 0
-23043 23075 0
-23043 23171 0
-23047 31239 0
-64007 31239 55815 23047 -23046 0
-23051 31243 0
-64011 31243 55819 23051 -23050 0
-23072 55840 0
-23075 55843 0
-23107 55875 0
-23140 24164 0
-23171 55939 0
-23236 24260 0
-23268 56036 0
-23299 56067 0
-23320 31512 0
-64280 31512 56088 23320 -23319 0
-23396 56164 0
-23492 56260 0
-23555 23587 0
-23555 23683 0
-23559 31751 0
-64519 31751 56327 23559 -23558 0
-23563 31755 0
-64523 31755 56331 23563 -23562 0
-23584 56352 0
-23587 56355 0
-23619 56387 0
-23683 56451 0
-23780 56548 0
-23811 56579 0
-23832 32024 0
-64792 32024 56600 23832 -23831 0
-23908 56676 0
-24004 56772 0
-24067 56835 0
-24088 32280 0
-65048 32280 56856 24088 -24087 0
-24164 56932 0
-24260 57028 0
-24328 57096 0
-24332 57100 0
-24340 57108 0
-24356 57124 0
-24388 57156 0
-24452 57220 0
-24583 24578 0
-24587 24578 0
-24595 24578 0
-24611 24578 0
-24643 24578 0
-24707 24578 0
-24835 24578 0
-24578 26626 0
-26627 24578 0
-30722 26626 28674 24578 -24577 0
-59394 26626 57346 24578 -24577 0
-24578 28674 0
-28675 24578 0
-61442 28674 57346 24578 -24577 0
-24578 57346 0
-57347 24578 0
-24592 24583 0
-24600 24583 0
-24583 24647 0
-26632 24583 0
-59399 26631 57351 24583 -24582 0
-28680 24583 0
-61447 28679 57351 24583 -24582 0
-24604 24587 0
-26636 24587 0
-30731 26635 28683 24587 -24586 0
-59403 26635 57355 24587 -24586 0
-28684 24587 0
-26644 24595 0
-30739 26643 28691 24595 -24594 0
-59411 26643 57363 24595 -24594 0
-28692 24595 0
-61459 28691 57363 24595 -24594 0
-57364 24595 0
-24599 57367 0
-57404 24636 57372 24604 -24603 0
-57436 24668 57372 24604 -24603 0
-59420 26652 57372 24604 -24603 0
-61468 28700 57372 24604 -24603 0
-24607 57375 0
-24676 24611 0
-26660 24611 0
-30755 26659 28707 24611 -24610 0
-28708 24611 0
-24623 57391 0
-24631 57399 0
-24636 26684 0
-59452 26684 57404 24636 -24635 0
-24635 57403 0
-24772 24643 0
-28740 24643 0
-28776 24680 28744 24648 -24647 0
-24648 26696 0
-24655 57423 0
-24663 57431 0
-24668 24796 0
-57564 24796 57436 24668 -24667 0
-24667 57435 0
-59492 26724 57444 24676 -24675 0
-24680 26728 0
-24679 57447 0
-24683 57451 0
-24691 57459 0
-24704 57472 0
-30851 26755 28803 24707 -24706 0
-28804 24707 0
-61571 28803 57475 24707 -24706 0
-57476 24707 0
-24719 57487 0
-24727 57495 0
-24731 57499 0
-24743 57511 0
-24747 57515 0
-24755 57523 0
-24768 57536 0
-24772 24776 0
-30916 26820 28868 24772 -24771 0
-59588 26820 57540 24772 -24771 0
-24771 57539 0
-24776 24792 0
-24775 57543 0
-24779 57547 0
-24787 57555 0
-24792 26840 0
-24796 26844 0
-61660 28892 57564 24796 -24795 0
-24800 57568 0
-24803 57571 0
-24816 57584 0
-24824 57592 0
-24828 57596 0
-25348 24835 0
-24847 57615 0
-24855 57623 0
-24859 57627 0
-24931 57699 0
-24995 57763 0
-25027 57795 0
-25103 57871 0
-25111 57879 0
-25115 57883 0
-25187 57955 0
-25251 58019 0
-25283 58051 0
-31492 27396 29444 25348 -25347 0
-25348 29444 0
-62212 29444 58116 25348 -25347 0
-25347 58115 0
-25351 58119 0
-25355 58123 0
-25363 58131 0
-25376 58144 0
-25379 58147 0
-25411 58179 0
-25475 58243 0
-25572 58340 0
-25615 58383 0
-25623 58391 0
-25627 58395 0
-25699 58467 0
-25763 58531 0
-25795 58563 0
-25863 58631 0
-25867 58635 0
-25875 58643 0
-25888 58656 0
-25891 58659 0
-25923 58691 0
-25987 58755 0
-26084 58852 0
-26119 58887 0
-26123 58891 0
-26131 58899 0
-26144 58912 0
-26147 58915 0
-26179 58947 0
-26243 59011 0
-26340 59108 0
-26371 59139 0
-26384 59152 0
-26392 59160 0
-26396 59164 0
-26468 59236 0
-26532 59300 0
-26564 59332 0
-26631 26626 0
-26627 26631 0
-26639 26631 26635 26627 -26626 0
-26647 26631 26643 26627 -26626 0
-26695 26631 26691 26627 -26626 0
-30727 26631 30723 26627 -26626 0
-59399 26631 59395 26627 -26626 0
-26635 26626 0
-26627 26635 0
-26636 26627 0
-26651 26635 26643 26627 -26626 0
-26699 26635 26691 26627 -26626 0
-30731 26635 30723 26627 -26626 0
-59404 26636 59396 26628 -26627 0
-26643 26626 0
-30739 26643 30723 26627 -26626 0
-59411 26643 59395 26627 -26626 0
-26659 26626 0
-26627 26659 0
-26660 26627 0
-26723 26659 26691 26627 -26626 0
-26787 26659 26755 26627 -26626 0
-59427 26659 59395 26627 -26626 0
-26691 26626 0
-26627 26691 0
-26692 26627 0
-26819 26691 26755 26627 -26626 0
-30787 26691 30723 26627 -26626 0
-59459 26691 59395 26627 -26626 0
-26755 26626 0
-26627 26755 0
-30851 26755 30723 26627 -26626 0
-59523 26755 59395 26627 -26626 0
-26883 26626 0
-30723 26626 0
-26627 30723 0
-30724 26627 0
-63491 30723 59395 26627 -26626 0
-59395 26626 0
-26627 59395 0
-26640 26631 0
-30736 26640 30728 26632 -26631 0
-59408 26640 59400 26632 -26631 0
-26648 26631 0
-30744 26648 30728 26632 -26631 0
-59416 26648 59400 26632 -26631 0
-26631 26663 0
-26664 26631 0
-59431 26663 59399 26631 -26630 0
-26631 26695 0
-26632 26696 0
-26823 26695 26759 26631 -26630 0
-26824 26696 26760 26632 -26631 0
-30792 26696 30728 26632 -26631 0
-59463 26695 59399 26631 -26630 0
-26631 26759 0
-30856 26760 30728 26632 -26631 0
-59527 26759 59399 26631 -26630 0
-26631 26887 0
-26888 26631 0
-27399 26887 27143 26631 -26630 0
-27911 26887 27655 26631 -26630 0
-26631 27143 0
-27144 26631 0
-28167 27143 27655 26631 -26630 0
-59911 27143 59399 26631 -26630 0
-26631 27655 0
-27656 26631 0
-60423 27655 59399 26631 -26630 0
-26631 30727 0
-26632 30728 0
-63495 30727 59399 26631 -26630 0
-63496 30728 59400 26632 -26631 0
-26631 59399 0
-26640 26635 0
-26656 26640 26652 26636 -26635 0
-26652 26635 0
-26636 26652 0
-30748 26652 30732 26636 -26635 0
-59420 26652 59404 26636 -26635 0
-26635 26667 0
-30763 26667 30731 26635 -26634 0
-59435 26667 59403 26635 -26634 0
-26700 26635 0
-26635 26763 0
-26764 26635 0
-26636 26764 0
-30859 26763 30731 26635 -26634 0
-26635 26891 0
-30987 26891 30731 26635 -26634 0
-59659 26891 59403 26635 -26634 0
-26635 27147 0
-31243 27147 30731 26635 -26634 0
-59915 27147 59403 26635 -26634 0
-26635 27659 0
-31755 27659 30731 26635 -26634 0
-60427 27659 59403 26635 -26634 0
-26635 30731 0
-30732 26635 0
-63500 30732 59404 26636 -26635 0
-26635 59403 0
-59404 26635 0
-26640 26672 0
-30768 26672 30736 26640 -26639 0
-26640 26704 0
-26832 26704 26768 26640 -26639 0
-26640 26768 0
-59664 26896 59408 26640 -26639 0
-59920 27152 59408 26640 -26639 0
-60432 27664 59408 26640 -26639 0
-26640 30736 0
-26639 59407 0
-26648 26643 0
-26656 26648 26652 26644 -26643 0
-26680 26648 26676 26644 -26643 0
-30744 26648 30740 26644 -26643 0
-30748 26652 30740 26644 -26643 0
-26643 26675 0
-26643 26899 0
-26643 27155 0
-26643 27667 0
-30740 26643 0
-26644 30740 0
-63507 30739 59411 26643 -26642 0
-63508 30740 59412 26644 -26643 0
-26643 59411 0
-26648 26680 0
-26648 26712 0
-30872 26776 30744 26648 -26647 0
-26648 26904 0
-27416 26904 27160 26648 -26647 0
-27928 26904 27672 26648 -26647 0
-59672 26904 59416 26648 -26647 0
-26648 27160 0
-59928 27160 59416 26648 -26647 0
-26648 30744 0
-63512 30744 59416 26648 -26647 0
-26647 59415 0
-26648 59416 0
-26652 26684 0
-30780 26684 30748 26652 -26651 0
-26652 26716 0
-30876 26780 30748 26652 -26651 0
-26652 26908 0
-26652 27164 0
-26652 30748 0
-26651 59419 0
-26656 59424 0
-26659 26663 0
-26664 26659 0
-26679 26663 26675 26659 -26658 0
-26659 26667 0
-26683 26667 26675 26659 -26658 0
-30763 26667 30755 26659 -26658 0
-59435 26667 59427 26659 -26658 0
-26659 26675 0
-26676 26659 0
-30771 26675 30755 26659 -26658 0
-26724 26659 0
-26852 26724 26788 26660 -26659 0
-59492 26724 59428 26660 -26659 0
-26788 26659 0
-26659 30755 0
-30756 26659 0
-63524 30756 59428 26660 -26659 0
-59428 26659 0
-59440 26672 59432 26664 -26663 0
-30776 26680 30760 26664 -26663 0
-26792 26663 0
-26663 59431 0
-26672 26667 0
-26684 26667 0
-26732 26667 0
-26667 30763 0
-63531 30763 59435 26667 -26666 0
-26667 59435 0
-59436 26667 0
-26672 26736 0
-26864 26736 26800 26672 -26671 0
-59504 26736 59440 26672 -26671 0
-26672 26800 0
-30896 26800 30768 26672 -26671 0
-26680 26675 0
-26688 26680 26684 26676 -26675 0
-30776 26680 30772 26676 -26675 0
-26684 26675 0
-30780 26684 30772 26676 -26675 0
-26676 30772 0
-26675 59443 0
-26680 26744 0
-26680 26808 0
-26684 26748 0
-26684 26812 0
-59580 26812 59452 26684 -26683 0
-26684 30780 0
-63548 30780 59452 26684 -26683 0
-26688 59456 0
-26692 26696 0
-26704 26696 26700 26692 -26691 0
-30792 26696 30788 26692 -26691 0
-59464 26696 59460 26692 -26691 0
-26691 26699 0
-26692 26700 0
-30796 26700 30788 26692 -26691 0
-26691 26707 0
-26692 26708 0
-26852 26724 26820 26692 -26691 0
-26820 26691 0
-30788 26691 0
-26692 30788 0
-63556 30788 59460 26692 -26691 0
-26691 59459 0
-59460 26691 0
-26696 26704 0
-59472 26704 59464 26696 -26695 0
-26696 26712 0
-59496 26728 59464 26696 -26695 0
-26696 30792 0
-26704 26699 0
-26700 26716 0
-30812 26716 30796 26700 -26699 0
-26699 59467 0
-26704 26736 0
-26864 26736 26832 26704 -26703 0
-59504 26736 59472 26704 -26703 0
-26704 26832 0
-26708 30804 0
-26707 59475 0
-26712 26744 0
-26712 26840 0
-30936 26840 30808 26712 -26711 0
-26712 30808 0
-26716 26748 0
-26876 26748 26844 26716 -26715 0
-30844 26748 30812 26716 -26715 0
-26716 26844 0
-30940 26844 30812 26716 -26715 0
-26720 59488 0
-26724 26728 0
-26744 26728 26740 26724 -26723 0
-30828 26732 30820 26724 -26723 0
-30836 26740 30820 26724 -26723 0
-26724 26980 0
-26724 27236 0
-26724 30820 0
-63588 30820 59492 26724 -26723 0
-26723 59491 0
-26728 26736 0
-26752 26736 26744 26728 -26727 0
-26728 59496 0
-26732 26736 0
-26732 26748 0
-59516 26748 59500 26732 -26731 0
-63596 30828 59500 26732 -26731 0
-26736 30832 0
-63600 30832 59504 26736 -26735 0
-26736 59504 0
-26740 26744 0
-26740 26748 0
-59516 26748 59508 26740 -26739 0
-26744 59512 0
-26748 30844 0
-63612 30844 59516 26748 -26747 0
-26748 59516 0
-26752 59520 0
-26755 26759 0
-26755 26763 0
-26756 26764 0
-30860 26764 30852 26756 -26755 0
-26756 26772 0
-26788 26755 0
-26852 26788 26820 26756 -26755 0
-26820 26755 0
-59588 26820 59524 26756 -26755 0
-26755 30851 0
-30852 26755 0
-26756 30852 0
-63619 30851 59523 26755 -26754 0
-26755 59523 0
-59536 26768 59528 26760 -26759 0
-26760 26776 0
-26759 30855 0
-26760 30856 0
-63623 30855 59527 26759 -26758 0
-26759 59527 0
-26780 26763 0
-26764 26780 0
-26828 26763 0
-26763 30859 0
-30860 26763 0
-26764 30860 0
-63628 30860 59532 26764 -26763 0
-26763 59531 0
-26768 26800 0
-30896 26800 30864 26768 -26767 0
-26768 26832 0
-30928 26832 30864 26768 -26767 0
-26768 30864 0
-63632 30864 59536 26768 -26767 0
-26772 30868 0
-26776 26808 0
-26872 26808 26840 26776 -26775 0
-26776 26840 0
-26780 26812 0
-26876 26812 26844 26780 -26779 0
-26780 26844 0
-26784 59552 0
-26800 26792 26796 26788 -26787 0
-30888 26792 30884 26788 -26787 0
-26788 26796 0
-30892 26796 30884 26788 -26787 0
-30900 26804 30884 26788 -26787 0
-26788 27044 0
-26788 27300 0
-26788 30884 0
-26787 59555 0
-26792 26808 0
-26796 26800 0
-26816 26800 26812 26796 -26795 0
-26796 26812 0
-59580 26812 59564 26796 -26795 0
-26800 59568 0
-26804 26808 0
-30904 26808 30900 26804 -26803 0
-26804 26812 0
-59580 26812 59572 26804 -26803 0
-26808 30904 0
-26808 59576 0
-26812 30908 0
-63676 30908 59580 26812 -26811 0
-26812 59580 0
-26816 59584 0
-26820 26824 0
-26820 26828 0
-26844 26828 26836 26820 -26819 0
-59596 26828 59588 26820 -26819 0
-63684 30916 59588 26820 -26819 0
-26819 59587 0
-26820 59588 0
-26824 26832 0
-59600 26832 59592 26824 -26823 0
-26824 26840 0
-59608 26840 59592 26824 -26823 0
-26824 30920 0
-26828 26844 0
-59612 26844 59596 26828 -26827 0
-26828 30924 0
-26832 30928 0
-26832 59600 0
-26836 26840 0
-26848 26840 26844 26836 -26835 0
-26840 30936 0
-26840 59608 0
-26844 30940 0
-63708 30940 59612 26844 -26843 0
-26844 59612 0
-26852 59620 0
-26856 59624 0
-26860 59628 0
-26868 59636 0
-26872 59640 0
-26876 59644 0
-26883 26887 0
-26895 26887 26891 26883 -26882 0
-26903 26887 26899 26883 -26882 0
-26900 26883 0
-27396 26883 0
-26896 26887 0
-26904 26887 0
-26887 30983 0
-63751 30983 59655 26887 -26886 0
-26887 59655 0
-59656 26887 0
-26896 26891 0
-27404 26891 0
-27916 26891 0
-26891 30987 0
-63755 30987 59659 26891 -26890 0
-26891 59659 0
-59660 26891 0
-26904 26899 0
-26912 26904 26908 26900 -26899 0
-26899 59667 0
-26904 27416 0
-28440 27416 27928 26904 -26903 0
-60184 27416 59672 26904 -26903 0
-26904 27928 0
-60696 27928 59672 26904 -26903 0
-26908 27420 0
-26908 27932 0
-26912 59680 0
-26980 27492 0
-26980 28004 0
-27044 27556 0
-27044 28068 0
-27108 59876 0
-27139 27143 0
-27151 27143 27147 27139 -27138 0
-27159 27143 27155 27139 -27138 0
-27156 27139 0
-27152 27143 0
-27160 27143 0
-32264 28168 31240 27144 -27143 0
-27143 31239 0
-64007 31239 59911 27143 -27142 0
-27143 59911 0
-27152 27147 0
-27404 27147 0
-28172 27147 0
-27147 31243 0
-64011 31243 59915 27147 -27146 0
-27147 59915 0
-59916 27147 0
-27160 27155 0
-27168 27160 27164 27156 -27155 0
-27155 59923 0
-27160 27416 0
-28440 27416 28184 27160 -27159 0
-27160 28184 0
-60952 28184 59928 27160 -27159 0
-27164 27420 0
-27164 28188 0
-27168 59936 0
-27236 28260 0
-27300 28324 0
-27364 60132 0
-27396 27400 0
-27408 27400 27404 27396 -27395 0
-27395 60163 0
-27424 27408 27416 27400 -27399 0
-27400 27416 0
-60184 27416 60168 27400 -27399 0
-27412 27416 0
-27424 27416 27420 27412 -27411 0
-60184 27416 60180 27412 -27411 0
-27416 31512 0
-64280 31512 60184 27416 -27415 0
-27420 60188 0
-27492 60260 0
-27556 60324 0
-27651 27655 0
-27663 27655 27659 27651 -27650 0
-27671 27655 27667 27651 -27650 0
-27668 27651 0
-27664 27655 0
-27672 27655 0
-32008 27912 31752 27656 -27655 0
-27655 31751 0
-64519 31751 60423 27655 -27654 0
-27655 60423 0
-27664 27659 0
-27916 27659 0
-28172 27659 0
-27659 31755 0
-64523 31755 60427 27659 -27658 0
-27659 60427 0
-60428 27659 0
-27672 27667 0
-27680 27672 27676 27668 -27667 0
-27667 60435 0
-27676 27932 0
-27676 28188 0
-27680 60448 0
-27876 60644 0
-27908 27912 0
-27920 27912 27916 27908 -27907 0
-27907 60675 0
-27912 27920 0
-27936 27920 27928 27912 -27911 0
-27912 27928 0
-60696 27928 60680 27912 -27911 0
-27920 60688 0
-27924 27928 0
-27936 27928 27932 27924 -27923 0
-60696 27928 60692 27924 -27923 0
-27928 32024 0
-64792 32024 60696 27928 -27927 0
-27928 60696 0
-27932 60700 0
-28004 60772 0
-28068 60836 0
-28164 28168 0
-28176 28168 28172 28164 -28163 0
-28163 60931 0
-28168 28176 0
-28192 28176 28184 28168 -28167 0
-28168 28184 0
-60952 28184 60936 28168 -28167 0
-28176 60944 0
-28180 28184 0
-28192 28184 28188 28180 -28179 0
-60952 28184 60948 28180 -28179 0
-28184 32280 0
-65048 32280 60952 28184 -28183 0
-28184 60952 0
-28188 60956 0
-28260 61028 0
-28324 61092 0
-28424 61192 0
-28428 61196 0
-28436 61204 0
-28452 61220 0
-28484 61252 0
-28548 61316 0
-28679 28674 0
-28687 28679 28683 28675 -28674 0
-28695 28679 28691 28675 -28674 0
-28711 28679 28707 28675 -28674 0
-30727 28679 30723 28675 -28674 0
-61447 28679 61443 28675 -28674 0
-28683 28674 0
-28684 28675 0
-30731 28683 30723 28675 -28674 0
-61451 28683 61443 28675 -28674 0
-28691 28674 0
-28692 28675 0
-61459 28691 61443 28675 -28674 0
-28707 28674 0
-28675 28707 0
-28708 28675 0
-28835 28707 28803 28675 -28674 0
-30755 28707 30723 28675 -28674 0
-61475 28707 61443 28675 -28674 0
-28739 28674 0
-28867 28739 28803 28675 -28674 0
-30787 28739 30723 28675 -28674 0
-61507 28739 61443 28675 -28674 0
-28803 28674 0
-28804 28675 0
-30851 28803 30723 28675 -28674 0
-61571 28803 61443 28675 -28674 0
-30723 28674 0
-28675 30723 0
-63491 30723 61443 28675 -28674 0
-61443 28674 0
-28688 28679 0
-28704 28688 28696 28680 -28679 0
-28696 28679 0
-28679 28711 0
-30759 28711 30727 28679 -28678 0
-28679 28743 0
-28679 28807 0
-28808 28679 0
-30856 28808 30728 28680 -28679 0
-28679 28935 0
-28679 29191 0
-28679 29703 0
-28679 30727 0
-30728 28679 0
-28680 30728 0
-63495 30727 61447 28679 -28678 0
-63496 30728 61448 28680 -28679 0
-61456 28688 61452 28684 -28683 0
-30748 28700 30732 28684 -28683 0
-28683 28715 0
-61483 28715 61451 28683 -28682 0
-28683 28747 0
-28748 28683 0
-61516 28748 61452 28684 -28683 0
-28683 28811 0
-28683 28939 0
-28683 29195 0
-61964 29196 61452 28684 -28683 0
-28683 29707 0
-28683 30731 0
-30732 28683 0
-63500 30732 61452 28684 -28683 0
-61712 28944 61456 28688 -28687 0
-28688 30736 0
-63504 30736 61456 28688 -28687 0
-28687 61455 0
-28704 28696 28700 28692 -28691 0
-61464 28696 61460 28692 -28691 0
-28700 28691 0
-30748 28700 30740 28692 -28691 0
-61468 28700 61460 28692 -28691 0
-28691 28723 0
-61491 28723 61459 28691 -28690 0
-28691 28755 0
-28691 28819 0
-28691 28947 0
-28691 29203 0
-28691 29715 0
-28691 30739 0
-30740 28691 0
-63507 30739 61459 28691 -28690 0
-63508 30740 61460 28692 -28691 0
-28691 61459 0
-61460 28691 0
-28696 28728 0
-28696 28760 0
-63512 30744 61464 28696 -28695 0
-28695 61463 0
-28700 28732 0
-61500 28732 61468 28700 -28699 0
-28700 28764 0
-61532 28764 61468 28700 -28699 0
-61596 28828 61468 28700 -28699 0
-28700 28956 0
-28700 29212 0
-28700 30748 0
-63516 30748 61468 28700 -28699 0
-28699 61467 0
-28700 61468 0
-28704 61472 0
-28707 28715 0
-30763 28715 30755 28707 -28706 0
-30764 28716 30756 28708 -28707 0
-28707 28723 0
-28772 28707 0
-61540 28772 61476 28708 -28707 0
-28836 28707 0
-61604 28836 61476 28708 -28707 0
-28707 30755 0
-30756 28707 0
-63524 30756 61476 28708 -28707 0
-28711 30759 0
-28715 30763 0
-63531 30763 61483 28715 -28714 0
-28715 61483 0
-28723 30771 0
-63539 30771 61491 28723 -28722 0
-28728 30776 0
-28732 28796 0
-28732 28860 0
-28736 61504 0
-28740 28744 0
-28739 28747 0
-61516 28748 61508 28740 -28739 0
-28739 28755 0
-28900 28772 28868 28740 -28739 0
-61636 28868 61508 28740 -28739 0
-30788 28739 0
-28739 61507 0
-28743 30791 0
-28744 30792 0
-28748 28764 0
-28747 30795 0
-28755 30803 0
-28760 30808 0
-61564 28796 61532 28764 -28763 0
-28764 28892 0
-61660 28892 61532 28764 -28763 0
-28764 30812 0
-28768 61536 0
-28772 28776 0
-28772 28780 0
-28772 30820 0
-63588 30820 61540 28772 -28771 0
-28771 61539 0
-28776 28784 0
-61552 28784 61544 28776 -28775 0
-28776 28792 0
-28780 28796 0
-28784 30832 0
-28792 30840 0
-28796 30844 0
-28800 61568 0
-28808 28803 0
-61576 28808 61572 28804 -28803 0
-28803 28811 0
-28803 28819 0
-61587 28819 61571 28803 -28802 0
-28836 28803 0
-28868 28803 0
-28803 29059 0
-28803 29315 0
-28803 29827 0
-28803 30851 0
-30852 28803 0
-63619 30851 61571 28803 -28802 0
-28803 61571 0
-61572 28803 0
-28807 30855 0
-28811 30859 0
-61596 28828 61588 28820 -28819 0
-28819 30867 0
-28820 30868 0
-28828 28892 0
-28832 61600 0
-28836 29092 0
-61860 29092 61604 28836 -28835 0
-63652 30884 61604 28836 -28835 0
-28835 61603 0
-28860 30908 0
-63676 30908 61628 28860 -28859 0
-28868 28872 0
-61652 28884 61636 28868 -28867 0
-28868 30916 0
-28867 61635 0
-28868 61636 0
-61656 28888 61640 28872 -28871 0
-28872 30920 0
-28884 28888 0
-28888 30936 0
-28892 30940 0
-63708 30940 61660 28892 -28891 0
-28900 61668 0
-28904 61672 0
-28908 61676 0
-28916 61684 0
-28935 30983 0
-28939 30987 0
-28944 29456 0
-62224 29456 61712 28944 -28943 0
-28947 30995 0
-28956 29468 0
-28956 29980 0
-28960 61728 0
-29059 31107 0
-29092 29604 0
-62372 29604 61860 29092 -29091 0
-29156 61924 0
-29191 31239 0
-29196 29200 0
-62220 29452 61964 29196 -29195 0
-29195 31243 0
-29200 29456 0
-29203 31251 0
-29212 30236 0
-29216 61984 0
-29315 31363 0
-29412 62180 0
-29444 29448 0
-62276 29508 62212 29444 -29443 0
-64260 31492 62212 29444 -29443 0
-29443 62211 0
-29444 62212 0
-29448 29456 0
-29452 29456 0
-29456 31504 0
-29468 31516 0
-29508 29540 0
-29540 31588 0
-29604 31652 0
-64420 31652 62372 29604 -29603 0
-29703 31751 0
-29707 31755 0
-29715 31763 0
-29728 62496 0
-29827 31875 0
-29924 62692 0
-29955 62723 0
-29980 32028 0
-30211 62979 0
-30236 32284 0
-30468 63236 0
-30472 63240 0
-30476 63244 0
-30484 63252 0
-30500 63268 0
-30532 63300 0
-30596 63364 0
-30723 30727 0
-30724 30728 0
-30735 30727 30731 30723 -30722 0
-30736 30728 30732 30724 -30723 0
-30743 30727 30739 30723 -30722 0
-30744 30728 30740 30724 -30723 0
-30759 30727 30755 30723 -30722 0
-30760 30728 30756 30724 -30723 0
-30791 30727 30787 30723 -30722 0
-30792 30728 30788 30724 -30723 0
-30855 30727 30851 30723 -30722 0
-30856 30728 30852 30724 -30723 0
-31239 30727 31235 30723 -30722 0
-31751 30727 31747 30723 -30722 0
-63495 30727 63491 30723 -30722 0
-63496 30728 63492 30724 -30723 0
-30723 30731 0
-30732 30723 0
-30724 30732 0
-30747 30731 30739 30723 -30722 0
-30748 30732 30740 30724 -30723 0
-30763 30731 30755 30723 -30722 0
-30795 30731 30787 30723 -30722 0
-30859 30731 30851 30723 -30722 0
-30987 30731 30979 30723 -30722 0
-31243 30731 31235 30723 -30722 0
-31755 30731 31747 30723 -30722 0
-63499 30731 63491 30723 -30722 0
-63500 30732 63492 30724 -30723 0
-30723 30739 0
-30740 30723 0
-30771 30739 30755 30723 -30722 0
-30803 30739 30787 30723 -30722 0
-30867 30739 30851 30723 -30722 0
-30868 30740 30852 30724 -30723 0
-63507 30739 63491 30723 -30722 0
-63508 30740 63492 30724 -30723 0
-30723 30755 0
-30756 30723 0
-30819 30755 30787 30723 -30722 0
-31011 30755 30979 30723 -30722 0
-31267 30755 31235 30723 -30722 0
-31779 30755 31747 30723 -30722 0
-63523 30755 63491 30723 -30722 0
-30723 30787 0
-30788 30723 0
-31043 30787 30979 30723 -30722 0
-31299 30787 31235 30723 -30722 0
-31811 30787 31747 30723 -30722 0
-63555 30787 63491 30723 -30722 0
-30723 30851 0
-30852 30723 0
-63619 30851 63491 30723 -30722 0
-30980 30723 0
-63747 30979 63491 30723 -30722 0
-31236 30723 0
-31748 30723 0
-30723 63491 0
-63492 30723 0
-30736 30727 0
-30728 30736 0
-30752 30736 30744 30728 -30727 0
-30768 30736 30760 30728 -30727 0
-30800 30736 30792 30728 -30727 0
-63504 30736 63496 30728 -30727 0
-30744 30727 0
-30728 30744 0
-30776 30744 30760 30728 -30727 0
-30808 30744 30792 30728 -30727 0
-30872 30744 30856 30728 -30727 0
-63512 30744 63496 30728 -30727 0
-30727 30759 0
-30760 30727 0
-63527 30759 63495 30727 -30726 0
-63528 30760 63496 30728 -30727 0
-30727 30791 0
-30792 30727 0
-30920 30792 30856 30728 -30727 0
-63559 30791 63495 30727 -30726 0
-63560 30792 63496 30728 -30727 0
-30727 30855 0
-30856 30727 0
-63624 30856 63496 30728 -30727 0
-30727 30983 0
-30984 30727 0
-31495 30983 31239 30727 -30726 0
-63751 30983 63495 30727 -30726 0
-30727 31239 0
-31240 30727 0
-64007 31239 63495 30727 -30726 0
-30727 31751 0
-31752 30727 0
-64519 31751 63495 30727 -30726 0
-30727 63495 0
-63496 30727 0
-30728 63496 0
-30736 30731 0
-30732 30736 0
-30752 30736 30748 30732 -30731 0
-30800 30736 30796 30732 -30731 0
-30864 30736 30860 30732 -30731 0
-63504 30736 63500 30732 -30731 0
-30748 30731 0
-30732 30748 0
-30780 30748 30764 30732 -30731 0
-30876 30748 30860 30732 -30731 0
-63516 30748 63500 30732 -30731 0
-30731 30763 0
-30764 30731 0
-30732 30764 0
-30892 30764 30860 30732 -30731 0
-63531 30763 63499 30731 -30730 0
-63532 30764 63500 30732 -30731 0
-30731 30795 0
-30796 30731 0
-63563 30795 63499 30731 -30730 0
-63564 30796 63500 30732 -30731 0
-30731 30859 0
-30860 30731 0
-30732 30860 0
-31115 30859 30987 30731 -30730 0
-31371 30859 31243 30731 -30730 0
-31883 30859 31755 30731 -30730 0
-63627 30859 63499 30731 -30730 0
-63628 30860 63500 30732 -30731 0
-30731 30987 0
-30988 30731 0
-63755 30987 63499 30731 -30730 0
-63756 30988 63500 30732 -30731 0
-30731 31243 0
-31244 30731 0
-64011 31243 63499 30731 -30730 0
-64012 31244 63500 30732 -30731 0
-30731 31755 0
-31756 30731 0
-64523 31755 63499 30731 -30730 0
-64524 31756 63500 30732 -30731 0
-30731 63499 0
-63500 30731 0
-30732 63500 0
-30736 30768 0
-31024 30768 30992 30736 -30735 0
-31280 30768 31248 30736 -30735 0
-31792 30768 31760 30736 -30735 0
-63536 30768 63504 30736 -30735 0
-30736 30800 0
-30928 30800 30864 30736 -30735 0
-31056 30800 30992 30736 -30735 0
-31312 30800 31248 30736 -30735 0
-31824 30800 31760 30736 -30735 0
-63568 30800 63504 30736 -30735 0
-30736 30864 0
-31120 30864 30992 30736 -30735 0
-31376 30864 31248 30736 -30735 0
-63632 30864 63504 30736 -30735 0
-30736 30992 0
-63760 30992 63504 30736 -30735 0
-30736 31248 0
-32272 31248 31760 30736 -30735 0
-64016 31248 63504 30736 -30735 0
-64528 31760 63504 30736 -30735 0
-30736 63504 0
-30744 30739 0
-30740 30744 0
-30752 30744 30748 30740 -30739 0
-30776 30744 30772 30740 -30739 0
-30872 30744 30868 30740 -30739 0
-63512 30744 63508 30740 -30739 0
-30748 30739 0
-30740 30748 0
-30780 30748 30772 30740 -30739 0
-30812 30748 30804 30740 -30739 0
-63516 30748 63508 30740 -30739 0
-30739 30771 0
-30772 30739 0
-63539 30771 63507 30739 -30738 0
-63540 30772 63508 30740 -30739 0
-30739 30803 0
-30804 30739 0
-30740 30804 0
-63571 30803 63507 30739 -30738 0
-63572 30804 63508 30740 -30739 0
-30739 30867 0
-30868 30739 0
-30740 30868 0
-63636 30868 63508 30740 -30739 0
-30739 30995 0
-63764 30996 63508 30740 -30739 0
-30739 31251 0
-64020 31252 63508 30740 -30739 0
-30739 31763 0
-30739 63507 0
-63508 30739 0
-30740 63508 0
-30744 30776 0
-30840 30776 30808 30744 -30743 0
-30904 30776 30872 30744 -30743 0
-31032 30776 31000 30744 -30743 0
-31288 30776 31256 30744 -30743 0
-63544 30776 63512 30744 -30743 0
-30744 30808 0
-31064 30808 31000 30744 -30743 0
-31320 30808 31256 30744 -30743 0
-31832 30808 31768 30744 -30743 0
-63576 30808 63512 30744 -30743 0
-30744 30872 0
-31128 30872 31000 30744 -30743 0
-31384 30872 31256 30744 -30743 0
-31896 30872 31768 30744 -30743 0
-63640 30872 63512 30744 -30743 0
-30744 31000 0
-63768 31000 63512 30744 -30743 0
-30744 31256 0
-64024 31256 63512 30744 -30743 0
-30744 63512 0
-30748 30780 0
-30844 30780 30812 30748 -30747 0
-30908 30780 30876 30748 -30747 0
-31036 30780 31004 30748 -30747 0
-31292 30780 31260 30748 -30747 0
-63548 30780 63516 30748 -30747 0
-30748 30812 0
-31068 30812 31004 30748 -30747 0
-63580 30812 63516 30748 -30747 0
-30748 30876 0
-31132 30876 31004 30748 -30747 0
-31388 30876 31260 30748 -30747 0
-63644 30876 63516 30748 -30747 0
-30748 31004 0
-63772 31004 63516 30748 -30747 0
-30748 31260 0
-64028 31260 63516 30748 -30747 0
-64540 31772 63516 30748 -30747 0
-30748 63516 0
-30752 63520 0
-30755 30759 0
-30760 30755 0
-30756 30760 0
-30768 30760 30764 30756 -30755 0
-30824 30760 30820 30756 -30755 0
-30888 30760 30884 30756 -30755 0
-30755 30763 0
-30764 30755 0
-30756 30764 0
-30780 30764 30772 30756 -30755 0
-30828 30764 30820 30756 -30755 0
-63531 30763 63523 30755 -30754 0
-30755 30771 0
-30772 30755 0
-30756 30772 0
-30836 30772 30820 30756 -30755 0
-30900 30772 30884 30756 -30755 0
-63539 30771 63523 30755 -30754 0
-30820 30755 0
-30756 30820 0
-30948 30820 30884 30756 -30755 0
-63588 30820 63524 30756 -30755 0
-30884 30755 0
-30756 30884 0
-63652 30884 63524 30756 -30755 0
-30755 31011 0
-63779 31011 63523 30755 -30754 0
-30755 31267 0
-64035 31267 63523 30755 -30754 0
-30755 31779 0
-64547 31779 63523 30755 -30754 0
-30755 63523 0
-63524 30755 0
-30760 30768 0
-30896 30768 30888 30760 -30759 0
-31024 30768 31016 30760 -30759 0
-31280 30768 31272 30760 -30759 0
-31792 30768 31784 30760 -30759 0
-63536 30768 63528 30760 -30759 0
-30776 30759 0
-30952 30824 30888 30760 -30759 0
-30760 30888 0
-63656 30888 63528 30760 -30759 0
-63528 30759 0
-30768 30763 0
-30784 30768 30780 30764 -30763 0
-30832 30768 30828 30764 -30763 0
-30780 30763 0
-30764 30780 0
-30908 30780 30892 30764 -30763 0
-63548 30780 63532 30764 -30763 0
-30828 30763 0
-30764 30828 0
-30956 30828 30892 30764 -30763 0
-63596 30828 63532 30764 -30763 0
-30892 30763 0
-30764 30892 0
-31148 30892 31020 30764 -30763 0
-31404 30892 31276 30764 -30763 0
-63660 30892 63532 30764 -30763 0
-31020 30763 0
-63788 31020 63532 30764 -30763 0
-31276 30763 0
-64044 31276 63532 30764 -30763 0
-31788 30763 0
-64556 31788 63532 30764 -30763 0
-63532 30763 0
-30764 63532 0
-30768 30832 0
-31088 30832 31024 30768 -30767 0
-31344 30832 31280 30768 -30767 0
-31856 30832 31792 30768 -30767 0
-63600 30832 63536 30768 -30767 0
-30768 30896 0
-31152 30896 31024 30768 -30767 0
-31408 30896 31280 30768 -30767 0
-31920 30896 31792 30768 -30767 0
-63664 30896 63536 30768 -30767 0
-30768 63536 0
-30772 30776 0
-30784 30776 30780 30772 -30771 0
-30780 30771 0
-30772 30780 0
-31036 30780 31028 30772 -30771 0
-63548 30780 63540 30772 -30771 0
-30964 30836 30900 30772 -30771 0
-63604 30836 63540 30772 -30771 0
-30900 30771 0
-30772 30900 0
-31412 30900 31284 30772 -30771 0
-31924 30900 31796 30772 -30771 0
-63668 30900 63540 30772 -30771 0
-63796 31028 63540 30772 -30771 0
-64052 31284 63540 30772 -30771 0
-64564 31796 63540 30772 -30771 0
-63540 30771 0
-30772 63540 0
-30776 30840 0
-30776 30904 0
-31160 30904 31032 30776 -30775 0
-31416 30904 31288 30776 -30775 0
-30776 31032 0
-30776 63544 0
-30780 30844 0
-31100 30844 31036 30780 -30779 0
-31356 30844 31292 30780 -30779 0
-63612 30844 63548 30780 -30779 0
-30780 30908 0
-31164 30908 31036 30780 -30779 0
-30780 63548 0
-30784 63552 0
-30787 30791 0
-30792 30787 0
-30788 30792 0
-30800 30792 30796 30788 -30787 0
-30808 30792 30804 30788 -30787 0
-30920 30792 30916 30788 -30787 0
-63559 30791 63555 30787 -30786 0
-63560 30792 63556 30788 -30787 0
-30787 30795 0
-30796 30787 0
-30788 30796 0
-30828 30796 30820 30788 -30787 0
-30924 30796 30916 30788 -30787 0
-63563 30795 63555 30787 -30786 0
-63564 30796 63556 30788 -30787 0
-30787 30803 0
-30804 30787 0
-30788 30804 0
-30836 30804 30820 30788 -30787 0
-63571 30803 63555 30787 -30786 0
-63572 30804 63556 30788 -30787 0
-30820 30787 0
-30948 30820 30916 30788 -30787 0
-63588 30820 63556 30788 -30787 0
-30916 30787 0
-31428 30916 31300 30788 -30787 0
-31940 30916 31812 30788 -30787 0
-63684 30916 63556 30788 -30787 0
-30787 31043 0
-31044 30787 0
-63811 31043 63555 30787 -30786 0
-30787 31299 0
-31300 30787 0
-64067 31299 63555 30787 -30786 0
-64068 31300 63556 30788 -30787 0
-30787 31811 0
-64579 31811 63555 30787 -30786 0
-64580 31812 63556 30788 -30787 0
-30787 63555 0
-63556 30787 0
-30788 63556 0
-30792 30800 0
-30928 30800 30920 30792 -30791 0
-31824 30800 31816 30792 -30791 0
-63568 30800 63560 30792 -30791 0
-30792 30808 0
-63576 30808 63560 30792 -30791 0
-30792 30824 0
-30952 30824 30920 30792 -30791 0
-63592 30824 63560 30792 -30791 0
-63688 30920 63560 30792 -30791 0
-63560 30791 0
-30792 63560 0
-30800 30795 0
-30796 30800 0
-30816 30800 30812 30796 -30795 0
-30928 30800 30924 30796 -30795 0
-63568 30800 63564 30796 -30795 0
-30796 30812 0
-30844 30812 30828 30796 -30795 0
-30940 30812 30924 30796 -30795 0
-63580 30812 63564 30796 -30795 0
-30796 30828 0
-63596 30828 63564 30796 -30795 0
-63692 30924 63564 30796 -30795 0
-63564 30795 0
-30796 63564 0
-30800 30832 0
-63600 30832 63568 30800 -30799 0
-30800 30928 0
-31952 30928 31824 30800 -30799 0
-63696 30928 63568 30800 -30799 0
-31568 31056 31312 30800 -30799 0
-30800 63568 0
-30808 30803 0
-30804 30808 0
-30840 30808 30836 30804 -30803 0
-63576 30808 63572 30804 -30803 0
-30804 30812 0
-30844 30812 30836 30804 -30803 0
-63580 30812 63572 30804 -30803 0
-30804 30836 0
-63572 30803 0
-30804 63572 0
-30808 30840 0
-31096 30840 31064 30808 -30807 0
-31352 30840 31320 30808 -30807 0
-31864 30840 31832 30808 -30807 0
-63608 30840 63576 30808 -30807 0
-30808 30936 0
-31192 30936 31064 30808 -30807 0
-31448 30936 31320 30808 -30807 0
-63704 30936 63576 30808 -30807 0
-30808 63576 0
-30812 30844 0
-30972 30844 30940 30812 -30811 0
-63612 30844 63580 30812 -30811 0
-30812 30940 0
-31196 30940 31068 30812 -30811 0
-63708 30940 63580 30812 -30811 0
-30812 63580 0
-30816 63584 0
-30820 30824 0
-31080 30824 31076 30820 -30819 0
-31336 30824 31332 30820 -30819 0
-31848 30824 31844 30820 -30819 0
-30820 30828 0
-63596 30828 63588 30820 -30819 0
-31348 30836 31332 30820 -30819 0
-31860 30836 31844 30820 -30819 0
-63604 30836 63588 30820 -30819 0
-30820 31076 0
-63844 31076 63588 30820 -30819 0
-30820 31332 0
-64100 31332 63588 30820 -30819 0
-64612 31844 63588 30820 -30819 0
-30820 63588 0
-30824 30832 0
-31088 30832 31080 30824 -30823 0
-31344 30832 31336 30824 -30823 0
-31856 30832 31848 30824 -30823 0
-30824 30840 0
-30828 30832 0
-30848 30832 30844 30828 -30827 0
-30828 30844 0
-30828 63596 0
-63856 31088 63600 30832 -30831 0
-64112 31344 63600 30832 -30831 0
-64624 31856 63600 30832 -30831 0
-30832 63600 0
-30836 30840 0
-30848 30840 30844 30836 -30835 0
-30836 30844 0
-64116 31348 63604 30836 -30835 0
-64628 31860 63604 30836 -30835 0
-63864 31096 63608 30840 -30839 0
-64120 31352 63608 30840 -30839 0
-64632 31864 63608 30840 -30839 0
-30840 63608 0
-63868 31100 63612 30844 -30843 0
-64124 31356 63612 30844 -30843 0
-30844 63612 0
-30851 30855 0
-30856 30851 0
-30852 30856 0
-30864 30856 30860 30852 -30851 0
-30872 30856 30868 30852 -30851 0
-30888 30856 30884 30852 -30851 0
-30920 30856 30916 30852 -30851 0
-63623 30855 63619 30851 -30850 0
-63624 30856 63620 30852 -30851 0
-30851 30859 0
-30860 30851 0
-30852 30860 0
-30876 30860 30868 30852 -30851 0
-30892 30860 30884 30852 -30851 0
-31116 30860 31108 30852 -30851 0
-31372 30860 31364 30852 -30851 0
-63627 30859 63619 30851 -30850 0
-63628 30860 63620 30852 -30851 0
-30851 30867 0
-30868 30851 0
-30852 30868 0
-30900 30868 30884 30852 -30851 0
-30932 30868 30916 30852 -30851 0
-63635 30867 63619 30851 -30850 0
-63636 30868 63620 30852 -30851 0
-30852 30884 0
-30948 30884 30916 30852 -30851 0
-63652 30884 63620 30852 -30851 0
-30916 30851 0
-30852 30916 0
-63684 30916 63620 30852 -30851 0
-30851 31107 0
-30851 31363 0
-30851 31875 0
-30851 63619 0
-63620 30851 0
-30856 30864 0
-30880 30864 30872 30856 -30855 0
-30896 30864 30888 30856 -30855 0
-63632 30864 63624 30856 -30855 0
-30856 30872 0
-63640 30872 63624 30856 -30855 0
-30856 30888 0
-30952 30888 30920 30856 -30855 0
-63656 30888 63624 30856 -30855 0
-30856 30920 0
-63688 30920 63624 30856 -30855 0
-63624 30855 0
-30856 63624 0
-30864 30859 0
-30860 30864 0
-30880 30864 30876 30860 -30859 0
-63632 30864 63628 30860 -30859 0
-30860 30876 0
-63644 30876 63628 30860 -30859 0
-63660 30892 63628 30860 -30859 0
-30860 30924 0
-63692 30924 63628 30860 -30859 0
-30860 31116 0
-63884 31116 63628 30860 -30859 0
-30860 31372 0
-64140 31372 63628 30860 -30859 0
-30860 31884 0
-64652 31884 63628 30860 -30859 0
-63628 30859 0
-30860 63628 0
-30864 30896 0
-63664 30896 63632 30864 -30863 0
-30864 30928 0
-63696 30928 63632 30864 -30863 0
-30864 31120 0
-30864 31376 0
-30864 63632 0
-30868 30872 0
-30880 30872 30876 30868 -30867 0
-30904 30872 30900 30868 -30867 0
-63640 30872 63636 30868 -30867 0
-30868 30876 0
-63644 30876 63636 30868 -30867 0
-30964 30900 30932 30868 -30867 0
-63668 30900 63636 30868 -30867 0
-63700 30932 63636 30868 -30867 0
-63636 30867 0
-30868 63636 0
-30872 30904 0
-63672 30904 63640 30872 -30871 0
-30872 30936 0
-31192 30936 31128 30872 -30871 0
-31448 30936 31384 30872 -30871 0
-31960 30936 31896 30872 -30871 0
-63704 30936 63640 30872 -30871 0
-30872 31128 0
-30872 63640 0
-30876 30908 0
-31420 30908 31388 30876 -30875 0
-63676 30908 63644 30876 -30875 0
-30876 30940 0
-31196 30940 31132 30876 -30875 0
-31452 30940 31388 30876 -30875 0
-63708 30940 63644 30876 -30875 0
-30876 63644 0
-30880 63648 0
-30884 30888 0
-30904 30888 30900 30884 -30883 0
-31144 30888 31140 30884 -30883 0
-31400 30888 31396 30884 -30883 0
-31912 30888 31908 30884 -30883 0
-63656 30888 63652 30884 -30883 0
-30884 30892 0
-30908 30892 30900 30884 -30883 0
-31148 30892 31140 30884 -30883 0
-31404 30892 31396 30884 -30883 0
-31916 30892 31908 30884 -30883 0
-63660 30892 63652 30884 -30883 0
-31156 30900 31140 30884 -30883 0
-31412 30900 31396 30884 -30883 0
-31924 30900 31908 30884 -30883 0
-63668 30900 63652 30884 -30883 0
-30884 31140 0
-30884 31396 0
-30884 63652 0
-30888 30896 0
-31152 30896 31144 30888 -30887 0
-31408 30896 31400 30888 -30887 0
-63664 30896 63656 30888 -30887 0
-30888 30904 0
-31160 30904 31144 30888 -30887 0
-31416 30904 31400 30888 -30887 0
-31928 30904 31912 30888 -30887 0
-63912 31144 63656 30888 -30887 0
-64168 31400 63656 30888 -30887 0
-30888 63656 0
-30892 30896 0
-31152 30896 31148 30892 -30891 0
-31408 30896 31404 30892 -30891 0
-30892 30908 0
-31420 30908 31404 30892 -30891 0
-31932 30908 31916 30892 -30891 0
-63916 31148 63660 30892 -30891 0
-64172 31404 63660 30892 -30891 0
-30892 63660 0
-63920 31152 63664 30896 -30895 0
-64176 31408 63664 30896 -30895 0
-64688 31920 63664 30896 -30895 0
-30896 63664 0
-30900 30904 0
-31416 30904 31412 30900 -30899 0
-31928 30904 31924 30900 -30899 0
-63672 30904 63668 30900 -30899 0
-30900 30908 0
-31164 30908 31156 30900 -30899 0
-63676 30908 63668 30900 -30899 0
-30900 63668 0
-63928 31160 63672 30904 -30903 0
-64184 31416 63672 30904 -30903 0
-64696 31928 63672 30904 -30903 0
-30904 63672 0
-63932 31164 63676 30908 -30907 0
-64188 31420 63676 30908 -30907 0
-64700 31932 63676 30908 -30907 0
-30908 63676 0
-30916 30920 0
-30936 30920 30932 30916 -30915 0
-31176 30920 31172 30916 -30915 0
-31432 30920 31428 30916 -30915 0
-30916 30924 0
-31180 30924 31172 30916 -30915 0
-31436 30924 31428 30916 -30915 0
-63692 30924 63684 30916 -30915 0
-31188 30932 31172 30916 -30915 0
-31444 30932 31428 30916 -30915 0
-31956 30932 31940 30916 -30915 0
-30916 31172 0
-63940 31172 63684 30916 -30915 0
-30916 31428 0
-64196 31428 63684 30916 -30915 0
-64708 31940 63684 30916 -30915 0
-30916 63684 0
-30920 30928 0
-31184 30928 31176 30920 -30919 0
-31440 30928 31432 30920 -30919 0
-63696 30928 63688 30920 -30919 0
-30920 30936 0
-63704 30936 63688 30920 -30919 0
-30920 63688 0
-30924 30928 0
-30924 30940 0
-31196 30940 31180 30924 -30923 0
-31452 30940 31436 30924 -30923 0
-63952 31184 63696 30928 -30927 0
-64208 31440 63696 30928 -30927 0
-64720 31952 63696 30928 -30927 0
-30928 63696 0
-30932 30936 0
-31192 30936 31188 30932 -30931 0
-31448 30936 31444 30932 -30931 0
-31960 30936 31956 30932 -30931 0
-30932 30940 0
-63960 31192 63704 30936 -30935 0
-64216 31448 63704 30936 -30935 0
-64728 31960 63704 30936 -30935 0
-30936 63704 0
-63964 31196 63708 30940 -30939 0
-64220 31452 63708 30940 -30939 0
-30940 63708 0
-30948 63716 0
-30952 63720 0
-30956 63724 0
-30964 63732 0
-32008 30984 32004 30980 -30979 0
-30979 30987 0
-31116 30988 31108 30980 -30979 0
-31500 30988 31492 30980 -30979 0
-32012 30988 32004 30980 -30979 0
-30979 31011 0
-63812 31044 63748 30980 -30979 0
-30979 31107 0
-31108 30979 0
-64772 32004 63748 30980 -30979 0
-30992 30983 0
-31000 30983 0
-30984 31000 0
-31512 31000 31496 30984 -30983 0
-32024 31000 32008 30984 -30983 0
-63768 31000 63752 30984 -30983 0
-31496 30983 0
-32520 31496 32008 30984 -30983 0
-63752 30983 0
-30992 30987 0
-30988 30992 0
-31504 30992 31500 30988 -30987 0
-32016 30992 32012 30988 -30987 0
-31004 30987 0
-31020 30987 0
-63788 31020 63756 30988 -30987 0
-31116 30987 0
-64780 32012 63756 30988 -30987 0
-63756 30987 0
-31568 31056 31504 30992 -30991 0
-32080 31056 32016 30992 -30991 0
-31632 31120 31504 30992 -30991 0
-32144 31120 32016 30992 -30991 0
-30992 31504 0
-32528 31504 32016 30992 -30991 0
-64272 31504 63760 30992 -30991 0
-30992 32016 0
-64784 32016 63760 30992 -30991 0
-30992 63760 0
-31000 30995 0
-30996 31000 0
-31004 30995 0
-64276 31508 63764 30996 -30995 0
-63764 30995 0
-31544 31032 31512 31000 -30999 0
-32056 31032 32024 31000 -30999 0
-32152 31128 32024 31000 -30999 0
-31000 31512 0
-32536 31512 32024 31000 -30999 0
-64280 31512 63768 31000 -30999 0
-31000 32024 0
-64792 32024 63768 31000 -30999 0
-31004 31516 0
-31004 32028 0
-31016 31011 0
-31020 31011 0
-31028 31011 0
-31076 31011 0
-31140 31011 0
-31032 31544 0
-64312 31544 63800 31032 -31031 0
-31032 32056 0
-64824 32056 63800 31032 -31031 0
-31076 31043 0
-31172 31043 0
-64336 31568 63824 31056 -31055 0
-64848 32080 63824 31056 -31055 0
-31076 31588 0
-31076 32100 0
-31108 31140 0
-31172 31107 0
-31108 31172 0
-31120 31632 0
-31120 32144 0
-31128 32152 0
-31140 31144 0
-32168 31144 32164 31140 -31139 0
-31140 31652 0
-31140 32164 0
-64936 32168 63912 31144 -31143 0
-31144 63912 0
-31688 31176 31684 31172 -31171 0
-32200 31176 32196 31172 -31171 0
-31172 31684 0
-64452 31684 63940 31172 -31171 0
-31172 32196 0
-64964 32196 63940 31172 -31171 0
-31496 31240 31492 31236 -31235 0
-32264 31240 32260 31236 -31235 0
-31235 31243 0
-31372 31244 31364 31236 -31235 0
-31500 31244 31492 31236 -31235 0
-32268 31244 32260 31236 -31235 0
-31235 31267 0
-64036 31268 64004 31236 -31235 0
-31300 31235 0
-64068 31300 64004 31236 -31235 0
-31235 31363 0
-31364 31235 0
-64260 31492 64004 31236 -31235 0
-65028 32260 64004 31236 -31235 0
-31248 31239 0
-31256 31239 0
-31240 31256 0
-32280 31256 32264 31240 -31239 0
-64024 31256 64008 31240 -31239 0
-31496 31239 0
-32520 31496 32264 31240 -31239 0
-64008 31239 0
-31248 31243 0
-31244 31248 0
-31504 31248 31500 31244 -31243 0
-32272 31248 32268 31244 -31243 0
-31260 31243 0
-31276 31243 0
-64044 31276 64012 31244 -31243 0
-31372 31243 0
-64012 31243 0
-32400 31376 32272 31248 -31247 0
-31248 31504 0
-32528 31504 32272 31248 -31247 0
-31248 32272 0
-65040 32272 64016 31248 -31247 0
-31248 64016 0
-31256 31251 0
-31252 31256 0
-31260 31251 0
-31284 31251 0
-65044 32276 64020 31252 -31251 0
-64020 31251 0
-32312 31288 32280 31256 -31255 0
-31256 31512 0
-31256 32280 0
-65048 32280 64024 31256 -31255 0
-31260 32284 0
-31272 31267 0
-31276 31267 0
-31284 31267 0
-31332 31267 0
-31396 31267 0
-31268 31396 0
-64164 31396 64036 31268 -31267 0
-31332 31299 0
-31428 31299 0
-31300 31428 0
-64196 31428 64068 31300 -31299 0
-64112 31344 64080 31312 -31311 0
-31332 31588 0
-31332 32356 0
-31364 31396 0
-31428 31363 0
-31364 31428 0
-31376 32400 0
-65168 32400 64144 31376 -31375 0
-31396 31652 0
-31396 32420 0
-64176 31408 64168 31400 -31399 0
-31400 64168 0
-31428 31684 0
-31428 32452 0
-65220 32452 64196 31428 -31427 0
-31492 31496 0
-31624 31496 31620 31492 -31491 0
-31492 31500 0
-31540 31508 31524 31492 -31491 0
-31492 31524 0
-31492 31556 0
-31496 31504 0
-31632 31504 31624 31496 -31495 0
-31496 31512 0
-31500 31516 0
-64400 31632 64272 31504 -31503 0
-31504 64272 0
-31508 31512 0
-31544 31512 31540 31508 -31507 0
-31524 31588 0
-31524 31652 0
-31556 31684 0
-31620 31652 0
-31620 31684 0
-64456 31688 64452 31684 -31683 0
-31747 31755 0
-31884 31756 31876 31748 -31747 0
-32012 31756 32004 31748 -31747 0
-32268 31756 32260 31748 -31747 0
-31747 31779 0
-64548 31780 64516 31748 -31747 0
-31812 31747 0
-64580 31812 64516 31748 -31747 0
-31747 31875 0
-31760 31751 0
-31768 31751 0
-31752 31768 0
-32280 31768 32264 31752 -31751 0
-64536 31768 64520 31752 -31751 0
-64520 31751 0
-31760 31755 0
-31756 31760 0
-32016 31760 32012 31756 -31755 0
-32272 31760 32268 31756 -31755 0
-31772 31755 0
-64556 31788 64524 31756 -31755 0
-31884 31755 0
-64524 31755 0
-32336 31824 32272 31760 -31759 0
-31760 32016 0
-32528 32016 32272 31760 -31759 0
-31760 32272 0
-31760 64528 0
-31768 31763 0
-31772 31763 0
-31796 31763 0
-64532 31763 0
-31768 32024 0
-31768 32280 0
-31784 31779 0
-31788 31779 0
-31796 31779 0
-31844 31779 0
-31908 31779 0
-31780 31908 0
-64676 31908 64548 31780 -31779 0
-31816 31811 0
-31844 31811 0
-31940 31811 0
-31812 31940 0
-64708 31940 64580 31812 -31811 0
-65104 32336 64592 31824 -31823 0
-31824 64592 0
-31844 32100 0
-31844 32356 0
-31876 31908 0
-31940 31875 0
-31876 31940 0
-31908 32164 0
-31908 32420 0
-31940 32196 0
-31940 32452 0
-32004 32008 0
-32136 32008 32132 32004 -32003 0
-32052 32020 32036 32004 -32003 0
-32004 32036 0
-64804 32036 64772 32004 -32003 0
-32004 32068 0
-32008 32016 0
-32144 32016 32136 32008 -32007 0
-32008 32024 0
-32152 32024 32136 32008 -32007 0
-32012 32016 0
-64912 32144 64784 32016 -32015 0
-32016 64784 0
-32020 32024 0
-32056 32024 32052 32020 -32019 0
-64920 32152 64792 32024 -32023 0
-32036 32100 0
-32036 32164 0
-32068 32196 0
-32132 32164 0
-32132 32196 0
-32164 64932 0
-64968 32200 64964 32196 -32195 0
-32260 32264 0
-32392 32264 32388 32260 -32259 0
-32260 32292 0
-65060 32292 65028 32260 -32259 0
-32260 32324 0
-32264 32272 0
-32400 32272 32392 32264 -32263 0
-32272 65040 0
-32276 32280 0
-65080 32312 65048 32280 -32279 0
-32292 32356 0
-32292 32420 0
-32324 32452 0
-32388 32420 0
-32388 32452 0
-32420 65188 0
-38914 34818 36866 32770 -32769 0
-43010 34818 40962 32770 -32769 0
-51202 34818 49154 32770 -32769 0
-45058 36866 40962 32770 -32769 0
-53250 36866 49154 32770 -32769 0
-57346 40962 49154 32770 -32769 0
-32783 32774 0
-45063 36871 40967 32775 -32774 0
-32800 32783 0
-32800 32795 0
-51228 34844 49180 32796 -32795 0
-53276 36892 49180 32796 -32795 0
-32815 32806 0
-32815 32810 0
-32832 32815 0
-32823 32818 0
-32832 32823 0
-32867 32834 0
-38979 34883 36931 32835 -32834 0
-32847 32838 0
-32847 32842 0
-32864 32847 0
-32855 32850 0
-32864 32855 0
-32996 32867 0
-32911 32902 0
-32911 32906 0
-32928 32911 0
-32919 32914 0
-32928 32919 0
-33024 33007 0
-33024 33015 0
-33024 33019 0
-33039 33030 0
-33039 33034 0
-33056 33039 0
-33047 33042 0
-33056 33047 0
-33123 33058 0
-33123 33090 0
-33252 33123 0
-33187 33154 0
-33252 33187 0
-33295 33286 0
-33295 33290 0
-33312 33295 0
-33303 33298 0
-33312 33303 0
-33379 33314 0
-33379 33346 0
-33508 33379 0
-33443 33410 0
-33508 33443 0
-33807 33798 0
-33807 33802 0
-33824 33807 0
-33815 33810 0
-33824 33815 0
-33891 33826 0
-33891 33858 0
-34020 33891 0
-33955 33922 0
-34020 33955 0
-34592 34575 0
-34592 34583 0
-34592 34587 0
-34788 34659 0
-34788 34723 0
-34788 34755 0
-34823 34818 0
-34883 34818 0
-34947 34818 0
-34818 38914 0
-38915 34818 0
-47106 38914 43010 34818 -34817 0
-47107 38915 43011 34819 -34818 0
-55298 38914 51202 34818 -34817 0
-55299 38915 51203 34819 -34818 0
-34818 43010 0
-43011 34818 0
-59394 43010 51202 34818 -34817 0
-34818 51202 0
-51203 34818 0
-34840 34823 0
-55303 38919 51207 34823 -34822 0
-59399 43015 51207 34823 -34822 0
-51208 34823 0
-34827 34859 0
-51243 34859 51211 34827 -34826 0
-34827 38923 0
-59416 43032 51224 34840 -34839 0
-34844 38940 0
-34859 38955 0
-55339 38955 51243 34859 -34858 0
-34883 34891 0
-51275 34891 51267 34883 -34882 0
-38980 34883 0
-34883 51267 0
-51268 34883 0
-34891 38987 0
-55371 38987 51275 34891 -34890 0
-39044 34947 0
-34947 51331 0
-36871 36866 0
-36875 36866 0
-36931 36866 0
-36995 36866 0
-39043 36995 38915 36867 -36866 0
-53379 36995 53251 36867 -36866 0
-36866 38914 0
-38915 36866 0
-47106 38914 45058 36866 -36865 0
-55298 38914 53250 36866 -36865 0
-36866 45058 0
-45059 36866 0
-61442 45058 53250 36866 -36865 0
-36866 53250 0
-36871 36903 0
-36871 38919 0
-38920 36871 0
-47111 38919 45063 36871 -36870 0
-36892 36875 0
-36875 36907 0
-53291 36907 53259 36875 -36874 0
-36883 37011 0
-53395 37011 53267 36883 -36882 0
-36888 36920 0
-36888 36952 0
-53400 37016 53272 36888 -36887 0
-36892 38940 0
-36903 38951 0
-36907 38955 0
-55339 38955 53291 36907 -36906 0
-36920 37048 0
-47171 38979 45123 36931 -36930 0
-36952 37080 0
-36995 39043 0
-39044 36995 0
-47235 39043 45187 36995 -36994 0
-55427 39043 53379 36995 -36994 0
-55428 39044 53380 36996 -36995 0
-36995 45187 0
-37011 39059 0
-55443 39059 53395 37011 -37010 0
-37016 37048 0
-53432 37048 53400 37016 -37015 0
-37016 37080 0
-53464 37080 53400 37016 -37015 0
-37028 37032 0
-53420 37036 53412 37028 -37027 0
-37032 37040 0
-37036 37040 0
-53424 37040 53420 37036 -37035 0
-37040 39088 0
-55472 39088 53424 37040 -37039 0
-37048 39096 0
-55480 39096 53432 37048 -37047 0
-37080 39128 0
-55512 39128 53464 37080 -37079 0
-38919 38914 0
-38920 38915 0
-38927 38919 38923 38915 -38914 0
-38951 38919 38947 38915 -38914 0
-47111 38919 47107 38915 -38914 0
-38915 38923 0
-38924 38915 0
-38939 38923 38931 38915 -38914 0
-47115 38923 47107 38915 -38914 0
-38931 38914 0
-38932 38915 0
-47123 38931 47107 38915 -38914 0
-55315 38931 55299 38915 -38914 0
-38947 38914 0
-38948 38915 0
-38980 38915 0
-47171 38979 47107 38915 -38914 0
-55363 38979 55299 38915 -38914 0
-39043 38914 0
-38915 39043 0
-39044 38915 0
-47235 39043 47107 38915 -38914 0
-55427 39043 55299 38915 -38914 0
-39427 38914 0
-47107 38914 0
-38915 47107 0
-63491 47107 55299 38915 -38914 0
-55300 38915 0
-38944 38928 38936 38920 -38919 0
-55312 38928 55304 38920 -38919 0
-47128 38936 47112 38920 -38919 0
-55320 38936 55304 38920 -38919 0
-38952 38919 0
-47143 38951 47111 38919 -38918 0
-47144 38952 47112 38920 -38919 0
-39048 38919 0
-47239 39047 47111 38919 -38918 0
-38919 47111 0
-38920 47112 0
-63496 47112 55304 38920 -38919 0
-55304 38919 0
-38928 38923 0
-55312 38928 55308 38924 -38923 0
-38924 38940 0
-39068 38940 39052 38924 -38923 0
-47132 38940 47116 38924 -38923 0
-55324 38940 55308 38924 -38923 0
-38923 38955 0
-47147 38955 47115 38923 -38922 0
-55339 38955 55307 38923 -38922 0
-38988 38923 0
-38924 39052 0
-55436 39052 55308 38924 -38923 0
-55308 38923 0
-38928 47120 0
-55324 38940 55316 38932 -38931 0
-55348 38964 55316 38932 -38931 0
-55380 38996 55316 38932 -38931 0
-38932 39060 0
-55444 39060 55316 38932 -38931 0
-38931 39187 0
-38931 39443 0
-38931 39955 0
-47124 38931 0
-38936 38968 0
-38936 39000 0
-55448 39064 55320 38936 -38935 0
-38936 39192 0
-38936 39448 0
-38940 38972 0
-47164 38972 47132 38940 -38939 0
-38940 47132 0
-39080 38952 39076 38948 -38947 0
-39012 38947 0
-39076 38947 0
-38952 38968 0
-47160 38968 47144 38952 -38951 0
-39080 38951 0
-38951 47143 0
-38955 47147 0
-63531 47147 55339 38955 -38954 0
-38955 55339 0
-38964 38968 0
-38972 38963 0
-38963 47155 0
-38968 39096 0
-38972 39036 0
-47228 39036 47164 38972 -38971 0
-38972 39100 0
-47292 39100 47164 38972 -38971 0
-38980 38984 0
-38979 38987 0
-55372 38988 55364 38980 -38979 0
-55396 39012 55364 38980 -38979 0
-55492 39108 55364 38980 -38979 0
-38984 47176 0
-38988 38992 0
-55404 39020 55372 38988 -38987 0
-38987 47179 0
-63563 47179 55371 38987 -38986 0
-55408 39024 55376 38992 -38991 0
-38992 47184 0
-38996 39004 0
-55512 39128 55384 39000 -38999 0
-39000 47192 0
-39004 39036 0
-39164 39036 39132 39004 -39003 0
-39004 39132 0
-47324 39132 47196 39004 -39003 0
-39012 39020 0
-39012 47204 0
-39020 39024 0
-39020 39036 0
-39024 47216 0
-39036 47228 0
-39036 55420 0
-39043 39047 0
-39048 39043 0
-55431 39047 55427 39043 -39042 0
-39052 39043 0
-39043 39059 0
-39060 39043 0
-39044 39060 0
-47251 39059 47235 39043 -39042 0
-47268 39076 47236 39044 -39043 0
-55460 39076 55428 39044 -39043 0
-55492 39108 55428 39044 -39043 0
-39043 47235 0
-63619 47235 55427 39043 -39042 0
-39043 55427 0
-39096 39064 39080 39048 -39047 0
-55448 39064 55432 39048 -39047 0
-47272 39080 47240 39048 -39047 0
-55464 39080 55432 39048 -39047 0
-39048 55432 0
-39052 47244 0
-39059 47251 0
-39060 47252 0
-63635 47251 55443 39059 -39058 0
-39059 55443 0
-39064 39096 0
-55480 39096 55448 39064 -39063 0
-39064 39128 0
-39064 47256 0
-39068 39100 0
-39164 39100 39132 39068 -39067 0
-39088 39080 39084 39076 -39075 0
-39076 39084 0
-39076 39332 0
-39076 39588 0
-39076 47268 0
-39080 39088 0
-39080 39096 0
-55480 39096 55464 39080 -39079 0
-39080 47272 0
-39080 55464 0
-39104 39088 39100 39084 -39083 0
-39084 39100 0
-39088 47280 0
-63664 47280 55472 39088 -39087 0
-39104 39096 39100 39092 -39091 0
-39092 39100 0
-39096 47288 0
-63672 47288 55480 39096 -39095 0
-39096 55480 0
-39100 55484 0
-39108 47300 0
-39128 47320 0
-63704 47320 55512 39128 -39127 0
-39132 47324 0
-39132 55516 0
-39187 55571 0
-39192 39704 0
-39192 40216 0
-39332 40356 0
-40452 39427 0
-39443 55827 0
-39448 40472 0
-39588 40612 0
-39704 56088 0
-39955 56339 0
-40216 56600 0
-40356 48548 0
-40388 48580 0
-64964 48580 56772 40388 -40387 0
-40472 56856 0
-40612 48804 0
-40967 40962 0
-40971 40962 0
-40979 40962 0
-40995 40962 0
-41027 40962 0
-41091 40962 0
-40962 43010 0
-43011 40962 0
-47106 43010 45058 40962 -40961 0
-59394 43010 57346 40962 -40961 0
-40962 45058 0
-45059 40962 0
-61442 45058 57346 40962 -40961 0
-40962 57346 0
-57347 40962 0
-40984 40967 0
-43016 40967 0
-47111 43015 45063 40967 -40966 0
-45064 40967 0
-61447 45063 57351 40967 -40966 0
-40988 40971 0
-45068 40971 0
-45076 40979 0
-61464 45080 57368 40984 -40983 0
-59420 43036 57372 40988 -40987 0
-41060 40995 0
-41124 40995 0
-43076 41027 0
-47171 43075 45123 41027 -41026 0
-45124 41027 0
-47235 43139 45187 41091 -41090 0
-45188 41091 0
-61571 45187 57475 41091 -41090 0
-61604 45220 57508 41124 -41123 0
-41156 45252 0
-47876 43780 45828 41732 -41731 0
-41732 45828 0
-43015 43010 0
-43011 43015 0
-43016 43011 0
-43023 43015 43019 43011 -43010 0
-59399 43015 59395 43011 -43010 0
-43019 43010 0
-43011 43019 0
-43020 43011 0
-43035 43019 43027 43011 -43010 0
-43051 43019 43043 43011 -43010 0
-47115 43019 47107 43011 -43010 0
-59403 43019 59395 43011 -43010 0
-43027 43010 0
-43155 43027 43139 43011 -43010 0
-47123 43027 47107 43011 -43010 0
-43043 43010 0
-43044 43011 0
-43171 43043 43139 43011 -43010 0
-47139 43043 47107 43011 -43010 0
-43075 43010 0
-43076 43011 0
-47171 43075 47107 43011 -43010 0
-43139 43010 0
-43140 43011 0
-47235 43139 47107 43011 -43010 0
-59523 43139 59395 43011 -43010 0
-43267 43010 0
-43523 43010 0
-44035 43010 0
-47107 43010 0
-43011 47107 0
-47108 43011 0
-63491 47107 59395 43011 -43010 0
-59395 43010 0
-59396 43011 0
-43024 43015 0
-43040 43024 43032 43016 -43015 0
-43032 43015 0
-47128 43032 47112 43016 -43015 0
-43015 43079 0
-43016 47112 0
-63496 47112 59400 43016 -43015 0
-59400 43015 0
-43024 43019 0
-43036 43019 0
-43115 43051 43083 43019 -43018 0
-43019 43083 0
-43211 43083 43147 43019 -43018 0
-47180 43084 47116 43020 -43019 0
-59467 43083 59403 43019 -43018 0
-59468 43084 59404 43020 -43019 0
-43148 43019 0
-63500 47116 59404 43020 -43019 0
-59404 43019 0
-47152 43056 47120 43024 -43023 0
-43024 43152 0
-43036 43027 0
-43027 43155 0
-43156 43027 0
-43027 43283 0
-43027 43539 0
-43027 44051 0
-47124 43027 0
-43027 59411 0
-43032 43064 0
-43032 43096 0
-59544 43160 59416 43032 -43031 0
-43032 43288 0
-43032 43544 0
-43032 59416 0
-59484 43100 59420 43036 -43035 0
-43036 47132 0
-63516 47132 59420 43036 -43035 0
-43043 43047 0
-43043 43051 0
-43043 43059 0
-43108 43043 0
-47204 43108 47140 43044 -43043 0
-43172 43043 0
-43043 43299 0
-43043 43555 0
-43043 44067 0
-43047 59431 0
-43051 59435 0
-43056 43184 0
-43059 59443 0
-43064 43192 0
-43080 43075 0
-43076 43080 0
-43087 43079 43083 43075 -43074 0
-43075 43083 0
-43084 43075 0
-43099 43083 43091 43075 -43074 0
-43075 43091 0
-43108 43075 0
-43236 43108 43204 43076 -43075 0
-59588 43204 59460 43076 -43075 0
-43075 43331 0
-43075 43587 0
-43075 44099 0
-47172 43075 0
-63556 47172 59460 43076 -43075 0
-43075 59459 0
-59460 43075 0
-43104 43088 43096 43080 -43079 0
-59592 43208 59464 43080 -43079 0
-43080 47176 0
-43088 43083 0
-43100 43083 0
-43084 43100 0
-43212 43083 0
-43083 47179 0
-63563 47179 59467 43083 -43082 0
-43083 59467 0
-63568 47184 59472 43088 -43087 0
-43124 43091 0
-43091 47187 0
-43091 59475 0
-43096 43128 0
-43096 43224 0
-47320 43224 47192 43096 -43095 0
-43096 47192 0
-43100 43132 0
-43260 43132 43228 43100 -43099 0
-43100 43228 0
-47324 43228 47196 43100 -43099 0
-43108 43112 0
-43108 43116 0
-59508 43124 59492 43108 -43107 0
-43108 47204 0
-43108 59492 0
-43112 43120 0
-43112 43128 0
-43116 43132 0
-43120 47216 0
-63600 47216 59504 43120 -43119 0
-43120 59504 0
-43128 59512 0
-43132 47228 0
-43132 59516 0
-43139 43143 0
-43139 43147 0
-43139 43155 0
-43140 43156 0
-47252 43156 47236 43140 -43139 0
-59556 43172 59524 43140 -43139 0
-43204 43139 0
-43139 43395 0
-43139 43651 0
-43139 44163 0
-43139 47235 0
-43139 59523 0
-43143 59527 0
-43228 43164 43212 43148 -43147 0
-43244 43180 43212 43148 -43147 0
-43212 43147 0
-43147 47243 0
-43147 59531 0
-47280 43184 47248 43152 -43151 0
-43152 47248 0
-43160 43155 0
-43156 47252 0
-43155 59539 0
-43164 43196 0
-59572 43188 59556 43172 -43171 0
-43172 47268 0
-43180 43184 0
-43184 59568 0
-43188 47284 0
-43192 59576 0
-43196 59580 0
-43204 43208 0
-43228 43212 43220 43204 -43203 0
-43208 43216 0
-43208 43224 0
-43212 47308 0
-43216 47312 0
-43220 43224 0
-43232 43224 43228 43220 -43219 0
-43224 59608 0
-43228 47324 0
-43228 59612 0
-43780 43267 0
-44292 43267 0
-43283 59667 0
-43288 43800 0
-43288 44312 0
-43299 59683 0
-43331 59715 0
-43395 59779 0
-44548 43523 0
-43539 59923 0
-43544 44568 0
-43555 59939 0
-43587 59971 0
-43651 60035 0
-43800 60184 0
-44051 60435 0
-44067 60451 0
-44099 60483 0
-44163 60547 0
-44312 60696 0
-44568 60952 0
-45063 45058 0
-45059 45063 0
-45064 45059 0
-45071 45063 45067 45059 -45058 0
-45079 45063 45075 45059 -45058 0
-45095 45063 45091 45059 -45058 0
-45191 45063 45187 45059 -45058 0
-47111 45063 47107 45059 -45058 0
-61447 45063 61443 45059 -45058 0
-45067 45058 0
-45059 45067 0
-45068 45059 0
-45083 45067 45075 45059 -45058 0
-45099 45067 45091 45059 -45058 0
-47115 45067 47107 45059 -45058 0
-61451 45067 61443 45059 -45058 0
-45075 45058 0
-45059 45075 0
-45076 45059 0
-61459 45075 61443 45059 -45058 0
-45091 45058 0
-45219 45091 45187 45059 -45058 0
-45123 45058 0
-45124 45059 0
-45251 45123 45187 45059 -45058 0
-47171 45123 47107 45059 -45058 0
-61507 45123 61443 45059 -45058 0
-45187 45058 0
-45059 45187 0
-45188 45059 0
-45443 45187 45315 45059 -45058 0
-45699 45187 45571 45059 -45058 0
-46211 45187 46083 45059 -45058 0
-47235 45187 47107 45059 -45058 0
-61571 45187 61443 45059 -45058 0
-45315 45058 0
-47107 45058 0
-45059 47107 0
-47108 45059 0
-63491 47107 61443 45059 -45058 0
-61443 45058 0
-45059 61443 0
-61444 45059 0
-45072 45063 0
-45088 45072 45080 45064 -45063 0
-45104 45072 45096 45064 -45063 0
-45080 45063 0
-45064 45080 0
-61464 45080 61448 45064 -45063 0
-45063 45095 0
-45160 45096 45128 45064 -45063 0
-45063 45127 0
-45063 45191 0
-47240 45192 47112 45064 -45063 0
-45063 45319 0
-45063 45575 0
-45063 46087 0
-45063 47111 0
-47112 45063 0
-45064 47112 0
-63496 47112 61448 45064 -45063 0
-45063 61447 0
-61456 45072 61452 45068 -45067 0
-45084 45067 0
-45212 45084 45196 45068 -45067 0
-45067 45099 0
-61483 45099 61451 45067 -45066 0
-45067 45131 0
-61515 45131 61451 45067 -45066 0
-45067 45195 0
-61580 45196 61452 45068 -45067 0
-45067 45323 0
-45067 45579 0
-45067 46091 0
-45067 47115 0
-45067 61451 0
-45072 45104 0
-45168 45104 45136 45072 -45071 0
-61488 45104 61456 45072 -45071 0
-45072 45136 0
-61584 45200 61456 45072 -45071 0
-45072 45328 0
-45072 45584 0
-45072 47120 0
-45072 61456 0
-45080 45075 0
-45088 45080 45084 45076 -45075 0
-45084 45075 0
-45108 45075 0
-45235 45107 45203 45075 -45074 0
-45075 45203 0
-45459 45203 45331 45075 -45074 0
-45715 45203 45587 45075 -45074 0
-46227 45203 46099 45075 -45074 0
-61587 45203 61459 45075 -45074 0
-45075 46099 0
-45075 61459 0
-61460 45075 0
-45080 45112 0
-45176 45112 45144 45080 -45079 0
-45240 45112 45208 45080 -45079 0
-45080 45144 0
-61528 45144 61464 45080 -45079 0
-63512 47128 61464 45080 -45079 0
-45084 45116 0
-45244 45116 45212 45084 -45083 0
-61596 45212 61468 45084 -45083 0
-45084 47132 0
-63516 47132 61468 45084 -45083 0
-45084 61468 0
-45091 45095 0
-45096 45091 0
-45091 45099 0
-47147 45099 47139 45091 -45090 0
-45091 45107 0
-45156 45091 0
-45220 45091 0
-45091 45347 0
-45091 45603 0
-45091 46115 0
-45091 47139 0
-45091 61475 0
-61476 45091 0
-45112 45095 0
-45095 47143 0
-45095 61479 0
-45100 45104 0
-45120 45104 45116 45100 -45099 0
-45099 47147 0
-63531 47147 61483 45099 -45098 0
-45099 61483 0
-45104 45168 0
-45296 45168 45232 45104 -45103 0
-45104 45232 0
-45172 45107 0
-45300 45172 45236 45108 -45107 0
-45236 45107 0
-45107 47155 0
-45107 61491 0
-45112 45176 0
-45304 45176 45240 45112 -45111 0
-45112 45240 0
-45116 45180 0
-45308 45180 45244 45116 -45115 0
-45123 45127 0
-45124 45128 0
-47176 45128 47172 45124 -45123 0
-45123 45131 0
-45123 45139 0
-45284 45156 45252 45124 -45123 0
-45252 45123 0
-61636 45252 61508 45124 -45123 0
-45123 45379 0
-45123 45635 0
-45123 46147 0
-45123 47171 0
-47172 45123 0
-45123 61507 0
-45168 45136 45160 45128 -45127 0
-45128 45144 0
-61544 45160 61512 45128 -45127 0
-45127 47175 0
-45128 47176 0
-45136 45131 0
-45131 47179 0
-63563 47179 61515 45131 -45130 0
-45131 61515 0
-61648 45264 61520 45136 -45135 0
-45136 47184 0
-45144 45139 0
-45172 45139 0
-45139 47187 0
-45139 61523 0
-45144 45176 0
-45304 45176 45272 45144 -45143 0
-45144 45272 0
-61656 45272 61528 45144 -45143 0
-45144 47192 0
-63576 47192 61528 45144 -45143 0
-45156 45160 0
-45176 45160 45172 45156 -45155 0
-61544 45160 61540 45156 -45155 0
-45156 45164 0
-45156 45412 0
-45156 45668 0
-45156 47204 0
-45160 45168 0
-45184 45168 45176 45160 -45159 0
-61552 45168 61544 45160 -45159 0
-45160 45176 0
-63592 47208 61544 45160 -45159 0
-45164 45168 0
-61552 45168 61548 45164 -45163 0
-45164 45180 0
-45168 47216 0
-63600 47216 61552 45168 -45167 0
-45168 61552 0
-45172 45180 0
-45176 47224 0
-45176 61560 0
-45180 47228 0
-63612 47228 61564 45180 -45179 0
-45180 61564 0
-45187 45191 0
-45192 45187 0
-45207 45191 45203 45187 -45186 0
-47239 45191 47235 45187 -45186 0
-45187 45195 0
-45196 45187 0
-45188 45196 0
-45187 45203 0
-45188 45204 0
-45236 45204 45220 45188 -45187 0
-61587 45203 61571 45187 -45186 0
-45284 45220 45252 45188 -45187 0
-45252 45187 0
-61636 45252 61572 45188 -45187 0
-45187 45443 0
-45187 45699 0
-45187 46211 0
-45187 47235 0
-47236 45187 0
-63619 47235 61571 45187 -45186 0
-63620 47236 61572 45188 -45187 0
-45187 61571 0
-61572 45187 0
-45216 45200 45208 45192 -45191 0
-45224 45191 0
-45191 47239 0
-45196 45200 0
-45212 45195 0
-47308 45260 47244 45196 -45195 0
-45195 47243 0
-45196 47244 0
-45195 61579 0
-45200 45232 0
-45296 45232 45264 45200 -45199 0
-61616 45232 61584 45200 -45199 0
-45200 45264 0
-45208 45203 0
-45212 45203 0
-45236 45203 0
-61620 45236 61588 45204 -45203 0
-47507 45459 47251 45203 -45202 0
-47763 45715 47251 45203 -45202 0
-48275 46227 47251 45203 -45202 0
-45203 47251 0
-45204 47252 0
-63635 47251 61587 45203 -45202 0
-45203 61587 0
-47288 45240 47256 45208 -45207 0
-45208 45272 0
-47320 45272 47256 45208 -45207 0
-61656 45272 61592 45208 -45207 0
-45212 45276 0
-47324 45276 47260 45212 -45211 0
-45220 45224 0
-45232 45224 45228 45220 -45219 0
-45240 45224 45236 45220 -45219 0
-61608 45224 61604 45220 -45219 0
-45220 45228 0
-45740 45228 45732 45220 -45219 0
-46252 45228 46244 45220 -45219 0
-45492 45236 45476 45220 -45219 0
-45220 47268 0
-45220 61604 0
-45224 45232 0
-45248 45232 45240 45224 -45223 0
-45224 45240 0
-61624 45240 61608 45224 -45223 0
-63656 47272 61608 45224 -45223 0
-45228 45232 0
-45248 45232 45244 45228 -45227 0
-61616 45232 61612 45228 -45227 0
-45228 45244 0
-45756 45244 45740 45228 -45227 0
-46268 45244 46252 45228 -45227 0
-45232 47280 0
-63664 47280 61616 45232 -45231 0
-45232 61616 0
-45236 45240 0
-61624 45240 61620 45236 -45235 0
-45236 45244 0
-47540 45492 47284 45236 -45235 0
-45240 47288 0
-63672 47288 61624 45240 -45239 0
-45240 61624 0
-47804 45756 47292 45244 -45243 0
-48316 46268 47292 45244 -45243 0
-45244 47292 0
-45244 61628 0
-45252 45256 0
-61640 45256 61636 45252 -45251 0
-45252 45260 0
-45252 47300 0
-45252 61636 0
-45256 45272 0
-61656 45272 61640 45256 -45255 0
-45256 47304 0
-45260 45276 0
-45264 47312 0
-45264 61648 0
-45272 47320 0
-63704 47320 61656 45272 -45271 0
-45272 61656 0
-45276 47324 0
-45276 61660 0
-45315 45319 0
-45828 45315 0
-46340 45315 0
-45319 47367 0
-45319 61703 0
-45323 61707 0
-45328 45840 0
-45328 46352 0
-45331 61715 0
-45347 47395 0
-45347 61731 0
-45379 47427 0
-45379 61763 0
-45412 45924 0
-45412 46436 0
-45476 45443 0
-45443 47491 0
-45443 61827 0
-45571 45575 0
-45575 47623 0
-45575 61959 0
-45579 61963 0
-45584 46608 0
-45587 61971 0
-45603 47651 0
-45603 61987 0
-45635 47683 0
-45635 62019 0
-45668 46692 0
-45732 45699 0
-45699 47747 0
-45699 62083 0
-64260 47876 62212 45828 -45827 0
-45828 62212 0
-45840 62224 0
-45924 47972 0
-45924 62308 0
-46083 46087 0
-46087 48135 0
-46087 62471 0
-46091 62475 0
-46099 48147 0
-46099 62483 0
-46115 48163 0
-46115 62499 0
-46147 48195 0
-46147 62531 0
-46244 46211 0
-46211 48259 0
-46211 62595 0
-46352 62736 0
-46436 48484 0
-46436 62820 0
-46608 62992 0
-46692 48740 0
-46692 63076 0
-47107 47111 0
-47112 47107 0
-47108 47112 0
-47119 47111 47115 47107 -47106 0
-47120 47112 47116 47108 -47107 0
-47127 47111 47123 47107 -47106 0
-47128 47112 47124 47108 -47107 0
-47143 47111 47139 47107 -47106 0
-47175 47111 47171 47107 -47106 0
-47176 47112 47172 47108 -47107 0
-47239 47111 47235 47107 -47106 0
-47240 47112 47236 47108 -47107 0
-47367 47111 47363 47107 -47106 0
-47623 47111 47619 47107 -47106 0
-48135 47111 48131 47107 -47106 0
-63495 47111 63491 47107 -47106 0
-63496 47112 63492 47108 -47107 0
-47107 47115 0
-47116 47107 0
-47108 47116 0
-47131 47115 47123 47107 -47106 0
-47132 47116 47124 47108 -47107 0
-47147 47115 47139 47107 -47106 0
-47179 47115 47171 47107 -47106 0
-47243 47115 47235 47107 -47106 0
-47371 47115 47363 47107 -47106 0
-48139 47115 48131 47107 -47106 0
-63499 47115 63491 47107 -47106 0
-63500 47116 63492 47108 -47107 0
-47107 47123 0
-47124 47107 0
-47155 47123 47139 47107 -47106 0
-47187 47123 47171 47107 -47106 0
-47251 47123 47235 47107 -47106 0
-63507 47123 63491 47107 -47106 0
-63508 47124 63492 47108 -47107 0
-47107 47139 0
-47140 47107 0
-47108 47140 0
-47203 47139 47171 47107 -47106 0
-47267 47139 47235 47107 -47106 0
-47268 47140 47236 47108 -47107 0
-47395 47139 47363 47107 -47106 0
-48163 47139 48131 47107 -47106 0
-63523 47139 63491 47107 -47106 0
-47107 47171 0
-47172 47107 0
-47299 47171 47235 47107 -47106 0
-47300 47172 47236 47108 -47107 0
-47427 47171 47363 47107 -47106 0
-47683 47171 47619 47107 -47106 0
-48195 47171 48131 47107 -47106 0
-63555 47171 63491 47107 -47106 0
-47107 47235 0
-47236 47107 0
-47108 47236 0
-63619 47235 63491 47107 -47106 0
-63620 47236 63492 47108 -47107 0
-47364 47107 0
-47620 47107 0
-48132 47107 0
-47107 63491 0
-63492 47107 0
-47120 47111 0
-47112 47120 0
-47136 47120 47128 47112 -47111 0
-47152 47120 47144 47112 -47111 0
-47184 47120 47176 47112 -47111 0
-63504 47120 63496 47112 -47111 0
-47128 47111 0
-47112 47128 0
-47192 47128 47176 47112 -47111 0
-47256 47128 47240 47112 -47111 0
-63512 47128 63496 47112 -47111 0
-47111 47143 0
-47144 47111 0
-47208 47144 47176 47112 -47111 0
-47272 47144 47240 47112 -47111 0
-63527 47143 63495 47111 -47110 0
-63528 47144 63496 47112 -47111 0
-47111 47175 0
-47176 47111 0
-47304 47176 47240 47112 -47111 0
-63559 47175 63495 47111 -47110 0
-63560 47176 63496 47112 -47111 0
-47111 47239 0
-47240 47111 0
-63623 47239 63495 47111 -47110 0
-63624 47240 63496 47112 -47111 0
-47111 47367 0
-63751 47367 63495 47111 -47110 0
-47111 47623 0
-47624 47111 0
-64007 47623 63495 47111 -47110 0
-47111 48135 0
-64519 48135 63495 47111 -47110 0
-47111 63495 0
-63496 47111 0
-47112 63496 0
-47120 47115 0
-47116 47120 0
-47136 47120 47132 47116 -47115 0
-47152 47120 47148 47116 -47115 0
-47184 47120 47180 47116 -47115 0
-47248 47120 47244 47116 -47115 0
-63504 47120 63500 47116 -47115 0
-47132 47115 0
-47116 47132 0
-47164 47132 47148 47116 -47115 0
-47196 47132 47180 47116 -47115 0
-47260 47132 47244 47116 -47115 0
-63516 47132 63500 47116 -47115 0
-47115 47147 0
-47148 47115 0
-47404 47148 47372 47116 -47115 0
-47660 47148 47628 47116 -47115 0
-63531 47147 63499 47115 -47114 0
-63532 47148 63500 47116 -47115 0
-47115 47179 0
-47180 47115 0
-63563 47179 63499 47115 -47114 0
-63564 47180 63500 47116 -47115 0
-47115 47243 0
-47244 47115 0
-47116 47244 0
-63628 47244 63500 47116 -47115 0
-47115 47371 0
-63755 47371 63499 47115 -47114 0
-47115 47627 0
-47115 48139 0
-64523 48139 63499 47115 -47114 0
-47115 63499 0
-63500 47115 0
-47120 47152 0
-47216 47152 47184 47120 -47119 0
-47408 47152 47376 47120 -47119 0
-47664 47152 47632 47120 -47119 0
-63536 47152 63504 47120 -47119 0
-47120 47184 0
-47312 47184 47248 47120 -47119 0
-47440 47184 47376 47120 -47119 0
-47696 47184 47632 47120 -47119 0
-48208 47184 48144 47120 -47119 0
-63568 47184 63504 47120 -47119 0
-47120 47248 0
-63632 47248 63504 47120 -47119 0
-47120 47376 0
-47120 47632 0
-47120 63504 0
-47128 47123 0
-47124 47128 0
-47136 47128 47132 47124 -47123 0
-47160 47128 47156 47124 -47123 0
-63512 47128 63508 47124 -47123 0
-47132 47123 0
-47124 47132 0
-47164 47132 47156 47124 -47123 0
-47196 47132 47188 47124 -47123 0
-47260 47132 47252 47124 -47123 0
-63516 47132 63508 47124 -47123 0
-47123 47155 0
-47156 47123 0
-63539 47155 63507 47123 -47122 0
-47123 47187 0
-47188 47123 0
-47124 47188 0
-63571 47187 63507 47123 -47122 0
-47123 47251 0
-47252 47123 0
-47124 47252 0
-63636 47252 63508 47124 -47123 0
-47123 47379 0
-47123 47635 0
-47123 48147 0
-47123 63507 0
-63508 47123 0
-47124 63508 0
-47128 47160 0
-47224 47160 47192 47128 -47127 0
-47416 47160 47384 47128 -47127 0
-47672 47160 47640 47128 -47127 0
-48184 47160 48152 47128 -47127 0
-47128 47192 0
-47448 47192 47384 47128 -47127 0
-47704 47192 47640 47128 -47127 0
-48216 47192 48152 47128 -47127 0
-63576 47192 63512 47128 -47127 0
-63640 47256 63512 47128 -47127 0
-47128 47384 0
-63768 47384 63512 47128 -47127 0
-47128 47640 0
-64024 47640 63512 47128 -47127 0
-47132 47164 0
-47228 47164 47196 47132 -47131 0
-47292 47164 47260 47132 -47131 0
-47420 47164 47388 47132 -47131 0
-47676 47164 47644 47132 -47131 0
-63548 47164 63516 47132 -47131 0
-47132 47196 0
-47452 47196 47388 47132 -47131 0
-47708 47196 47644 47132 -47131 0
-63580 47196 63516 47132 -47131 0
-47132 47260 0
-63644 47260 63516 47132 -47131 0
-47132 47388 0
-63772 47388 63516 47132 -47131 0
-47132 47644 0
-64028 47644 63516 47132 -47131 0
-64540 48156 63516 47132 -47131 0
-47132 63516 0
-47139 47143 0
-47144 47139 0
-47140 47144 0
-47152 47144 47148 47140 -47139 0
-47208 47144 47204 47140 -47139 0
-47139 47147 0
-47148 47139 0
-47140 47148 0
-47212 47148 47204 47140 -47139 0
-63532 47148 63524 47140 -47139 0
-47139 47155 0
-47156 47139 0
-47140 47156 0
-47220 47156 47204 47140 -47139 0
-63539 47155 63523 47139 -47138 0
-63540 47156 63524 47140 -47139 0
-47204 47139 0
-47140 47204 0
-47332 47204 47268 47140 -47139 0
-63588 47204 63524 47140 -47139 0
-47268 47139 0
-63652 47268 63524 47140 -47139 0
-47139 47395 0
-47139 47651 0
-47139 48163 0
-47139 63523 0
-63524 47139 0
-47152 47143 0
-47144 47152 0
-47168 47152 47160 47144 -47143 0
-47408 47152 47400 47144 -47143 0
-47664 47152 47656 47144 -47143 0
-48176 47152 48168 47144 -47143 0
-47160 47143 0
-47144 47160 0
-47224 47160 47208 47144 -47143 0
-47416 47160 47400 47144 -47143 0
-47672 47160 47656 47144 -47143 0
-48184 47160 48168 47144 -47143 0
-63544 47160 63528 47144 -47143 0
-63592 47208 63528 47144 -47143 0
-63784 47400 63528 47144 -47143 0
-64040 47656 63528 47144 -47143 0
-64552 48168 63528 47144 -47143 0
-63528 47143 0
-47148 47152 0
-47168 47152 47164 47148 -47147 0
-47216 47152 47212 47148 -47147 0
-47280 47152 47276 47148 -47147 0
-47164 47147 0
-47148 47164 0
-47228 47164 47212 47148 -47147 0
-47292 47164 47276 47148 -47147 0
-47420 47164 47404 47148 -47147 0
-47676 47164 47660 47148 -47147 0
-47212 47147 0
-47468 47212 47404 47148 -47147 0
-47724 47212 47660 47148 -47147 0
-48236 47212 48172 47148 -47147 0
-63596 47212 63532 47148 -47147 0
-47276 47147 0
-47148 47276 0
-63660 47276 63532 47148 -47147 0
-63788 47404 63532 47148 -47147 0
-64044 47660 63532 47148 -47147 0
-64556 48172 63532 47148 -47147 0
-63532 47147 0
-47148 63532 0
-47152 47216 0
-47344 47216 47280 47152 -47151 0
-47152 47280 0
-47536 47280 47408 47152 -47151 0
-47792 47280 47664 47152 -47151 0
-48304 47280 48176 47152 -47151 0
-63792 47408 63536 47152 -47151 0
-64048 47664 63536 47152 -47151 0
-47156 47160 0
-47168 47160 47164 47156 -47155 0
-47288 47160 47284 47156 -47155 0
-63544 47160 63540 47156 -47155 0
-47164 47155 0
-47228 47164 47220 47156 -47155 0
-63548 47164 63540 47156 -47155 0
-47348 47220 47284 47156 -47155 0
-63604 47220 63540 47156 -47155 0
-47284 47155 0
-47156 47284 0
-63668 47284 63540 47156 -47155 0
-63796 47412 63540 47156 -47155 0
-64564 48180 63540 47156 -47155 0
-63540 47155 0
-47156 63540 0
-47160 47224 0
-47160 47288 0
-47544 47288 47416 47160 -47159 0
-47800 47288 47672 47160 -47159 0
-48312 47288 48184 47160 -47159 0
-47164 47228 0
-47356 47228 47292 47164 -47163 0
-47484 47228 47420 47164 -47163 0
-47740 47228 47676 47164 -47163 0
-63612 47228 63548 47164 -47163 0
-47164 47292 0
-47548 47292 47420 47164 -47163 0
-63676 47292 63548 47164 -47163 0
-63804 47420 63548 47164 -47163 0
-64060 47676 63548 47164 -47163 0
-47164 63548 0
-47171 47175 0
-47176 47171 0
-47172 47176 0
-47184 47176 47180 47172 -47171 0
-47192 47176 47188 47172 -47171 0
-47208 47176 47204 47172 -47171 0
-47304 47176 47300 47172 -47171 0
-63559 47175 63555 47171 -47170 0
-63560 47176 63556 47172 -47171 0
-47171 47179 0
-47180 47171 0
-47172 47180 0
-47212 47180 47204 47172 -47171 0
-47308 47180 47300 47172 -47171 0
-63563 47179 63555 47171 -47170 0
-63564 47180 63556 47172 -47171 0
-47171 47187 0
-47188 47171 0
-47172 47188 0
-47220 47188 47204 47172 -47171 0
-63571 47187 63555 47171 -47170 0
-63572 47188 63556 47172 -47171 0
-47204 47171 0
-47172 47204 0
-47332 47204 47300 47172 -47171 0
-63588 47204 63556 47172 -47171 0
-47300 47171 0
-63684 47300 63556 47172 -47171 0
-47171 47427 0
-63811 47427 63555 47171 -47170 0
-47171 47683 0
-64067 47683 63555 47171 -47170 0
-47171 48195 0
-64579 48195 63555 47171 -47170 0
-47171 63555 0
-63556 47171 0
-47172 63556 0
-47176 47184 0
-47312 47184 47304 47176 -47175 0
-63568 47184 63560 47176 -47175 0
-47176 47192 0
-63576 47192 63560 47176 -47175 0
-47176 47208 0
-47336 47208 47304 47176 -47175 0
-63592 47208 63560 47176 -47175 0
-63560 47175 0
-47176 63560 0
-47184 47179 0
-47180 47184 0
-47200 47184 47196 47180 -47179 0
-47216 47184 47212 47180 -47179 0
-63568 47184 63564 47180 -47179 0
-47196 47179 0
-47180 47196 0
-47228 47196 47212 47180 -47179 0
-47324 47196 47308 47180 -47179 0
-63580 47196 63564 47180 -47179 0
-47212 47179 0
-47340 47212 47308 47180 -47179 0
-47468 47212 47436 47180 -47179 0
-48236 47212 48204 47180 -47179 0
-63596 47212 63564 47180 -47179 0
-47180 47308 0
-63692 47308 63564 47180 -47179 0
-63820 47436 63564 47180 -47179 0
-64588 48204 63564 47180 -47179 0
-63564 47179 0
-47180 63564 0
-47184 47216 0
-47472 47216 47440 47184 -47183 0
-47728 47216 47696 47184 -47183 0
-48240 47216 48208 47184 -47183 0
-63600 47216 63568 47184 -47183 0
-47184 47312 0
-47568 47312 47440 47184 -47183 0
-47824 47312 47696 47184 -47183 0
-63696 47312 63568 47184 -47183 0
-47184 63568 0
-47192 47187 0
-47188 47192 0
-63576 47192 63572 47188 -47187 0
-47188 47196 0
-47228 47196 47220 47188 -47187 0
-63580 47196 63572 47188 -47187 0
-63604 47220 63572 47188 -47187 0
-63572 47187 0
-47188 63572 0
-47192 47224 0
-47352 47224 47320 47192 -47191 0
-47480 47224 47448 47192 -47191 0
-47736 47224 47704 47192 -47191 0
-48248 47224 48216 47192 -47191 0
-63608 47224 63576 47192 -47191 0
-47192 47320 0
-47576 47320 47448 47192 -47191 0
-47832 47320 47704 47192 -47191 0
-48344 47320 48216 47192 -47191 0
-63704 47320 63576 47192 -47191 0
-47192 63576 0
-47196 47228 0
-47356 47228 47324 47196 -47195 0
-63612 47228 63580 47196 -47195 0
-47196 47324 0
-47580 47324 47452 47196 -47195 0
-47836 47324 47708 47196 -47195 0
-63708 47324 63580 47196 -47195 0
-47196 63580 0
-47204 47208 0
-47216 47208 47212 47204 -47203 0
-47464 47208 47460 47204 -47203 0
-47720 47208 47716 47204 -47203 0
-48232 47208 48228 47204 -47203 0
-47204 47212 0
-47724 47212 47716 47204 -47203 0
-47476 47220 47460 47204 -47203 0
-47204 47460 0
-63844 47460 63588 47204 -47203 0
-47204 47716 0
-64100 47716 63588 47204 -47203 0
-47204 48228 0
-64612 48228 63588 47204 -47203 0
-47204 63588 0
-47208 47216 0
-47232 47216 47224 47208 -47207 0
-47472 47216 47464 47208 -47207 0
-47728 47216 47720 47208 -47207 0
-48240 47216 48232 47208 -47207 0
-63600 47216 63592 47208 -47207 0
-47208 47224 0
-47212 47216 0
-47232 47216 47228 47212 -47211 0
-47472 47216 47468 47212 -47211 0
-47728 47216 47724 47212 -47211 0
-48240 47216 48236 47212 -47211 0
-47212 47228 0
-47740 47228 47724 47212 -47211 0
-63612 47228 63596 47212 -47211 0
-63852 47468 63596 47212 -47211 0
-64108 47724 63596 47212 -47211 0
-64620 48236 63596 47212 -47211 0
-47212 63596 0
-63856 47472 63600 47216 -47215 0
-64112 47728 63600 47216 -47215 0
-64624 48240 63600 47216 -47215 0
-47216 63600 0
-47220 47224 0
-47232 47224 47228 47220 -47219 0
-47220 47228 0
-47484 47228 47476 47220 -47219 0
-63864 47480 63608 47224 -47223 0
-64120 47736 63608 47224 -47223 0
-64632 48248 63608 47224 -47223 0
-47224 63608 0
-63868 47484 63612 47228 -47227 0
-64124 47740 63612 47228 -47227 0
-47228 63612 0
-47235 47239 0
-47240 47235 0
-47236 47240 0
-47248 47240 47244 47236 -47235 0
-47256 47240 47252 47236 -47235 0
-47272 47240 47268 47236 -47235 0
-47304 47240 47300 47236 -47235 0
-63623 47239 63619 47235 -47234 0
-63624 47240 63620 47236 -47235 0
-47235 47243 0
-47244 47235 0
-47236 47244 0
-47260 47244 47252 47236 -47235 0
-47276 47244 47268 47236 -47235 0
-47308 47244 47300 47236 -47235 0
-63627 47243 63619 47235 -47234 0
-63628 47244 63620 47236 -47235 0
-47235 47251 0
-47252 47235 0
-47236 47252 0
-47284 47252 47268 47236 -47235 0
-63635 47251 63619 47235 -47234 0
-63636 47252 63620 47236 -47235 0
-47268 47235 0
-47236 47268 0
-47332 47268 47300 47236 -47235 0
-63652 47268 63620 47236 -47235 0
-47300 47235 0
-63684 47300 63620 47236 -47235 0
-47235 47491 0
-47235 47747 0
-47235 48259 0
-47235 63619 0
-63620 47235 0
-47240 47248 0
-63632 47248 63624 47240 -47239 0
-47256 47239 0
-47240 47256 0
-47288 47256 47272 47240 -47239 0
-47320 47256 47304 47240 -47239 0
-63640 47256 63624 47240 -47239 0
-47272 47239 0
-47336 47272 47304 47240 -47239 0
-63656 47272 63624 47240 -47239 0
-47240 47304 0
-63688 47304 63624 47240 -47239 0
-63624 47239 0
-47240 63624 0
-47244 47248 0
-47264 47248 47260 47244 -47243 0
-47280 47248 47276 47244 -47243 0
-63632 47248 63628 47244 -47243 0
-47244 47260 0
-47292 47260 47276 47244 -47243 0
-47324 47260 47308 47244 -47243 0
-63644 47260 63628 47244 -47243 0
-47340 47276 47308 47244 -47243 0
-63660 47276 63628 47244 -47243 0
-47308 47243 0
-63628 47243 0
-47244 63628 0
-47248 47280 0
-47344 47280 47312 47248 -47247 0
-63664 47280 63632 47248 -47247 0
-47248 47312 0
-63696 47312 63632 47248 -47247 0
-47248 63632 0
-47256 47251 0
-47252 47256 0
-63640 47256 63636 47252 -47251 0
-47260 47251 0
-47252 47260 0
-47292 47260 47284 47252 -47251 0
-47348 47284 47316 47252 -47251 0
-63668 47284 63636 47252 -47251 0
-63636 47251 0
-47252 63636 0
-47256 47288 0
-63672 47288 63640 47256 -47255 0
-47256 47320 0
-47260 47292 0
-63676 47292 63644 47260 -47259 0
-47260 47324 0
-63708 47324 63644 47260 -47259 0
-47260 63644 0
-47268 47272 0
-47280 47272 47276 47268 -47267 0
-47288 47272 47284 47268 -47267 0
-47528 47272 47524 47268 -47267 0
-47784 47272 47780 47268 -47267 0
-63656 47272 63652 47268 -47267 0
-47268 47276 0
-47292 47276 47284 47268 -47267 0
-47788 47276 47780 47268 -47267 0
-48300 47276 48292 47268 -47267 0
-63660 47276 63652 47268 -47267 0
-47268 47284 0
-47540 47284 47524 47268 -47267 0
-63668 47284 63652 47268 -47267 0
-47268 47524 0
-63908 47524 63652 47268 -47267 0
-47268 47780 0
-47268 63652 0
-47272 47280 0
-47536 47280 47528 47272 -47271 0
-47792 47280 47784 47272 -47271 0
-63664 47280 63656 47272 -47271 0
-47272 47288 0
-47800 47288 47784 47272 -47271 0
-47272 63656 0
-47276 47280 0
-47296 47280 47292 47276 -47275 0
-47276 47292 0
-47804 47292 47788 47276 -47275 0
-48316 47292 48300 47276 -47275 0
-63676 47292 63660 47276 -47275 0
-47276 63660 0
-63920 47536 63664 47280 -47279 0
-64176 47792 63664 47280 -47279 0
-64688 48304 63664 47280 -47279 0
-47280 63664 0
-47284 47288 0
-47296 47288 47292 47284 -47283 0
-47544 47288 47540 47284 -47283 0
-63672 47288 63668 47284 -47283 0
-47284 47292 0
-47548 47292 47540 47284 -47283 0
-63676 47292 63668 47284 -47283 0
-47284 63668 0
-63928 47544 63672 47288 -47287 0
-64184 47800 63672 47288 -47287 0
-64696 48312 63672 47288 -47287 0
-63932 47548 63676 47292 -47291 0
-64188 47804 63676 47292 -47291 0
-64700 48316 63676 47292 -47291 0
-47292 63676 0
-47300 47304 0
-47312 47304 47308 47300 -47299 0
-47560 47304 47556 47300 -47299 0
-47816 47304 47812 47300 -47299 0
-48328 47304 48324 47300 -47299 0
-47300 47308 0
-47564 47308 47556 47300 -47299 0
-47820 47308 47812 47300 -47299 0
-63692 47308 63684 47300 -47299 0
-63700 47316 63684 47300 -47299 0
-47300 47556 0
-47300 47812 0
-64196 47812 63684 47300 -47299 0
-47300 63684 0
-47304 47312 0
-63696 47312 63688 47304 -47303 0
-47304 47320 0
-47576 47320 47560 47304 -47303 0
-47832 47320 47816 47304 -47303 0
-48344 47320 48328 47304 -47303 0
-63704 47320 63688 47304 -47303 0
-47304 63688 0
-47308 47312 0
-47308 47324 0
-47580 47324 47564 47308 -47307 0
-47836 47324 47820 47308 -47307 0
-63948 47564 63692 47308 -47307 0
-64204 47820 63692 47308 -47307 0
-63952 47568 63696 47312 -47311 0
-64208 47824 63696 47312 -47311 0
-47312 63696 0
-47316 47320 0
-47316 47324 0
-63960 47576 63704 47320 -47319 0
-64216 47832 63704 47320 -47319 0
-64728 48344 63704 47320 -47319 0
-63964 47580 63708 47324 -47323 0
-64220 47836 63708 47324 -47323 0
-47324 63708 0
-47363 47367 0
-47363 47371 0
-48404 47380 48388 47364 -47363 0
-47363 47395 0
-47384 47367 0
-47400 47367 0
-47376 47371 0
-47372 47376 0
-47388 47371 0
-47404 47371 0
-47376 47888 0
-47376 48400 0
-47384 47379 0
-47388 47379 0
-47412 47379 0
-47384 47896 0
-47384 48408 0
-47388 47900 0
-47388 48412 0
-47400 47395 0
-47404 47395 0
-47460 47395 0
-47436 47427 0
-47460 47427 0
-47556 47427 0
-47460 47972 0
-47460 48484 0
-47492 47524 0
-47556 47491 0
-47524 48036 0
-47524 48548 0
-47556 48068 0
-47556 48580 0
-47619 47623 0
-47880 47624 47876 47620 -47619 0
-47619 47627 0
-48660 47636 48644 47620 -47619 0
-47640 47623 0
-47896 47640 47880 47624 -47623 0
-47656 47623 0
-47632 47627 0
-47628 47632 0
-47644 47627 0
-47660 47627 0
-47728 47664 47696 47632 -47631 0
-47632 48656 0
-47632 64016 0
-47640 47635 0
-47644 47635 0
-47640 48664 0
-47644 48668 0
-47656 47651 0
-47660 47651 0
-47716 47651 0
-47780 47651 0
-47716 47683 0
-64112 47728 64080 47696 -47695 0
-47716 48740 0
-47812 47747 0
-47780 48804 0
-64176 47792 64168 47784 -47783 0
-47784 64168 0
-47812 48068 0
-47812 48836 0
-47924 47892 47908 47876 -47875 0
-47876 47908 0
-47876 47940 0
-47928 47896 47924 47892 -47891 0
-64312 47928 64280 47896 -47895 0
-47908 47972 0
-47908 48036 0
-47940 48068 0
-48004 48036 0
-48131 48135 0
-48131 48139 0
-48404 48148 48388 48132 -48131 0
-48131 48163 0
-48152 48135 0
-48168 48135 0
-48144 48139 0
-48156 48139 0
-48172 48139 0
-48152 48147 0
-48408 48152 48404 48148 -48147 0
-48156 48147 0
-48180 48147 0
-48168 48163 0
-48172 48163 0
-48228 48163 0
-48292 48163 0
-48204 48195 0
-48228 48195 0
-48324 48195 0
-48228 48740 0
-48260 48292 0
-48324 48259 0
-48292 48548 0
-48388 48420 0
-48388 48452 0
-48420 48484 0
-48420 48548 0
-48452 48580 0
-48516 48548 0
-48692 48660 48676 48644 -48643 0
-48788 48660 48772 48644 -48643 0
-48644 48676 0
-48696 48664 48692 48660 -48659 0
-48792 48664 48788 48660 -48659 0
-48660 65044 0
-65080 48696 65048 48664 -48663 0
-65176 48792 65048 48664 -48663 0
-48676 48740 0
-48676 48804 0
-48772 48836 0
-49159 49154 0
-49163 49154 0
-49187 49154 0
-49219 49154 0
-49283 49154 0
-49154 51202 0
-51203 49154 0
-55298 51202 53250 49154 -49153 0
-59394 51202 57346 49154 -49153 0
-49154 53250 0
-53251 49154 0
-61442 53250 57346 49154 -49153 0
-49154 57346 0
-53256 49159 0
-61447 53255 57351 49159 -49158 0
-49180 49163 0
-55324 51228 53276 49180 -49179 0
-53284 49187 0
-49348 49219 0
-53316 49219 0
-53380 49283 0
-49348 53444 0
-61636 53444 57540 49348 -49347 0
-56068 51972 54020 49924 -49923 0
-49924 54020 0
-51207 51202 0
-59399 51207 59395 51203 -51202 0
-51211 51202 0
-51212 51203 0
-59403 51211 59395 51203 -51202 0
-51267 51202 0
-51268 51203 0
-59459 51267 59395 51203 -51202 0
-51331 51202 0
-51332 51203 0
-51459 51202 0
-51715 51202 0
-52227 51202 0
-55299 51202 0
-51203 55299 0
-55300 51203 0
-63491 55299 59395 51203 -51202 0
-59395 51202 0
-51288 51224 51272 51208 -51207 0
-55336 51240 55304 51208 -51207 0
-51207 51271 0
-55431 51335 55303 51207 -51206 0
-51207 55303 0
-51208 55304 0
-63496 55304 59400 51208 -51207 0
-51228 51211 0
-59468 51276 59404 51212 -51211 0
-51211 55307 0
-63500 55308 59404 51212 -51211 0
-51224 51256 0
-51224 51288 0
-51416 51288 51352 51224 -51223 0
-55448 51352 55320 51224 -51223 0
-51228 51292 0
-55452 51356 55324 51228 -51227 0
-63524 55332 59428 51236 -51235 0
-51240 51304 0
-51239 55335 0
-55336 51239 0
-63527 55335 59431 51239 -51238 0
-51239 59431 0
-51256 51320 0
-51256 51384 0
-51260 51324 0
-51452 51324 51388 51260 -51259 0
-51260 51388 0
-63548 55356 59452 51260 -51259 0
-51268 51272 0
-59468 51276 59460 51268 -51267 0
-55396 51300 55364 51268 -51267 0
-59588 51396 59460 51268 -51267 0
-55364 51267 0
-59460 51267 0
-59472 51280 59464 51272 -51271 0
-51288 51271 0
-55400 51304 55368 51272 -51271 0
-51272 55368 0
-51271 59463 0
-51276 51280 0
-51276 51292 0
-51280 55376 0
-55512 51416 55384 51288 -51287 0
-59608 51416 59480 51288 -51287 0
-51288 55384 0
-51292 51324 0
-51452 51324 51420 51292 -51291 0
-55516 51420 55388 51292 -51291 0
-51292 55388 0
-51300 51304 0
-51320 51304 51316 51300 -51299 0
-51300 59492 0
-51304 59496 0
-51316 51324 0
-51324 55420 0
-63612 55420 59516 51324 -51323 0
-59588 51396 59524 51332 -51331 0
-51336 51352 0
-59560 51368 59528 51336 -51335 0
-51336 55432 0
-51344 51376 0
-63632 55440 59536 51344 -51343 0
-51352 51384 0
-51448 51384 51416 51352 -51351 0
-51352 51416 0
-51356 51420 0
-51368 51384 0
-55480 51384 55464 51368 -51367 0
-51368 55464 0
-63664 55472 59568 51376 -51375 0
-51376 59568 0
-51384 55480 0
-51384 59576 0
-51388 55484 0
-63676 55484 59580 51388 -51387 0
-51388 59580 0
-51396 51400 0
-51396 51404 0
-51400 51408 0
-51400 51416 0
-51404 51420 0
-51408 55504 0
-51416 55512 0
-51416 59608 0
-51420 55516 0
-51420 59612 0
-51972 51459 0
-52484 51459 0
-52740 51715 0
-53255 53250 0
-53271 53255 53267 53251 -53250 0
-53287 53255 53283 53251 -53250 0
-61447 53255 61443 53251 -53250 0
-53259 53250 0
-53267 53250 0
-53268 53251 0
-53283 53250 0
-53284 53251 0
-53411 53283 53379 53251 -53250 0
-53315 53250 0
-53443 53315 53379 53251 -53250 0
-61507 53315 61443 53251 -53250 0
-53379 53250 0
-53380 53251 0
-55427 53379 55299 53251 -53250 0
-61571 53379 61443 53251 -53250 0
-55299 53250 0
-53251 55299 0
-61443 53250 0
-53264 53255 0
-53280 53264 53272 53256 -53255 0
-61456 53264 61448 53256 -53255 0
-53272 53255 0
-53255 53287 0
-53288 53255 0
-55335 53287 55303 53255 -53254 0
-61480 53288 61448 53256 -53255 0
-53255 53319 0
-53255 53383 0
-55432 53384 55304 53256 -53255 0
-53255 53511 0
-53255 53767 0
-53255 54279 0
-53255 55303 0
-53256 55304 0
-63496 55304 61448 53256 -53255 0
-53264 53259 0
-53259 61451 0
-61488 53296 61456 53264 -53263 0
-53264 53328 0
-61492 53300 61460 53268 -53267 0
-53272 53304 0
-61496 53304 61464 53272 -53271 0
-53272 53336 0
-61592 53400 61464 53272 -53271 0
-53276 61468 0
-53283 53291 0
-61484 53292 61476 53284 -53283 0
-53283 53299 0
-61492 53300 61476 53284 -53283 0
-53412 53283 0
-61604 53412 61476 53284 -53283 0
-53283 53539 0
-53283 53795 0
-53283 54307 0
-53288 53296 0
-61608 53416 61480 53288 -53287 0
-53287 55335 0
-55336 53287 0
-53287 61479 0
-53292 53296 0
-53291 55339 0
-53296 53360 0
-53488 53360 53424 53296 -53295 0
-53296 53424 0
-61616 53424 61488 53296 -53295 0
-53300 53304 0
-53299 55347 0
-63540 55348 61492 53300 -53299 0
-53304 53432 0
-61624 53432 61496 53304 -53303 0
-53316 53320 0
-53315 53323 0
-61516 53324 61508 53316 -53315 0
-53315 53331 0
-53476 53348 53444 53316 -53315 0
-61540 53348 61508 53316 -53315 0
-53444 53315 0
-53315 53571 0
-53315 53827 0
-53315 54339 0
-61520 53328 61512 53320 -53319 0
-61544 53352 61512 53320 -53319 0
-53319 55367 0
-53320 55368 0
-53324 53328 0
-61548 53356 61516 53324 -53323 0
-53323 55371 0
-61552 53360 61520 53328 -53327 0
-53328 55376 0
-53331 55379 0
-61656 53464 61528 53336 -53335 0
-53336 55384 0
-53348 53352 0
-53348 53356 0
-53348 53604 0
-53348 53860 0
-53352 53360 0
-53352 53368 0
-53356 53360 0
-53356 53372 0
-53360 55408 0
-53360 61552 0
-53368 55416 0
-53372 55420 0
-53384 53379 0
-61576 53384 61572 53380 -53379 0
-53379 53387 0
-53379 53395 0
-61604 53412 61572 53380 -53379 0
-53444 53379 0
-53379 53635 0
-53379 53891 0
-53379 54403 0
-53379 55427 0
-55428 53379 0
-63619 55427 61571 53379 -53378 0
-53379 61571 0
-53383 55431 0
-53384 55432 0
-53387 55435 0
-53395 55443 0
-53400 53464 0
-53412 53416 0
-53412 53420 0
-53416 53424 0
-53416 53432 0
-53420 53436 0
-53424 55472 0
-53432 55480 0
-53436 55484 0
-53444 61636 0
-53464 55512 0
-53511 55559 0
-53539 55587 0
-53571 55619 0
-53604 54116 0
-53604 54628 0
-53635 55683 0
-53767 55815 0
-53795 55843 0
-53827 55875 0
-53860 54884 0
-53891 55939 0
-64260 56068 62212 54020 -54019 0
-54020 62212 0
-54116 56164 0
-54279 56327 0
-54307 56355 0
-54339 56387 0
-54403 56451 0
-54628 56676 0
-54884 56932 0
-55299 55303 0
-55300 55304 0
-55311 55303 55307 55299 -55298 0
-55319 55303 55315 55299 -55298 0
-55320 55304 55316 55300 -55299 0
-55335 55303 55331 55299 -55298 0
-55367 55303 55363 55299 -55298 0
-63495 55303 63491 55299 -55298 0
-55299 55307 0
-55308 55299 0
-55339 55307 55331 55299 -55298 0
-55371 55307 55363 55299 -55298 0
-55435 55307 55427 55299 -55298 0
-55563 55307 55555 55299 -55298 0
-55819 55307 55811 55299 -55298 0
-56331 55307 56323 55299 -55298 0
-63499 55307 63491 55299 -55298 0
-55299 55315 0
-55316 55299 0
-55347 55315 55331 55299 -55298 0
-55379 55315 55363 55299 -55298 0
-55443 55315 55427 55299 -55298 0
-55444 55316 55428 55300 -55299 0
-63507 55315 63491 55299 -55298 0
-63508 55316 63492 55300 -55299 0
-55332 55299 0
-55395 55331 55363 55299 -55298 0
-55843 55331 55811 55299 -55298 0
-63523 55331 63491 55299 -55298 0
-55364 55299 0
-55619 55363 55555 55299 -55298 0
-55875 55363 55811 55299 -55298 0
-56387 55363 56323 55299 -55298 0
-63555 55363 63491 55299 -55298 0
-55428 55299 0
-55683 55427 55555 55299 -55298 0
-55939 55427 55811 55299 -55298 0
-56451 55427 56323 55299 -55298 0
-63619 55427 63491 55299 -55298 0
-55556 55299 0
-63747 55555 63491 55299 -55298 0
-55812 55299 0
-64003 55811 63491 55299 -55298 0
-55299 63491 0
-63492 55299 0
-55312 55303 0
-55304 55312 0
-55328 55312 55320 55304 -55303 0
-55376 55312 55368 55304 -55303 0
-55440 55312 55432 55304 -55303 0
-63504 55312 63496 55304 -55303 0
-55320 55303 0
-55304 55320 0
-55384 55320 55368 55304 -55303 0
-55448 55320 55432 55304 -55303 0
-63512 55320 63496 55304 -55303 0
-55303 55335 0
-55336 55303 0
-55400 55336 55368 55304 -55303 0
-63527 55335 63495 55303 -55302 0
-63528 55336 63496 55304 -55303 0
-55303 55367 0
-55496 55368 55432 55304 -55303 0
-63559 55367 63495 55303 -55302 0
-63560 55368 63496 55304 -55303 0
-55303 55431 0
-55432 55303 0
-63624 55432 63496 55304 -55303 0
-55303 55559 0
-55303 55815 0
-55303 56327 0
-55303 63495 0
-63496 55303 0
-55304 63496 0
-55312 55307 0
-55308 55312 0
-55328 55312 55324 55308 -55307 0
-55440 55312 55436 55308 -55307 0
-63504 55312 63500 55308 -55307 0
-55308 55324 0
-55452 55324 55436 55308 -55307 0
-63516 55324 63500 55308 -55307 0
-55307 55339 0
-63531 55339 63499 55307 -55306 0
-55307 55371 0
-55372 55307 0
-63563 55371 63499 55307 -55306 0
-63564 55372 63500 55308 -55307 0
-55307 55435 0
-55307 55563 0
-63755 55563 63499 55307 -55306 0
-55307 55819 0
-64011 55819 63499 55307 -55306 0
-55307 56331 0
-64523 56331 63499 55307 -55306 0
-55307 63499 0
-63500 55307 0
-55308 63500 0
-55312 55344 0
-55408 55344 55376 55312 -55311 0
-63536 55344 63504 55312 -55311 0
-55312 55376 0
-55504 55376 55440 55312 -55311 0
-55632 55376 55568 55312 -55311 0
-55888 55376 55824 55312 -55311 0
-55312 55440 0
-63632 55440 63504 55312 -55311 0
-55312 55568 0
-55312 55824 0
-55320 55315 0
-55316 55320 0
-55328 55320 55324 55316 -55315 0
-55352 55320 55348 55316 -55315 0
-55448 55320 55444 55316 -55315 0
-55316 55324 0
-55388 55324 55380 55316 -55315 0
-63516 55324 63508 55316 -55315 0
-55315 55347 0
-55348 55315 0
-55604 55348 55572 55316 -55315 0
-55860 55348 55828 55316 -55315 0
-63539 55347 63507 55315 -55314 0
-55315 55379 0
-55380 55315 0
-63571 55379 63507 55315 -55314 0
-63572 55380 63508 55316 -55315 0
-55315 55443 0
-55316 55444 0
-63636 55444 63508 55316 -55315 0
-55315 55571 0
-55315 55827 0
-55315 56339 0
-55315 63507 0
-63508 55315 0
-55316 63508 0
-55320 55352 0
-55416 55352 55384 55320 -55319 0
-55480 55352 55448 55320 -55319 0
-55864 55352 55832 55320 -55319 0
-63544 55352 63512 55320 -55319 0
-55320 55384 0
-55640 55384 55576 55320 -55319 0
-55896 55384 55832 55320 -55319 0
-56408 55384 56344 55320 -55319 0
-55320 55448 0
-55704 55448 55576 55320 -55319 0
-55960 55448 55832 55320 -55319 0
-56472 55448 56344 55320 -55319 0
-63640 55448 63512 55320 -55319 0
-55320 55576 0
-55320 55832 0
-55324 55356 0
-55420 55356 55388 55324 -55323 0
-55484 55356 55452 55324 -55323 0
-63548 55356 63516 55324 -55323 0
-55324 55388 0
-63580 55388 63516 55324 -55323 0
-55964 55452 55836 55324 -55323 0
-56476 55452 56348 55324 -55323 0
-63644 55452 63516 55324 -55323 0
-55324 55580 0
-63772 55580 63516 55324 -55323 0
-55324 55836 0
-64028 55836 63516 55324 -55323 0
-64540 56348 63516 55324 -55323 0
-55324 63516 0
-55331 55335 0
-55336 55331 0
-55332 55336 0
-55400 55336 55396 55332 -55331 0
-55464 55336 55460 55332 -55331 0
-63527 55335 63523 55331 -55330 0
-55331 55339 0
-55332 55340 0
-63531 55339 63523 55331 -55330 0
-55331 55347 0
-55412 55348 55396 55332 -55331 0
-55476 55348 55460 55332 -55331 0
-63539 55347 63523 55331 -55330 0
-63540 55348 63524 55332 -55331 0
-55396 55331 0
-55524 55396 55460 55332 -55331 0
-63588 55396 63524 55332 -55331 0
-55460 55331 0
-55332 55460 0
-63652 55460 63524 55332 -55331 0
-55331 55587 0
-55588 55331 0
-55331 55843 0
-55844 55331 0
-64035 55843 63523 55331 -55330 0
-55331 56355 0
-55331 63523 0
-63524 55331 0
-55336 55344 0
-55472 55344 55464 55336 -55335 0
-55352 55335 0
-55336 55352 0
-55416 55352 55400 55336 -55335 0
-55400 55335 0
-55336 55400 0
-55528 55400 55464 55336 -55335 0
-63592 55400 63528 55336 -55335 0
-55336 55464 0
-63656 55464 63528 55336 -55335 0
-63528 55335 0
-55344 55339 0
-55340 55356 0
-55612 55356 55596 55340 -55339 0
-55868 55356 55852 55340 -55339 0
-56380 55356 56364 55340 -55339 0
-55404 55339 0
-55344 55408 0
-55344 55472 0
-63664 55472 63536 55344 -55343 0
-55352 55347 0
-55348 55352 0
-55348 55356 0
-63548 55356 63540 55348 -55347 0
-55412 55347 0
-55540 55412 55476 55348 -55347 0
-55348 55476 0
-63796 55604 63540 55348 -55347 0
-64052 55860 63540 55348 -55347 0
-63540 55347 0
-55348 63540 0
-55352 55416 0
-55352 55480 0
-55992 55480 55864 55352 -55351 0
-63672 55480 63544 55352 -55351 0
-55356 55420 0
-55356 55484 0
-63804 55612 63548 55356 -55355 0
-64060 55868 63548 55356 -55355 0
-64572 56380 63548 55356 -55355 0
-55356 63548 0
-55363 55367 0
-55364 55368 0
-55496 55368 55492 55364 -55363 0
-63559 55367 63555 55363 -55362 0
-63560 55368 63556 55364 -55363 0
-55363 55371 0
-55500 55372 55492 55364 -55363 0
-63563 55371 63555 55363 -55362 0
-63564 55372 63556 55364 -55363 0
-55363 55379 0
-55380 55363 0
-55364 55380 0
-55508 55380 55492 55364 -55363 0
-63571 55379 63555 55363 -55362 0
-63572 55380 63556 55364 -55363 0
-55524 55396 55492 55364 -55363 0
-63588 55396 63556 55364 -55363 0
-55492 55363 0
-55363 55619 0
-55363 55875 0
-55363 56387 0
-55363 63555 0
-63556 55363 0
-55368 55376 0
-63568 55376 63560 55368 -55367 0
-55368 55384 0
-63576 55384 63560 55368 -55367 0
-55528 55400 55496 55368 -55367 0
-63592 55400 63560 55368 -55367 0
-63688 55496 63560 55368 -55367 0
-63560 55367 0
-55368 63560 0
-55376 55371 0
-55372 55376 0
-55392 55376 55388 55372 -55371 0
-55504 55376 55500 55372 -55371 0
-63568 55376 63564 55372 -55371 0
-55372 55388 0
-63564 55371 0
-55372 63564 0
-55376 55408 0
-63600 55408 63568 55376 -55375 0
-55376 55504 0
-55760 55504 55632 55376 -55375 0
-56016 55504 55888 55376 -55375 0
-55376 63568 0
-55380 55384 0
-63576 55384 63572 55380 -55379 0
-55380 55388 0
-63580 55388 63572 55380 -55379 0
-63604 55412 63572 55380 -55379 0
-63572 55379 0
-55380 63572 0
-55384 55416 0
-55672 55416 55640 55384 -55383 0
-55928 55416 55896 55384 -55383 0
-56440 55416 56408 55384 -55383 0
-63608 55416 63576 55384 -55383 0
-55384 55512 0
-63704 55512 63576 55384 -55383 0
-55384 63576 0
-55388 55420 0
-63612 55420 63580 55388 -55387 0
-55388 55516 0
-63708 55516 63580 55388 -55387 0
-55388 63580 0
-55396 55400 0
-55656 55400 55652 55396 -55395 0
-55912 55400 55908 55396 -55395 0
-55396 55404 0
-55660 55404 55652 55396 -55395 0
-55916 55404 55908 55396 -55395 0
-63596 55404 63588 55396 -55395 0
-63604 55412 63588 55396 -55395 0
-55396 55652 0
-63844 55652 63588 55396 -55395 0
-55396 55908 0
-64100 55908 63588 55396 -55395 0
-64612 56420 63588 55396 -55395 0
-55400 55408 0
-55664 55408 55656 55400 -55399 0
-55920 55408 55912 55400 -55399 0
-63600 55408 63592 55400 -55399 0
-55400 55416 0
-55400 63592 0
-55404 55408 0
-55424 55408 55420 55404 -55403 0
-55664 55408 55660 55404 -55403 0
-55404 55420 0
-64108 55916 63596 55404 -55403 0
-63856 55664 63600 55408 -55407 0
-64112 55920 63600 55408 -55407 0
-55408 63600 0
-55412 55416 0
-55412 55420 0
-63864 55672 63608 55416 -55415 0
-64120 55928 63608 55416 -55415 0
-64632 56440 63608 55416 -55415 0
-55416 63608 0
-55420 63612 0
-55427 55431 0
-55432 55427 0
-55440 55432 55436 55428 -55427 0
-55448 55432 55444 55428 -55427 0
-55464 55432 55460 55428 -55427 0
-55496 55432 55492 55428 -55427 0
-63623 55431 63619 55427 -55426 0
-63624 55432 63620 55428 -55427 0
-55427 55435 0
-55436 55427 0
-55428 55436 0
-55452 55436 55444 55428 -55427 0
-63627 55435 63619 55427 -55426 0
-63628 55436 63620 55428 -55427 0
-55427 55443 0
-55444 55427 0
-55428 55444 0
-55476 55444 55460 55428 -55427 0
-63635 55443 63619 55427 -55426 0
-63636 55444 63620 55428 -55427 0
-55524 55460 55492 55428 -55427 0
-63652 55460 63620 55428 -55427 0
-55492 55427 0
-63684 55492 63620 55428 -55427 0
-55427 55683 0
-63875 55683 63619 55427 -55426 0
-55427 55939 0
-64131 55939 63619 55427 -55426 0
-55427 56451 0
-64643 56451 63619 55427 -55426 0
-55427 63619 0
-55432 55440 0
-63632 55440 63624 55432 -55431 0
-55432 55448 0
-55512 55448 55496 55432 -55431 0
-63640 55448 63624 55432 -55431 0
-55432 55464 0
-55528 55464 55496 55432 -55431 0
-63656 55464 63624 55432 -55431 0
-55496 55431 0
-55432 55496 0
-63688 55496 63624 55432 -55431 0
-63624 55431 0
-55432 63624 0
-55440 55435 0
-55436 55440 0
-55456 55440 55452 55436 -55435 0
-63632 55440 63628 55436 -55435 0
-55436 55452 0
-55516 55452 55500 55436 -55435 0
-63644 55452 63628 55436 -55435 0
-55724 55468 55692 55436 -55435 0
-55980 55468 55948 55436 -55435 0
-56492 55468 56460 55436 -55435 0
-63660 55468 63628 55436 -55435 0
-55436 55500 0
-63628 55435 0
-55436 63628 0
-55440 55472 0
-63664 55472 63632 55440 -55439 0
-55440 55504 0
-63696 55504 63632 55440 -55439 0
-55440 63632 0
-55448 55443 0
-55444 55448 0
-55456 55448 55452 55444 -55443 0
-55480 55448 55476 55444 -55443 0
-55512 55448 55508 55444 -55443 0
-63640 55448 63636 55444 -55443 0
-55444 55452 0
-63644 55452 63636 55444 -55443 0
-63668 55476 63636 55444 -55443 0
-63636 55443 0
-55444 63636 0
-55448 55480 0
-55544 55480 55512 55448 -55447 0
-55736 55480 55704 55448 -55447 0
-63672 55480 63640 55448 -55447 0
-55448 55512 0
-56024 55512 55960 55448 -55447 0
-56536 55512 56472 55448 -55447 0
-63704 55512 63640 55448 -55447 0
-55448 63640 0
-55452 55484 0
-55548 55484 55516 55452 -55451 0
-63676 55484 63644 55452 -55451 0
-55452 55516 0
-56028 55516 55964 55452 -55451 0
-56540 55516 56476 55452 -55451 0
-55460 55464 0
-55720 55464 55716 55460 -55459 0
-55976 55464 55972 55460 -55459 0
-63656 55464 63652 55460 -55459 0
-55460 55468 0
-55980 55468 55972 55460 -55459 0
-63660 55468 63652 55460 -55459 0
-55732 55476 55716 55460 -55459 0
-63668 55476 63652 55460 -55459 0
-55460 55716 0
-55460 55972 0
-55460 56484 0
-55460 63652 0
-55464 55472 0
-55728 55472 55720 55464 -55463 0
-55984 55472 55976 55464 -55463 0
-55464 55480 0
-55464 63656 0
-55468 55472 0
-55468 55484 0
-55996 55484 55980 55468 -55467 0
-63916 55724 63660 55468 -55467 0
-64172 55980 63660 55468 -55467 0
-64684 56492 63660 55468 -55467 0
-63920 55728 63664 55472 -55471 0
-64176 55984 63664 55472 -55471 0
-55476 55480 0
-55476 55484 0
-55740 55484 55732 55476 -55475 0
-63676 55484 63668 55476 -55475 0
-63928 55736 63672 55480 -55479 0
-64184 55992 63672 55480 -55479 0
-55480 63672 0
-63932 55740 63676 55484 -55483 0
-64188 55996 63676 55484 -55483 0
-55484 63676 0
-55492 55496 0
-55512 55496 55508 55492 -55491 0
-55752 55496 55748 55492 -55491 0
-56008 55496 56004 55492 -55491 0
-55492 55500 0
-63692 55500 63684 55492 -55491 0
-55492 55748 0
-55492 56004 0
-64196 56004 63684 55492 -55491 0
-55492 63684 0
-55496 55504 0
-55760 55504 55752 55496 -55495 0
-56016 55504 56008 55496 -55495 0
-63696 55504 63688 55496 -55495 0
-55496 55512 0
-63704 55512 63688 55496 -55495 0
-55496 63688 0
-55500 55516 0
-55500 63692 0
-63952 55760 63696 55504 -55503 0
-64208 56016 63696 55504 -55503 0
-55504 63696 0
-55508 55516 0
-55508 63700 0
-64216 56024 63704 55512 -55511 0
-64728 56536 63704 55512 -55511 0
-55512 63704 0
-64220 56028 63708 55516 -55515 0
-64732 56540 63708 55516 -55515 0
-55555 55559 0
-55555 55563 0
-55596 55564 55588 55556 -55555 0
-55555 55571 0
-55572 55555 0
-55604 55572 55588 55556 -55555 0
-55555 55587 0
-55555 55619 0
-55576 55559 0
-55564 55568 0
-55580 55563 0
-55692 55563 0
-55568 56080 0
-55568 56592 0
-55576 55571 0
-55572 55576 0
-55580 55571 0
-55576 56088 0
-55576 56600 0
-55580 56092 0
-55580 56604 0
-55596 55587 0
-63788 55596 63780 55588 -55587 0
-55604 55587 0
-55652 55619 0
-55652 56164 0
-55652 56676 0
-55716 56228 0
-55716 56740 0
-55748 56260 0
-55748 56772 0
-55811 55815 0
-55811 55819 0
-55852 55820 55844 55812 -55811 0
-55811 55827 0
-55828 55811 0
-55860 55828 55844 55812 -55811 0
-55811 55843 0
-55811 55875 0
-55832 55815 0
-55820 55824 0
-55836 55819 0
-55948 55819 0
-55824 56848 0
-55832 55827 0
-55828 55832 0
-55836 55827 0
-55832 56088 0
-55832 56856 0
-55836 56092 0
-55836 56860 0
-55852 55843 0
-64044 55852 64036 55844 -55843 0
-55860 55843 0
-55908 55875 0
-55908 56164 0
-55908 56932 0
-55972 56996 0
-55972 64164 0
-56004 56260 0
-56004 57028 0
-56228 64420 0
-56323 56327 0
-56323 56331 0
-56323 56339 0
-56323 56355 0
-56323 56387 0
-56344 56327 0
-56348 56331 0
-56460 56331 0
-56344 56339 0
-56348 56339 0
-56344 56600 0
-56348 56604 0
-56364 56355 0
-56420 56387 0
-56484 64676 0
-57351 57346 0
-59399 57351 59395 57347 -57346 0
-57355 57346 0
-57356 57347 0
-57483 57355 57475 57347 -57346 0
-59403 57355 59395 57347 -57346 0
-57363 57346 0
-57364 57347 0
-61459 57363 61443 57347 -57346 0
-57379 57346 0
-61475 57379 61443 57347 -57346 0
-57475 57346 0
-57476 57347 0
-57731 57475 57603 57347 -57346 0
-57987 57475 57859 57347 -57346 0
-59523 57475 59395 57347 -57346 0
-61571 57475 61443 57347 -57346 0
-57603 57346 0
-57604 57347 0
-57860 57347 0
-58372 57347 0
-62467 58371 61443 57347 -57346 0
-59395 57346 0
-57347 59395 0
-63491 59395 61443 57347 -57346 0
-61443 57346 0
-57347 61443 0
-61456 57360 61448 57352 -57351 0
-57368 57351 0
-59416 57368 59400 57352 -57351 0
-61464 57368 61448 57352 -57351 0
-61480 57384 61448 57352 -57351 0
-57351 57415 0
-59400 57351 0
-57352 59400 0
-61448 57351 0
-59408 57360 59404 57356 -57355 0
-57372 57355 0
-61484 57388 61452 57356 -57355 0
-59532 57484 59404 57356 -57355 0
-59404 57355 0
-61452 57355 0
-57360 57392 0
-57360 61456 0
-57368 57363 0
-59420 57372 59412 57364 -57363 0
-61468 57372 61460 57364 -57363 0
-57364 57492 0
-57363 59411 0
-59412 57363 0
-63508 59412 61460 57364 -57363 0
-61460 57363 0
-57368 57400 0
-57368 57432 0
-61592 57496 61464 57368 -57367 0
-57368 61464 0
-57372 57404 0
-57372 61468 0
-57379 57387 0
-57444 57379 0
-57508 57379 0
-61476 57379 0
-57384 57448 0
-57388 57392 0
-61488 57392 61484 57388 -57387 0
-57392 57520 0
-57400 57528 0
-57404 57532 0
-61544 57448 61512 57416 -57415 0
-57416 59464 0
-61656 57560 61528 57432 -57431 0
-57432 59480 0
-57448 59496 0
-57484 57475 0
-61579 57483 61571 57475 -57474 0
-57732 57475 0
-57988 57475 0
-63620 59524 61572 57476 -57475 0
-57475 61571 0
-61572 57475 0
-57548 57483 0
-57483 61579 0
-57492 59540 0
-57496 57560 0
-57520 59568 0
-61624 57528 61620 57524 -57523 0
-57524 61620 0
-57528 59576 0
-57532 59580 0
-63676 59580 61628 57532 -57531 0
-57532 61628 0
-57540 57544 0
-57800 57544 57796 57540 -57539 0
-58056 57544 58052 57540 -57539 0
-57564 57548 57556 57540 -57539 0
-57540 61636 0
-57544 57560 0
-57816 57560 57800 57544 -57543 0
-58072 57560 58056 57544 -57543 0
-57548 61644 0
-57556 57560 0
-57568 57560 57564 57556 -57555 0
-61912 57816 61656 57560 -57559 0
-62168 58072 61656 57560 -57559 0
-57560 59608 0
-59780 57732 59652 57604 -57603 0
-58116 57603 0
-57796 57731 0
-60036 57988 59908 57860 -57859 0
-58052 57987 0
-64260 60164 62212 58116 -58115 0
-58116 62212 0
-64516 60420 62468 58372 -58371 0
-59395 59399 0
-59396 59400 0
-59407 59399 59403 59395 -59394 0
-59415 59399 59411 59395 -59394 0
-59416 59400 59412 59396 -59395 0
-59431 59399 59427 59395 -59394 0
-59463 59399 59459 59395 -59394 0
-59464 59400 59460 59396 -59395 0
-59527 59399 59523 59395 -59394 0
-59528 59400 59524 59396 -59395 0
-59655 59399 59651 59395 -59394 0
-59911 59399 59907 59395 -59394 0
-60423 59399 60419 59395 -59394 0
-63495 59399 63491 59395 -59394 0
-59395 59403 0
-59404 59395 0
-59419 59403 59411 59395 -59394 0
-59435 59403 59427 59395 -59394 0
-59467 59403 59459 59395 -59394 0
-59531 59403 59523 59395 -59394 0
-59659 59403 59651 59395 -59394 0
-59915 59403 59907 59395 -59394 0
-60427 59403 60419 59395 -59394 0
-63499 59403 63491 59395 -59394 0
-59395 59411 0
-59412 59395 0
-59443 59411 59427 59395 -59394 0
-59539 59411 59523 59395 -59394 0
-63507 59411 63491 59395 -59394 0
-59395 59427 0
-59428 59395 0
-59491 59427 59459 59395 -59394 0
-63523 59427 63491 59395 -59394 0
-63524 59428 63492 59396 -59395 0
-59395 59459 0
-59460 59395 0
-63555 59459 63491 59395 -59394 0
-63556 59460 63492 59396 -59395 0
-59395 59523 0
-59524 59395 0
-59779 59523 59651 59395 -59394 0
-60035 59523 59907 59395 -59394 0
-63619 59523 63491 59395 -59394 0
-59652 59395 0
-59908 59395 0
-64004 59908 63492 59396 -59395 0
-59395 63491 0
-63492 59395 0
-59396 63492 0
-59400 59408 0
-59424 59408 59416 59400 -59399 0
-59440 59408 59432 59400 -59399 0
-59472 59408 59464 59400 -59399 0
-59664 59408 59656 59400 -59399 0
-59920 59408 59912 59400 -59399 0
-63504 59408 63496 59400 -59399 0
-59416 59399 0
-59400 59416 0
-63512 59416 63496 59400 -59399 0
-59399 59431 0
-59432 59399 0
-63527 59431 63495 59399 -59398 0
-63528 59432 63496 59400 -59399 0
-59399 59463 0
-59592 59464 59528 59400 -59399 0
-63559 59463 63495 59399 -59398 0
-63560 59464 63496 59400 -59399 0
-59399 59527 0
-59528 59399 0
-63624 59528 63496 59400 -59399 0
-59399 59655 0
-63751 59655 63495 59399 -59398 0
-63752 59656 63496 59400 -59399 0
-59399 59911 0
-64007 59911 63495 59399 -59398 0
-64008 59912 63496 59400 -59399 0
-59399 60423 0
-64519 60423 63495 59399 -59398 0
-59399 63495 0
-63496 59399 0
-59400 63496 0
-59408 59403 0
-59404 59408 0
-59424 59408 59420 59404 -59403 0
-59472 59408 59468 59404 -59403 0
-59536 59408 59532 59404 -59403 0
-59420 59403 0
-59404 59420 0
-59548 59420 59532 59404 -59403 0
-63516 59420 63500 59404 -59403 0
-59403 59435 0
-59500 59436 59468 59404 -59403 0
-63531 59435 63499 59403 -59402 0
-59403 59467 0
-59468 59403 0
-63563 59467 63499 59403 -59402 0
-59403 59531 0
-59532 59403 0
-59404 59532 0
-59788 59532 59660 59404 -59403 0
-60044 59532 59916 59404 -59403 0
-60556 59532 60428 59404 -59403 0
-63628 59532 63500 59404 -59403 0
-59403 59659 0
-63755 59659 63499 59403 -59402 0
-59403 59915 0
-64011 59915 63499 59403 -59402 0
-59403 60427 0
-64523 60427 63499 59403 -59402 0
-59403 63499 0
-63500 59403 0
-59404 63500 0
-59408 59440 0
-59696 59440 59664 59408 -59407 0
-59952 59440 59920 59408 -59407 0
-60464 59440 60432 59408 -59407 0
-63536 59440 63504 59408 -59407 0
-59408 59472 0
-59600 59472 59536 59408 -59407 0
-59728 59472 59664 59408 -59407 0
-59984 59472 59920 59408 -59407 0
-60496 59472 60432 59408 -59407 0
-63568 59472 63504 59408 -59407 0
-59408 59536 0
-59792 59536 59664 59408 -59407 0
-60048 59536 59920 59408 -59407 0
-60560 59536 60432 59408 -59407 0
-63632 59536 63504 59408 -59407 0
-59408 59664 0
-63760 59664 63504 59408 -59407 0
-59408 59920 0
-60944 59920 60432 59408 -59407 0
-64016 59920 63504 59408 -59407 0
-64528 60432 63504 59408 -59407 0
-59408 63504 0
-59416 59411 0
-59412 59416 0
-59424 59416 59420 59412 -59411 0
-59544 59416 59540 59412 -59411 0
-59420 59411 0
-59412 59420 0
-59452 59420 59444 59412 -59411 0
-63516 59420 63508 59412 -59411 0
-59411 59443 0
-59444 59411 0
-59412 59444 0
-63539 59443 63507 59411 -59410 0
-59411 59475 0
-59476 59411 0
-59412 59476 0
-63571 59475 63507 59411 -59410 0
-63572 59476 63508 59412 -59411 0
-59411 59539 0
-59412 59540 0
-63636 59540 63508 59412 -59411 0
-59411 59667 0
-59411 59923 0
-59411 60435 0
-59411 63507 0
-63508 59411 0
-59416 59448 0
-59512 59448 59480 59416 -59415 0
-59704 59448 59672 59416 -59415 0
-59960 59448 59928 59416 -59415 0
-60472 59448 60440 59416 -59415 0
-59416 59480 0
-59608 59480 59544 59416 -59415 0
-59736 59480 59672 59416 -59415 0
-59992 59480 59928 59416 -59415 0
-60504 59480 60440 59416 -59415 0
-63576 59480 63512 59416 -59415 0
-63640 59544 63512 59416 -59415 0
-59416 59672 0
-63768 59672 63512 59416 -59415 0
-59416 59928 0
-64024 59928 63512 59416 -59415 0
-64536 60440 63512 59416 -59415 0
-59416 63512 0
-59420 59452 0
-59516 59452 59484 59420 -59419 0
-59580 59452 59548 59420 -59419 0
-63548 59452 63516 59420 -59419 0
-59420 59484 0
-59740 59484 59676 59420 -59419 0
-59996 59484 59932 59420 -59419 0
-63580 59484 63516 59420 -59419 0
-59420 59548 0
-59420 59676 0
-63772 59676 63516 59420 -59419 0
-59420 59932 0
-64028 59932 63516 59420 -59419 0
-64540 60444 63516 59420 -59419 0
-59420 63516 0
-59427 59431 0
-59432 59427 0
-59428 59432 0
-59496 59432 59492 59428 -59427 0
-59427 59435 0
-63531 59435 63523 59427 -59426 0
-59427 59443 0
-59508 59444 59492 59428 -59427 0
-59572 59444 59556 59428 -59427 0
-63540 59444 63524 59428 -59427 0
-59428 59492 0
-59620 59492 59556 59428 -59427 0
-63588 59492 63524 59428 -59427 0
-59556 59427 0
-59428 59556 0
-59427 59683 0
-59427 59939 0
-59427 60451 0
-63524 59427 0
-59440 59431 0
-59432 59440 0
-59696 59440 59688 59432 -59431 0
-59952 59440 59944 59432 -59431 0
-60464 59440 60456 59432 -59431 0
-59448 59431 0
-59432 59448 0
-59704 59448 59688 59432 -59431 0
-59960 59448 59944 59432 -59431 0
-60472 59448 60456 59432 -59431 0
-59624 59496 59560 59432 -59431 0
-63592 59496 63528 59432 -59431 0
-63656 59560 63528 59432 -59431 0
-63528 59431 0
-59432 63528 0
-59456 59440 59452 59436 -59435 0
-59452 59435 0
-59436 59452 0
-59500 59435 0
-59564 59435 0
-63532 59435 0
-59440 59504 0
-59440 59568 0
-59824 59568 59696 59440 -59439 0
-60080 59568 59952 59440 -59439 0
-60592 59568 60464 59440 -59439 0
-63792 59696 63536 59440 -59439 0
-64048 59952 63536 59440 -59439 0
-59444 59452 0
-59516 59452 59508 59444 -59443 0
-59444 59508 0
-59636 59508 59572 59444 -59443 0
-63604 59508 63540 59444 -59443 0
-59572 59443 0
-59444 59572 0
-63668 59572 63540 59444 -59443 0
-63796 59700 63540 59444 -59443 0
-64052 59956 63540 59444 -59443 0
-64564 60468 63540 59444 -59443 0
-63540 59443 0
-59444 63540 0
-59448 59512 0
-59768 59512 59704 59448 -59447 0
-63608 59512 63544 59448 -59447 0
-59448 59576 0
-59832 59576 59704 59448 -59447 0
-60088 59576 59960 59448 -59447 0
-60600 59576 60472 59448 -59447 0
-63672 59576 63544 59448 -59447 0
-59448 63544 0
-59452 59516 0
-59644 59516 59580 59452 -59451 0
-63612 59516 63548 59452 -59451 0
-59452 59580 0
-63676 59580 63548 59452 -59451 0
-59452 63548 0
-59459 59463 0
-59460 59464 0
-59496 59464 59492 59460 -59459 0
-59592 59464 59588 59460 -59459 0
-63560 59464 63556 59460 -59459 0
-59459 59467 0
-59468 59459 0
-59460 59468 0
-59500 59468 59492 59460 -59459 0
-59596 59468 59588 59460 -59459 0
-63563 59467 63555 59459 -59458 0
-63564 59468 63556 59460 -59459 0
-59459 59475 0
-59460 59476 0
-59508 59476 59492 59460 -59459 0
-63572 59476 63556 59460 -59459 0
-59460 59492 0
-63588 59492 63556 59460 -59459 0
-59588 59459 0
-59460 59588 0
-63684 59588 63556 59460 -59459 0
-59459 59715 0
-59716 59459 0
-59459 59971 0
-59972 59459 0
-59459 60483 0
-63556 59459 0
-59460 63556 0
-59464 59472 0
-59600 59472 59592 59464 -59463 0
-59728 59472 59720 59464 -59463 0
-59984 59472 59976 59464 -59463 0
-60496 59472 60488 59464 -59463 0
-63568 59472 63560 59464 -59463 0
-59464 59480 0
-63576 59480 63560 59464 -59463 0
-59624 59496 59592 59464 -59463 0
-63592 59496 63560 59464 -59463 0
-59592 59463 0
-63688 59592 63560 59464 -59463 0
-63560 59463 0
-59464 63560 0
-59472 59467 0
-59468 59472 0
-59488 59472 59484 59468 -59467 0
-59504 59472 59500 59468 -59467 0
-59600 59472 59596 59468 -59467 0
-59484 59467 0
-59468 59484 0
-59516 59484 59500 59468 -59467 0
-59612 59484 59596 59468 -59467 0
-63580 59484 63564 59468 -59467 0
-59500 59467 0
-59468 59500 0
-63596 59500 63564 59468 -59467 0
-63564 59467 0
-59472 59504 0
-60528 59504 60496 59472 -59471 0
-63600 59504 63568 59472 -59471 0
-59472 59600 0
-59856 59600 59728 59472 -59471 0
-60112 59600 59984 59472 -59471 0
-60624 59600 60496 59472 -59471 0
-63696 59600 63568 59472 -59471 0
-60240 59728 59984 59472 -59471 0
-60752 59728 60496 59472 -59471 0
-59472 63568 0
-59476 59480 0
-59736 59480 59732 59476 -59475 0
-59992 59480 59988 59476 -59475 0
-60504 59480 60500 59476 -59475 0
-59476 59484 0
-63580 59484 63572 59476 -59475 0
-59508 59475 0
-59636 59508 59604 59476 -59475 0
-63604 59508 63572 59476 -59475 0
-63700 59604 63572 59476 -59475 0
-63572 59475 0
-59476 63572 0
-59480 59512 0
-59640 59512 59608 59480 -59479 0
-60024 59512 59992 59480 -59479 0
-60536 59512 60504 59480 -59479 0
-63608 59512 63576 59480 -59479 0
-59480 59608 0
-59864 59608 59736 59480 -59479 0
-60120 59608 59992 59480 -59479 0
-60632 59608 60504 59480 -59479 0
-63704 59608 63576 59480 -59479 0
-59480 63576 0
-59484 59516 0
-59644 59516 59612 59484 -59483 0
-63612 59516 63580 59484 -59483 0
-59484 59612 0
-59868 59612 59740 59484 -59483 0
-60124 59612 59996 59484 -59483 0
-63708 59612 63580 59484 -59483 0
-59484 63580 0
-59492 59496 0
-59752 59496 59748 59492 -59491 0
-60520 59496 60516 59492 -59491 0
-59492 59500 0
-60012 59500 60004 59492 -59491 0
-59764 59508 59748 59492 -59491 0
-59492 59748 0
-63844 59748 63588 59492 -59491 0
-59492 60004 0
-64100 60004 63588 59492 -59491 0
-59496 59504 0
-59760 59504 59752 59496 -59495 0
-60528 59504 60520 59496 -59495 0
-59496 59512 0
-59496 63592 0
-59520 59504 59516 59500 -59499 0
-59500 59516 0
-60028 59516 60012 59500 -59499 0
-59500 63596 0
-63856 59760 63600 59504 -59503 0
-64624 60528 63600 59504 -59503 0
-59504 63600 0
-59520 59512 59516 59508 -59507 0
-59508 59516 0
-59772 59516 59764 59508 -59507 0
-63864 59768 63608 59512 -59511 0
-64120 60024 63608 59512 -59511 0
-64632 60536 63608 59512 -59511 0
-59512 63608 0
-63868 59772 63612 59516 -59515 0
-64124 60028 63612 59516 -59515 0
-59516 63612 0
-59523 59527 0
-59528 59523 0
-59524 59528 0
-59536 59528 59532 59524 -59523 0
-59544 59528 59540 59524 -59523 0
-59560 59528 59556 59524 -59523 0
-59592 59528 59588 59524 -59523 0
-59784 59528 59780 59524 -59523 0
-60040 59528 60036 59524 -59523 0
-63623 59527 63619 59523 -59522 0
-63624 59528 63620 59524 -59523 0
-59523 59531 0
-59532 59523 0
-59524 59532 0
-59548 59532 59540 59524 -59523 0
-59596 59532 59588 59524 -59523 0
-63627 59531 63619 59523 -59522 0
-63628 59532 63620 59524 -59523 0
-59523 59539 0
-59540 59523 0
-59524 59540 0
-59572 59540 59556 59524 -59523 0
-59604 59540 59588 59524 -59523 0
-63635 59539 63619 59523 -59522 0
-63636 59540 63620 59524 -59523 0
-59524 59556 0
-59620 59556 59588 59524 -59523 0
-63652 59556 63620 59524 -59523 0
-59588 59523 0
-59524 59588 0
-63684 59588 63620 59524 -59523 0
-59523 59779 0
-59523 60035 0
-59523 60547 0
-59523 63619 0
-63620 59523 0
-59528 59536 0
-59552 59536 59544 59528 -59527 0
-59568 59536 59560 59528 -59527 0
-63632 59536 63624 59528 -59527 0
-59544 59527 0
-59528 59544 0
-59800 59544 59784 59528 -59527 0
-60056 59544 60040 59528 -59527 0
-60568 59544 60552 59528 -59527 0
-63640 59544 63624 59528 -59527 0
-59624 59560 59592 59528 -59527 0
-63656 59560 63624 59528 -59527 0
-59528 59592 0
-63688 59592 63624 59528 -59527 0
-63624 59527 0
-59528 63624 0
-59532 59536 0
-59568 59536 59564 59532 -59531 0
-63632 59536 63628 59532 -59531 0
-59532 59548 0
-63644 59548 63628 59532 -59531 0
-59596 59531 0
-59532 59596 0
-59852 59596 59788 59532 -59531 0
-60108 59596 60044 59532 -59531 0
-60620 59596 60556 59532 -59531 0
-63628 59531 0
-59532 63628 0
-59536 59568 0
-59824 59568 59792 59536 -59535 0
-60080 59568 60048 59536 -59535 0
-60592 59568 60560 59536 -59535 0
-63664 59568 63632 59536 -59535 0
-59536 59600 0
-63696 59600 63632 59536 -59535 0
-63888 59792 63632 59536 -59535 0
-64144 60048 63632 59536 -59535 0
-59536 63632 0
-59544 59539 0
-59540 59544 0
-59552 59544 59548 59540 -59539 0
-59576 59544 59572 59540 -59539 0
-63640 59544 63636 59540 -59539 0
-59540 59548 0
-59540 59572 0
-59636 59572 59604 59540 -59539 0
-63668 59572 63636 59540 -59539 0
-63700 59604 63636 59540 -59539 0
-63636 59539 0
-59540 63636 0
-59544 59576 0
-59640 59576 59608 59544 -59543 0
-63672 59576 63640 59544 -59543 0
-59544 59608 0
-59864 59608 59800 59544 -59543 0
-60120 59608 60056 59544 -59543 0
-60632 59608 60568 59544 -59543 0
-63704 59608 63640 59544 -59543 0
-59548 59580 0
-63676 59580 63644 59548 -59547 0
-59548 59612 0
-59548 63644 0
-59556 59560 0
-59576 59560 59572 59556 -59555 0
-59816 59560 59812 59556 -59555 0
-60072 59560 60068 59556 -59555 0
-59556 59564 0
-60076 59564 60068 59556 -59555 0
-63660 59564 63652 59556 -59555 0
-59828 59572 59812 59556 -59555 0
-63668 59572 63652 59556 -59555 0
-59556 59812 0
-63908 59812 63652 59556 -59555 0
-59556 60068 0
-64164 60068 63652 59556 -59555 0
-59556 63652 0
-59560 59568 0
-59584 59568 59576 59560 -59559 0
-59824 59568 59816 59560 -59559 0
-60080 59568 60072 59560 -59559 0
-59560 59576 0
-60088 59576 60072 59560 -59559 0
-63912 59816 63656 59560 -59559 0
-64168 60072 63656 59560 -59559 0
-59564 59568 0
-59564 59580 0
-60092 59580 60076 59564 -59563 0
-63920 59824 63664 59568 -59567 0
-64176 60080 63664 59568 -59567 0
-64688 60592 63664 59568 -59567 0
-59568 63664 0
-59572 59576 0
-59832 59576 59828 59572 -59571 0
-63672 59576 63668 59572 -59571 0
-59572 59580 0
-59836 59580 59828 59572 -59571 0
-63676 59580 63668 59572 -59571 0
-63928 59832 63672 59576 -59575 0
-64184 60088 63672 59576 -59575 0
-64696 60600 63672 59576 -59575 0
-59576 63672 0
-63932 59836 63676 59580 -59579 0
-64188 60092 63676 59580 -59579 0
-59580 63676 0
-59588 59592 0
-59608 59592 59604 59588 -59587 0
-59848 59592 59844 59588 -59587 0
-60104 59592 60100 59588 -59587 0
-60616 59592 60612 59588 -59587 0
-63688 59592 63684 59588 -59587 0
-59588 59596 0
-59612 59596 59604 59588 -59587 0
-63692 59596 63684 59588 -59587 0
-59588 59844 0
-63940 59844 63684 59588 -59587 0
-59588 60100 0
-64196 60100 63684 59588 -59587 0
-59588 63684 0
-59592 59600 0
-59856 59600 59848 59592 -59591 0
-60112 59600 60104 59592 -59591 0
-63696 59600 63688 59592 -59591 0
-59592 59608 0
-59864 59608 59848 59592 -59591 0
-60120 59608 60104 59592 -59591 0
-60632 59608 60616 59592 -59591 0
-63704 59608 63688 59592 -59591 0
-59592 63688 0
-59596 59612 0
-63952 59856 63696 59600 -59599 0
-64208 60112 63696 59600 -59599 0
-64720 60624 63696 59600 -59599 0
-59600 63696 0
-59604 59608 0
-59604 59612 0
-63960 59864 63704 59608 -59607 0
-64216 60120 63704 59608 -59607 0
-64728 60632 63704 59608 -59607 0
-59608 63704 0
-63964 59868 63708 59612 -59611 0
-64220 60124 63708 59612 -59611 0
-59612 63708 0
-59656 59651 0
-59724 59660 59716 59652 -59651 0
-59796 59668 59780 59652 -59651 0
-59651 59683 0
-59651 59715 0
-59656 59664 0
-59672 59655 0
-63768 59672 63752 59656 -59655 0
-60168 59655 0
-60680 59655 0
-63752 59655 0
-59664 59659 0
-59676 59659 0
-59660 59676 0
-63756 59659 0
-59664 60176 0
-64272 60176 63760 59664 -59663 0
-59664 60688 0
-64784 60688 63760 59664 -59663 0
-59664 63760 0
-59672 59667 0
-59676 59667 0
-59668 59676 0
-60180 59667 0
-60692 59667 0
-63764 59667 0
-59672 60184 0
-59672 60696 0
-59676 60188 0
-59676 60700 0
-59688 59683 0
-59700 59683 0
-59720 59715 0
-63820 59724 63812 59716 -59715 0
-59732 59715 0
-64336 60240 63824 59728 -59727 0
-64848 60752 63824 59728 -59727 0
-59748 60260 0
-59748 60772 0
-59784 59779 0
-63892 59796 63876 59780 -59779 0
-59780 59812 0
-59844 59779 0
-63948 59852 63884 59788 -59787 0
-63920 59824 63888 59792 -59791 0
-59812 59816 0
-59812 60324 0
-59812 60836 0
-64932 60836 63908 59812 -59811 0
-63920 59824 63912 59816 -59815 0
-59816 63912 0
-59844 60356 0
-59844 60868 0
-59912 59907 0
-59908 59912 0
-59908 59916 0
-59980 59916 59972 59908 -59907 0
-60052 59924 60036 59908 -59907 0
-59907 59939 0
-59907 59971 0
-59920 59911 0
-59912 59920 0
-59928 59911 0
-59912 59928 0
-60168 59911 0
-60936 59911 0
-64008 59911 0
-59920 59915 0
-59932 59915 0
-59916 59932 0
-64012 59915 0
-59920 60176 0
-64272 60176 64016 59920 -59919 0
-59920 60944 0
-65040 60944 64016 59920 -59919 0
-59928 59923 0
-59932 59923 0
-59924 59932 0
-60180 59923 0
-60948 59923 0
-64020 59923 0
-59928 60184 0
-59928 60952 0
-59932 60188 0
-59932 60956 0
-59944 59939 0
-59956 59939 0
-59976 59971 0
-64076 59980 64068 59972 -59971 0
-59988 59971 0
-60004 61028 0
-60040 60035 0
-64148 60052 64132 60036 -60035 0
-60036 60068 0
-60100 60035 0
-64204 60108 64140 60044 -60043 0
-64176 60080 64144 60048 -60047 0
-60068 60324 0
-60068 61092 0
-64176 60080 64168 60072 -60071 0
-60072 64168 0
-60100 61124 0
-60164 60168 0
-60164 60172 0
-60168 60176 0
-60168 60184 0
-60172 60188 0
-60420 60424 0
-60420 60428 0
-60419 60451 0
-60419 60483 0
-60432 60423 0
-60424 60432 0
-60440 60423 0
-60424 60440 0
-60680 60423 0
-60936 60423 0
-64520 60423 0
-60432 60427 0
-60444 60427 0
-60428 60444 0
-64524 60427 0
-60528 60464 60496 60432 -60431 0
-60432 60688 0
-64784 60688 64528 60432 -60431 0
-60432 60944 0
-65040 60944 64528 60432 -60431 0
-60432 64528 0
-60440 60435 0
-60444 60435 0
-60692 60435 0
-60948 60435 0
-64532 60435 0
-60440 60696 0
-60440 60952 0
-60444 60700 0
-60444 60956 0
-60456 60451 0
-60468 60451 0
-60488 60483 0
-60500 60483 0
-64624 60528 64592 60496 -60495 0
-60496 64592 0
-60516 61028 0
-60552 60547 0
-60612 60547 0
-64716 60620 64652 60556 -60555 0
-64688 60592 64656 60560 -60559 0
-60680 60688 0
-60936 60944 0
-61443 61447 0
-61448 61443 0
-61444 61448 0
-61479 61447 61475 61443 -61442 0
-61511 61447 61507 61443 -61442 0
-61512 61448 61508 61444 -61443 0
-61575 61447 61571 61443 -61442 0
-61703 61447 61699 61443 -61442 0
-61959 61447 61955 61443 -61442 0
-62471 61447 62467 61443 -61442 0
-63495 61447 63491 61443 -61442 0
-63496 61448 63492 61444 -61443 0
-61443 61451 0
-61452 61443 0
-61444 61452 0
-61483 61451 61475 61443 -61442 0
-61515 61451 61507 61443 -61442 0
-61579 61451 61571 61443 -61442 0
-63499 61451 63491 61443 -61442 0
-63500 61452 63492 61444 -61443 0
-61443 61459 0
-61460 61443 0
-61523 61459 61507 61443 -61442 0
-61587 61459 61571 61443 -61442 0
-63507 61459 63491 61443 -61442 0
-63508 61460 63492 61444 -61443 0
-61443 61475 0
-61476 61443 0
-61539 61475 61507 61443 -61442 0
-63523 61475 63491 61443 -61442 0
-61443 61507 0
-61508 61443 0
-61635 61507 61571 61443 -61442 0
-61763 61507 61699 61443 -61442 0
-62019 61507 61955 61443 -61442 0
-62531 61507 62467 61443 -61442 0
-63555 61507 63491 61443 -61442 0
-63556 61508 63492 61444 -61443 0
-61443 61571 0
-61572 61443 0
-61827 61571 61699 61443 -61442 0
-62083 61571 61955 61443 -61442 0
-62595 61571 62467 61443 -61442 0
-63619 61571 63491 61443 -61442 0
-63620 61572 63492 61444 -61443 0
-61443 61699 0
-61700 61443 0
-63748 61700 63492 61444 -61443 0
-61443 61955 0
-61956 61443 0
-64004 61956 63492 61444 -61443 0
-62468 61443 0
-64516 62468 63492 61444 -61443 0
-61443 63491 0
-63492 61443 0
-61444 63492 0
-61448 61456 0
-61472 61456 61464 61448 -61447 0
-61488 61456 61480 61448 -61447 0
-61520 61456 61512 61448 -61447 0
-63504 61456 63496 61448 -61447 0
-61448 61464 0
-61528 61464 61512 61448 -61447 0
-61592 61464 61576 61448 -61447 0
-63512 61464 63496 61448 -61447 0
-61447 61479 0
-61480 61447 0
-61448 61480 0
-63527 61479 63495 61447 -61446 0
-63528 61480 63496 61448 -61447 0
-61447 61511 0
-61640 61512 61576 61448 -61447 0
-63559 61511 63495 61447 -61446 0
-63560 61512 63496 61448 -61447 0
-61447 61575 0
-63623 61575 63495 61447 -61446 0
-63624 61576 63496 61448 -61447 0
-61447 61703 0
-63751 61703 63495 61447 -61446 0
-61447 61959 0
-64007 61959 63495 61447 -61446 0
-61447 62471 0
-64519 62471 63495 61447 -61446 0
-61447 63495 0
-63496 61447 0
-61448 63496 0
-61456 61451 0
-61452 61456 0
-61472 61456 61468 61452 -61451 0
-61488 61456 61484 61452 -61451 0
-61584 61456 61580 61452 -61451 0
-63504 61456 63500 61452 -61451 0
-61452 61468 0
-61500 61468 61484 61452 -61451 0
-61532 61468 61516 61452 -61451 0
-61596 61468 61580 61452 -61451 0
-63516 61468 63500 61452 -61451 0
-61451 61483 0
-63531 61483 63499 61451 -61450 0
-63532 61484 63500 61452 -61451 0
-61451 61515 0
-61516 61451 0
-63564 61516 63500 61452 -61451 0
-61451 61579 0
-63628 61580 63500 61452 -61451 0
-61451 61707 0
-63756 61708 63500 61452 -61451 0
-61451 61963 0
-64012 61964 63500 61452 -61451 0
-61451 62475 0
-63500 61451 0
-61452 63500 0
-61456 61488 0
-61744 61488 61712 61456 -61455 0
-62000 61488 61968 61456 -61455 0
-62512 61488 62480 61456 -61455 0
-63536 61488 63504 61456 -61455 0
-61456 61520 0
-61776 61520 61712 61456 -61455 0
-62032 61520 61968 61456 -61455 0
-62544 61520 62480 61456 -61455 0
-62096 61584 61968 61456 -61455 0
-62608 61584 62480 61456 -61455 0
-63632 61584 63504 61456 -61455 0
-61456 61712 0
-61456 61968 0
-61456 63504 0
-61464 61459 0
-61460 61464 0
-61472 61464 61468 61460 -61459 0
-61528 61464 61524 61460 -61459 0
-61592 61464 61588 61460 -61459 0
-61460 61468 0
-63516 61468 63508 61460 -61459 0
-61459 61491 0
-61492 61459 0
-61460 61492 0
-63540 61492 63508 61460 -61459 0
-61459 61523 0
-61524 61459 0
-61460 61524 0
-63572 61524 63508 61460 -61459 0
-61459 61587 0
-61460 61588 0
-63635 61587 63507 61459 -61458 0
-63636 61588 63508 61460 -61459 0
-61459 61715 0
-61459 61971 0
-61459 62483 0
-63508 61459 0
-61464 61496 0
-61560 61496 61528 61464 -61463 0
-61752 61496 61720 61464 -61463 0
-62008 61496 61976 61464 -61463 0
-62520 61496 62488 61464 -61463 0
-63544 61496 63512 61464 -61463 0
-61464 61528 0
-61784 61528 61720 61464 -61463 0
-62040 61528 61976 61464 -61463 0
-62552 61528 62488 61464 -61463 0
-63576 61528 63512 61464 -61463 0
-61464 61592 0
-61848 61592 61720 61464 -61463 0
-62104 61592 61976 61464 -61463 0
-62616 61592 62488 61464 -61463 0
-63640 61592 63512 61464 -61463 0
-61464 61720 0
-63768 61720 63512 61464 -61463 0
-61464 61976 0
-64024 61976 63512 61464 -61463 0
-61464 63512 0
-61468 61500 0
-61628 61500 61596 61468 -61467 0
-61756 61500 61724 61468 -61467 0
-62012 61500 61980 61468 -61467 0
-62524 61500 62492 61468 -61467 0
-63548 61500 63516 61468 -61467 0
-61468 61532 0
-61788 61532 61724 61468 -61467 0
-62044 61532 61980 61468 -61467 0
-61468 61596 0
-61852 61596 61724 61468 -61467 0
-62108 61596 61980 61468 -61467 0
-62620 61596 62492 61468 -61467 0
-63644 61596 63516 61468 -61467 0
-61468 61724 0
-63772 61724 63516 61468 -61467 0
-61468 61980 0
-64028 61980 63516 61468 -61467 0
-64540 62492 63516 61468 -61467 0
-61468 63516 0
-61475 61479 0
-61476 61480 0
-61475 61483 0
-61484 61475 0
-61476 61484 0
-61548 61484 61540 61476 -61475 0
-61475 61491 0
-61556 61492 61540 61476 -61475 0
-61620 61492 61604 61476 -61475 0
-63540 61492 63524 61476 -61475 0
-61540 61475 0
-61476 61540 0
-61668 61540 61604 61476 -61475 0
-63588 61540 63524 61476 -61475 0
-61604 61475 0
-61476 61604 0
-63652 61604 63524 61476 -61475 0
-61475 61731 0
-61475 61987 0
-61475 62499 0
-63524 61475 0
-61488 61479 0
-61480 61488 0
-62000 61488 61992 61480 -61479 0
-62512 61488 62504 61480 -61479 0
-61496 61479 0
-61480 61496 0
-63544 61496 63528 61480 -61479 0
-63592 61544 63528 61480 -61479 0
-63656 61608 63528 61480 -61479 0
-63528 61479 0
-61480 63528 0
-61484 61488 0
-61552 61488 61548 61484 -61483 0
-61484 61500 0
-61548 61483 0
-61612 61483 0
-61484 61612 0
-63532 61483 0
-61488 61552 0
-61808 61552 61744 61488 -61487 0
-62064 61552 62000 61488 -61487 0
-62576 61552 62512 61488 -61487 0
-61488 61616 0
-62256 61744 62000 61488 -61487 0
-63792 61744 63536 61488 -61487 0
-64048 62000 63536 61488 -61487 0
-61496 61491 0
-61492 61496 0
-61624 61496 61620 61492 -61491 0
-61492 61500 0
-63604 61556 63540 61492 -61491 0
-61620 61491 0
-61492 61620 0
-63668 61620 63540 61492 -61491 0
-63540 61491 0
-61492 63540 0
-61496 61560 0
-63608 61560 63544 61496 -61495 0
-61496 61624 0
-61880 61624 61752 61496 -61495 0
-62136 61624 62008 61496 -61495 0
-62648 61624 62520 61496 -61495 0
-63672 61624 63544 61496 -61495 0
-61496 63544 0
-61500 61564 0
-62076 61564 62012 61500 -61499 0
-62588 61564 62524 61500 -61499 0
-63612 61564 63548 61500 -61499 0
-61500 61628 0
-61884 61628 61756 61500 -61499 0
-62140 61628 62012 61500 -61499 0
-63676 61628 63548 61500 -61499 0
-61500 63548 0
-61507 61511 0
-61508 61512 0
-61520 61512 61516 61508 -61507 0
-61528 61512 61524 61508 -61507 0
-61544 61512 61540 61508 -61507 0
-61640 61512 61636 61508 -61507 0
-63559 61511 63555 61507 -61506 0
-63560 61512 63556 61508 -61507 0
-61507 61515 0
-61516 61507 0
-61508 61516 0
-61644 61516 61636 61508 -61507 0
-63563 61515 63555 61507 -61506 0
-63564 61516 63556 61508 -61507 0
-61507 61523 0
-61524 61507 0
-63571 61523 63555 61507 -61506 0
-63572 61524 63556 61508 -61507 0
-61540 61507 0
-61508 61540 0
-61668 61540 61636 61508 -61507 0
-63588 61540 63556 61508 -61507 0
-61636 61507 0
-63684 61636 63556 61508 -61507 0
-61507 61763 0
-63811 61763 63555 61507 -61506 0
-61507 62019 0
-64067 62019 63555 61507 -61506 0
-61507 62531 0
-64579 62531 63555 61507 -61506 0
-61507 63555 0
-63556 61507 0
-61508 63556 0
-61512 61520 0
-61536 61520 61528 61512 -61511 0
-61648 61520 61640 61512 -61511 0
-63568 61520 63560 61512 -61511 0
-61512 61528 0
-63576 61528 63560 61512 -61511 0
-61672 61544 61640 61512 -61511 0
-63592 61544 63560 61512 -61511 0
-63688 61640 63560 61512 -61511 0
-63560 61511 0
-61512 63560 0
-61520 61515 0
-61516 61520 0
-61536 61520 61532 61516 -61515 0
-61532 61515 0
-61516 61532 0
-63580 61532 63564 61516 -61515 0
-61548 61515 0
-61804 61548 61772 61516 -61515 0
-63596 61548 63564 61516 -61515 0
-63564 61515 0
-61516 63564 0
-61520 61552 0
-61808 61552 61776 61520 -61519 0
-62064 61552 62032 61520 -61519 0
-62576 61552 62544 61520 -61519 0
-63600 61552 63568 61520 -61519 0
-61520 61648 0
-61904 61648 61776 61520 -61519 0
-62672 61648 62544 61520 -61519 0
-63696 61648 63568 61520 -61519 0
-61520 62032 0
-61520 63568 0
-61528 61523 0
-61524 61528 0
-61524 61532 0
-63580 61532 63572 61524 -61523 0
-61524 61556 0
-61524 61652 0
-63700 61652 63572 61524 -61523 0
-63572 61523 0
-61524 63572 0
-61528 61560 0
-61816 61560 61784 61528 -61527 0
-62072 61560 62040 61528 -61527 0
-62584 61560 62552 61528 -61527 0
-63608 61560 63576 61528 -61527 0
-61528 61656 0
-62680 61656 62552 61528 -61527 0
-63704 61656 63576 61528 -61527 0
-61528 61784 0
-61528 62040 0
-61528 63576 0
-61532 61564 0
-61820 61564 61788 61532 -61531 0
-62076 61564 62044 61532 -61531 0
-63612 61564 63580 61532 -61531 0
-61532 61660 0
-63708 61660 63580 61532 -61531 0
-61532 61788 0
-61532 62044 0
-61532 63580 0
-61540 61544 0
-61552 61544 61548 61540 -61539 0
-61800 61544 61796 61540 -61539 0
-62568 61544 62564 61540 -61539 0
-61540 61548 0
-61812 61556 61796 61540 -61539 0
-61540 61796 0
-63844 61796 63588 61540 -61539 0
-61540 62052 0
-64100 62052 63588 61540 -61539 0
-64612 62564 63588 61540 -61539 0
-61544 61552 0
-61568 61552 61560 61544 -61543 0
-61808 61552 61800 61544 -61543 0
-62576 61552 62568 61544 -61543 0
-61544 61560 0
-61808 61552 61804 61548 -61547 0
-61548 61564 0
-63856 61808 63600 61552 -61551 0
-64112 62064 63600 61552 -61551 0
-64624 62576 63600 61552 -61551 0
-61556 61560 0
-61816 61560 61812 61556 -61555 0
-61556 61564 0
-61820 61564 61812 61556 -61555 0
-61556 61812 0
-63864 61816 63608 61560 -61559 0
-64120 62072 63608 61560 -61559 0
-64632 62584 63608 61560 -61559 0
-61560 63608 0
-63868 61820 63612 61564 -61563 0
-64124 62076 63612 61564 -61563 0
-64636 62588 63612 61564 -61563 0
-61564 63612 0
-61571 61575 0
-61576 61571 0
-61592 61576 61588 61572 -61571 0
-61640 61576 61636 61572 -61571 0
-63623 61575 63619 61571 -61570 0
-63624 61576 63620 61572 -61571 0
-61571 61579 0
-61580 61571 0
-61572 61580 0
-61644 61580 61636 61572 -61571 0
-63627 61579 63619 61571 -61570 0
-61571 61587 0
-61588 61571 0
-61572 61588 0
-63635 61587 63619 61571 -61570 0
-61604 61571 0
-61572 61604 0
-61668 61604 61636 61572 -61571 0
-63652 61604 63620 61572 -61571 0
-61636 61571 0
-63684 61636 63620 61572 -61571 0
-61571 61827 0
-61828 61571 0
-63875 61827 63619 61571 -61570 0
-61571 62083 0
-62084 61571 0
-64131 62083 63619 61571 -61570 0
-61571 62595 0
-64643 62595 63619 61571 -61570 0
-61571 63619 0
-63620 61571 0
-61576 61584 0
-63632 61584 63624 61576 -61575 0
-61592 61575 0
-61576 61592 0
-63640 61592 63624 61576 -61575 0
-61672 61608 61640 61576 -61575 0
-63656 61608 63624 61576 -61575 0
-61576 61640 0
-63688 61640 63624 61576 -61575 0
-63624 61575 0
-61576 63624 0
-61580 61584 0
-63632 61584 63628 61580 -61579 0
-61580 61596 0
-61660 61596 61644 61580 -61579 0
-61612 61579 0
-61580 61612 0
-63628 61579 0
-61584 61616 0
-61872 61616 61840 61584 -61583 0
-62128 61616 62096 61584 -61583 0
-61584 61648 0
-61904 61648 61840 61584 -61583 0
-62160 61648 62096 61584 -61583 0
-61584 61840 0
-61584 62096 0
-61592 61587 0
-61588 61592 0
-61588 61596 0
-63644 61596 63636 61588 -61587 0
-61620 61587 0
-63700 61652 63636 61588 -61587 0
-63636 61587 0
-61588 63636 0
-61592 61624 0
-61880 61624 61848 61592 -61591 0
-62136 61624 62104 61592 -61591 0
-63672 61624 63640 61592 -61591 0
-61592 61656 0
-61912 61656 61848 61592 -61591 0
-62168 61656 62104 61592 -61591 0
-62680 61656 62616 61592 -61591 0
-63704 61656 63640 61592 -61591 0
-61592 61848 0
-61592 62104 0
-61592 63640 0
-61596 61628 0
-62140 61628 62108 61596 -61595 0
-61596 61660 0
-61916 61660 61852 61596 -61595 0
-62172 61660 62108 61596 -61595 0
-62684 61660 62620 61596 -61595 0
-63708 61660 63644 61596 -61595 0
-61596 62108 0
-61604 61608 0
-61864 61608 61860 61604 -61603 0
-62120 61608 62116 61604 -61603 0
-61604 61612 0
-61868 61612 61860 61604 -61603 0
-62124 61612 62116 61604 -61603 0
-61876 61620 61860 61604 -61603 0
-61604 61860 0
-61604 62116 0
-61604 63652 0
-61608 61616 0
-61872 61616 61864 61608 -61607 0
-62128 61616 62120 61608 -61607 0
-61608 61624 0
-61880 61624 61864 61608 -61607 0
-63912 61864 63656 61608 -61607 0
-64168 62120 63656 61608 -61607 0
-61612 61628 0
-61884 61628 61868 61612 -61611 0
-62140 61628 62124 61612 -61611 0
-63920 61872 63664 61616 -61615 0
-64176 62128 63664 61616 -61615 0
-61620 61628 0
-61884 61628 61876 61620 -61619 0
-63928 61880 63672 61624 -61623 0
-64184 62136 63672 61624 -61623 0
-64696 62648 63672 61624 -61623 0
-61624 63672 0
-63932 61884 63676 61628 -61627 0
-64188 62140 63676 61628 -61627 0
-61628 63676 0
-61636 61640 0
-61656 61640 61652 61636 -61635 0
-61636 61644 0
-61908 61652 61892 61636 -61635 0
-62164 61652 62148 61636 -61635 0
-61636 61892 0
-61636 62148 0
-61636 63684 0
-61640 61648 0
-63696 61648 63688 61640 -61639 0
-61640 61656 0
-63704 61656 63688 61640 -61639 0
-61640 63688 0
-61644 61660 0
-63952 61904 63696 61648 -61647 0
-64720 62672 63696 61648 -61647 0
-61652 61656 0
-61912 61656 61908 61652 -61651 0
-62168 61656 62164 61652 -61651 0
-61652 61660 0
-63960 61912 63704 61656 -61655 0
-64216 62168 63704 61656 -61655 0
-64728 62680 63704 61656 -61655 0
-63964 61916 63708 61660 -61659 0
-64220 62172 63708 61660 -61659 0
-64732 62684 63708 61660 -61659 0
-61660 63708 0
-61699 61703 0
-61699 61707 0
-61699 61715 0
-61699 61763 0
-63876 61828 63748 61700 -61699 0
-61700 62212 0
-63236 62212 62724 61700 -61699 0
-63748 61699 0
-61720 61703 0
-63752 61703 0
-61708 61712 0
-61724 61707 0
-61772 61707 0
-63756 61707 0
-61808 61744 61776 61712 -61711 0
-62768 61744 62736 61712 -61711 0
-61712 62224 0
-61712 62736 0
-61712 63760 0
-61720 61715 0
-61724 61715 0
-63764 61715 0
-62776 61752 62744 61720 -61719 0
-61720 62232 0
-61720 62744 0
-62812 61788 62748 61724 -61723 0
-61724 62236 0
-61724 62748 0
-61796 61731 0
-62320 61808 62256 61744 -61743 0
-61796 61763 0
-63856 61808 63824 61776 -61775 0
-62840 61816 62808 61784 -61783 0
-61784 62808 0
-62844 61820 62812 61788 -61787 0
-61788 62812 0
-62312 61800 62308 61796 -61795 0
-62324 61812 62308 61796 -61795 0
-61796 62308 0
-61796 62820 0
-62328 61816 62324 61812 -61811 0
-62332 61820 62324 61812 -61811 0
-61812 62324 0
-61892 61827 0
-62896 61872 62864 61840 -61839 0
-62928 61904 62864 61840 -61839 0
-61840 62864 0
-62904 61880 62872 61848 -61847 0
-62936 61912 62872 61848 -61847 0
-61848 62872 0
-62376 61864 62372 61860 -61859 0
-62380 61868 62372 61860 -61859 0
-61860 62372 0
-61860 62884 0
-62384 61872 62376 61864 -61863 0
-62392 61880 62376 61864 -61863 0
-62396 61884 62380 61868 -61867 0
-61892 62404 0
-61892 62916 0
-61955 61959 0
-61956 61960 0
-61955 61963 0
-61955 61971 0
-61955 62019 0
-64132 62084 64004 61956 -61955 0
-61956 62212 0
-63236 62212 62980 61956 -61955 0
-64004 61955 0
-61976 61959 0
-61960 61976 0
-64008 61959 0
-61968 61963 0
-61964 61968 0
-61980 61963 0
-64012 61963 0
-62064 62000 62032 61968 -61967 0
-63024 62000 62992 61968 -61967 0
-63056 62032 62992 61968 -61967 0
-63120 62096 62992 61968 -61967 0
-61968 62224 0
-61968 62992 0
-61968 64016 0
-61976 61971 0
-61980 61971 0
-64020 61971 0
-63032 62008 63000 61976 -61975 0
-63064 62040 63000 61976 -61975 0
-63128 62104 63000 61976 -61975 0
-61976 62232 0
-61976 63000 0
-63036 62012 63004 61980 -61979 0
-63068 62044 63004 61980 -61979 0
-63132 62108 63004 61980 -61979 0
-61980 62236 0
-61980 63004 0
-61992 61987 0
-62052 61987 0
-62052 62019 0
-63088 62064 63056 62032 -62031 0
-64112 62064 64080 62032 -62031 0
-62032 63056 0
-63096 62072 63064 62040 -62039 0
-62040 63064 0
-63100 62076 63068 62044 -62043 0
-62044 63068 0
-62052 63076 0
-62148 62083 0
-63152 62128 63120 62096 -62095 0
-63184 62160 63120 62096 -62095 0
-62096 63120 0
-63160 62136 63128 62104 -62103 0
-63192 62168 63128 62104 -62103 0
-62104 63128 0
-63164 62140 63132 62108 -62107 0
-63196 62172 63132 62108 -62107 0
-62108 63132 0
-62116 63140 0
-62148 63172 0
-62212 62216 0
-62212 62220 0
-62236 62220 62228 62212 -62211 0
-62284 62220 62276 62212 -62211 0
-62260 62228 62244 62212 -62211 0
-62292 62228 62276 62212 -62211 0
-62212 62244 0
-62212 62276 0
-62216 62224 0
-62216 62232 0
-62220 62224 0
-62288 62224 62284 62220 -62219 0
-62220 62236 0
-64336 62288 64272 62224 -62223 0
-62228 62232 0
-62296 62232 62292 62228 -62227 0
-62228 62236 0
-62300 62236 62292 62228 -62227 0
-62324 62260 62308 62244 -62243 0
-62244 62308 0
-62244 62372 0
-62412 62284 62404 62276 -62275 0
-62420 62292 62404 62276 -62275 0
-62276 62404 0
-62416 62288 62412 62284 -62283 0
-62424 62296 62420 62292 -62291 0
-62428 62300 62420 62292 -62291 0
-62328 62312 62324 62308 -62307 0
-62467 62471 0
-62468 62472 0
-62467 62475 0
-62467 62483 0
-62468 62500 0
-62467 62531 0
-62468 62532 0
-64516 62467 0
-62472 62480 0
-62488 62471 0
-62472 62488 0
-64520 62471 0
-62480 62475 0
-62492 62475 0
-64524 62475 0
-62576 62512 62544 62480 -62479 0
-62768 62512 62736 62480 -62479 0
-62800 62544 62736 62480 -62479 0
-62864 62608 62736 62480 -62479 0
-62480 62736 0
-62480 62992 0
-62480 64528 0
-62488 62483 0
-62492 62483 0
-64532 62483 0
-62808 62552 62744 62488 -62487 0
-62872 62616 62744 62488 -62487 0
-62488 62744 0
-62488 63000 0
-62780 62524 62748 62492 -62491 0
-62876 62620 62748 62492 -62491 0
-62492 62748 0
-62504 62499 0
-62564 62499 0
-62500 62564 0
-62500 62628 0
-64548 62499 0
-62564 62531 0
-62532 62660 0
-64624 62576 64592 62544 -62543 0
-62544 64592 0
-62564 62820 0
-62564 63076 0
-62628 62884 0
-62628 63140 0
-62660 62916 0
-62660 63172 0
-62724 62756 0
-62724 62788 0
-62832 62768 62800 62736 -62735 0
-62896 62768 62864 62736 -62735 0
-62904 62776 62872 62744 -62743 0
-62908 62780 62876 62748 -62747 0
-62940 62812 62876 62748 -62747 0
-62756 62820 0
-62756 62884 0
-62788 62916 0
-62980 63044 0
-62980 63108 0
-63152 63024 63120 62992 -62991 0
-63160 63032 63128 63000 -62999 0
-63164 63036 63132 63004 -63003 0
-63044 63076 0
-63044 63172 0
-63108 63140 0
-63491 63495 0
-63496 63491 0
-63492 63496 0
-63504 63496 63500 63492 -63491 0
-63512 63496 63508 63492 -63491 0
-63527 63495 63523 63491 -63490 0
-63528 63496 63524 63492 -63491 0
-63560 63496 63556 63492 -63491 0
-63623 63495 63619 63491 -63490 0
-63624 63496 63620 63492 -63491 0
-63751 63495 63747 63491 -63490 0
-64008 63496 64004 63492 -63491 0
-64520 63496 64516 63492 -63491 0
-63491 63499 0
-63500 63491 0
-63492 63500 0
-63516 63500 63508 63492 -63491 0
-63531 63499 63523 63491 -63490 0
-63532 63500 63524 63492 -63491 0
-63563 63499 63555 63491 -63490 0
-63564 63500 63556 63492 -63491 0
-63627 63499 63619 63491 -63490 0
-63628 63500 63620 63492 -63491 0
-63756 63500 63748 63492 -63491 0
-64012 63500 64004 63492 -63491 0
-64524 63500 64516 63492 -63491 0
-63491 63507 0
-63508 63491 0
-63492 63508 0
-63539 63507 63523 63491 -63490 0
-63571 63507 63555 63491 -63490 0
-63572 63508 63556 63492 -63491 0
-63635 63507 63619 63491 -63490 0
-63636 63508 63620 63492 -63491 0
-64020 63508 64004 63492 -63491 0
-64532 63508 64516 63492 -63491 0
-63491 63523 0
-63524 63491 0
-63588 63524 63556 63492 -63491 0
-63652 63524 63620 63492 -63491 0
-64036 63524 64004 63492 -63491 0
-64548 63524 64516 63492 -63491 0
-63491 63555 0
-63556 63491 0
-63684 63556 63620 63492 -63491 0
-63812 63556 63748 63492 -63491 0
-64068 63556 64004 63492 -63491 0
-64580 63556 64516 63492 -63491 0
-63491 63619 0
-63620 63491 0
-63748 63491 0
-63492 63748 0
-64004 63491 0
-63492 64004 0
-64516 63491 0
-63492 64516 0
-63504 63495 0
-63496 63504 0
-63520 63504 63512 63496 -63495 0
-63536 63504 63528 63496 -63495 0
-63568 63504 63560 63496 -63495 0
-63632 63504 63624 63496 -63495 0
-63760 63504 63752 63496 -63495 0
-64016 63504 64008 63496 -63495 0
-64528 63504 64520 63496 -63495 0
-63512 63495 0
-63496 63512 0
-63544 63512 63528 63496 -63495 0
-63576 63512 63560 63496 -63495 0
-63640 63512 63624 63496 -63495 0
-63768 63512 63752 63496 -63495 0
-64024 63512 64008 63496 -63495 0
-64536 63512 64520 63496 -63495 0
-63528 63495 0
-63496 63528 0
-63592 63528 63560 63496 -63495 0
-63656 63528 63624 63496 -63495 0
-63784 63528 63752 63496 -63495 0
-64040 63528 64008 63496 -63495 0
-64552 63528 64520 63496 -63495 0
-63560 63495 0
-63496 63560 0
-63688 63560 63624 63496 -63495 0
-64584 63560 64520 63496 -63495 0
-63624 63495 0
-63496 63624 0
-63496 63752 0
-63496 64008 0
-64520 63495 0
-63496 64520 0
-63504 63499 0
-63500 63504 0
-63520 63504 63516 63500 -63499 0
-63568 63504 63564 63500 -63499 0
-63632 63504 63628 63500 -63499 0
-63760 63504 63756 63500 -63499 0
-64016 63504 64012 63500 -63499 0
-64528 63504 64524 63500 -63499 0
-63516 63499 0
-63500 63516 0
-63548 63516 63532 63500 -63499 0
-63580 63516 63564 63500 -63499 0
-63644 63516 63628 63500 -63499 0
-63532 63499 0
-63500 63532 0
-63660 63532 63628 63500 -63499 0
-63788 63532 63756 63500 -63499 0
-64044 63532 64012 63500 -63499 0
-64556 63532 64524 63500 -63499 0
-63564 63499 0
-64076 63564 64012 63500 -63499 0
-64588 63564 64524 63500 -63499 0
-63628 63499 0
-63500 63628 0
-63500 63756 0
-63500 64012 0
-65036 64012 64524 63500 -63499 0
-64524 63499 0
-63500 64524 0
-63504 63536 0
-63792 63536 63760 63504 -63503 0
-64048 63536 64016 63504 -63503 0
-64560 63536 64528 63504 -63503 0
-63504 63568 0
-63824 63568 63760 63504 -63503 0
-64080 63568 64016 63504 -63503 0
-64592 63568 64528 63504 -63503 0
-63504 63632 0
-63888 63632 63760 63504 -63503 0
-64144 63632 64016 63504 -63503 0
-64656 63632 64528 63504 -63503 0
-63512 63507 0
-63508 63512 0
-63520 63512 63516 63508 -63507 0
-63544 63512 63540 63508 -63507 0
-63576 63512 63572 63508 -63507 0
-63640 63512 63636 63508 -63507 0
-63516 63507 0
-63508 63516 0
-63548 63516 63540 63508 -63507 0
-63580 63516 63572 63508 -63507 0
-64028 63516 64020 63508 -63507 0
-64540 63516 64532 63508 -63507 0
-63540 63507 0
-63508 63540 0
-63572 63507 0
-63508 63572 0
-63636 63507 0
-63508 63636 0
-63508 63764 0
-63508 64020 0
-64532 63507 0
-63508 64532 0
-63512 63544 0
-63672 63544 63640 63512 -63511 0
-63800 63544 63768 63512 -63511 0
-64056 63544 64024 63512 -63511 0
-63512 63576 0
-63704 63576 63640 63512 -63511 0
-63832 63576 63768 63512 -63511 0
-64088 63576 64024 63512 -63511 0
-64600 63576 64536 63512 -63511 0
-63512 63640 0
-63512 63768 0
-63512 64024 0
-63512 64536 0
-63516 63548 0
-63612 63548 63580 63516 -63515 0
-63676 63548 63644 63516 -63515 0
-63804 63548 63772 63516 -63515 0
-64060 63548 64028 63516 -63515 0
-64572 63548 64540 63516 -63515 0
-63516 63580 0
-63836 63580 63772 63516 -63515 0
-64092 63580 64028 63516 -63515 0
-64604 63580 64540 63516 -63515 0
-63516 63644 0
-63528 63523 0
-63524 63528 0
-63536 63528 63532 63524 -63523 0
-63544 63528 63540 63524 -63523 0
-63656 63528 63652 63524 -63523 0
-64040 63528 64036 63524 -63523 0
-64552 63528 64548 63524 -63523 0
-63532 63523 0
-63524 63532 0
-63548 63532 63540 63524 -63523 0
-63596 63532 63588 63524 -63523 0
-63660 63532 63652 63524 -63523 0
-63540 63523 0
-63524 63540 0
-63604 63540 63588 63524 -63523 0
-63668 63540 63652 63524 -63523 0
-63588 63523 0
-63716 63588 63652 63524 -63523 0
-63652 63523 0
-63524 63652 0
-63780 63523 0
-64036 63523 0
-64548 63523 0
-63524 64548 0
-63528 63536 0
-63552 63536 63544 63528 -63527 0
-63792 63536 63784 63528 -63527 0
-64048 63536 64040 63528 -63527 0
-64560 63536 64552 63528 -63527 0
-63528 63544 0
-63672 63544 63656 63528 -63527 0
-63528 63592 0
-64104 63592 64040 63528 -63527 0
-64616 63592 64552 63528 -63527 0
-63528 63656 0
-63532 63536 0
-63552 63536 63548 63532 -63531 0
-63792 63536 63788 63532 -63531 0
-64048 63536 64044 63532 -63531 0
-64560 63536 64556 63532 -63531 0
-63532 63548 0
-63612 63548 63596 63532 -63531 0
-63804 63548 63788 63532 -63531 0
-64060 63548 64044 63532 -63531 0
-64572 63548 64556 63532 -63531 0
-63916 63660 63788 63532 -63531 0
-64172 63660 64044 63532 -63531 0
-64684 63660 64556 63532 -63531 0
-63536 63600 0
-63856 63600 63792 63536 -63535 0
-63536 63664 0
-63920 63664 63792 63536 -63535 0
-64176 63664 64048 63536 -63535 0
-64688 63664 64560 63536 -63535 0
-63540 63544 0
-63552 63544 63548 63540 -63539 0
-63672 63544 63668 63540 -63539 0
-63800 63544 63796 63540 -63539 0
-64568 63544 64564 63540 -63539 0
-63540 63548 0
-63612 63548 63604 63540 -63539 0
-63676 63548 63668 63540 -63539 0
-63804 63548 63796 63540 -63539 0
-64060 63548 64052 63540 -63539 0
-64572 63548 64564 63540 -63539 0
-63732 63604 63668 63540 -63539 0
-63540 63668 0
-63544 63608 0
-63736 63608 63672 63544 -63543 0
-63544 63672 0
-63928 63672 63800 63544 -63543 0
-64184 63672 64056 63544 -63543 0
-64696 63672 64568 63544 -63543 0
-63548 63612 0
-63868 63612 63804 63548 -63547 0
-64124 63612 64060 63548 -63547 0
-64636 63612 64572 63548 -63547 0
-63548 63676 0
-63932 63676 63804 63548 -63547 0
-64188 63676 64060 63548 -63547 0
-64700 63676 64572 63548 -63547 0
-63560 63555 0
-63556 63560 0
-63568 63560 63564 63556 -63555 0
-63576 63560 63572 63556 -63555 0
-63592 63560 63588 63556 -63555 0
-63688 63560 63684 63556 -63555 0
-63564 63555 0
-63556 63564 0
-63580 63564 63572 63556 -63555 0
-63692 63564 63684 63556 -63555 0
-63820 63564 63812 63556 -63555 0
-64076 63564 64068 63556 -63555 0
-64588 63564 64580 63556 -63555 0
-63572 63555 0
-63556 63572 0
-63700 63572 63684 63556 -63555 0
-63716 63588 63684 63556 -63555 0
-63844 63588 63812 63556 -63555 0
-64100 63588 64068 63556 -63555 0
-64612 63588 64580 63556 -63555 0
-63684 63555 0
-63556 63684 0
-63560 63568 0
-63584 63568 63576 63560 -63559 0
-63600 63568 63592 63560 -63559 0
-63696 63568 63688 63560 -63559 0
-64592 63568 64584 63560 -63559 0
-63560 63576 0
-63608 63576 63592 63560 -63559 0
-63704 63576 63688 63560 -63559 0
-63560 63592 0
-63720 63592 63688 63560 -63559 0
-63560 63688 0
-63564 63568 0
-63584 63568 63580 63564 -63563 0
-63600 63568 63596 63564 -63563 0
-63824 63568 63820 63564 -63563 0
-64080 63568 64076 63564 -63563 0
-63564 63580 0
-63836 63580 63820 63564 -63563 0
-64604 63580 64588 63564 -63563 0
-63564 63596 0
-63724 63596 63692 63564 -63563 0
-64332 63820 64076 63564 -63563 0
-64844 63820 64588 63564 -63563 0
-63568 63600 0
-64112 63600 64080 63568 -63567 0
-63568 63696 0
-63952 63696 63824 63568 -63567 0
-64208 63696 64080 63568 -63567 0
-64720 63696 64592 63568 -63567 0
-64336 63824 64080 63568 -63567 0
-63572 63576 0
-63584 63576 63580 63572 -63571 0
-63608 63576 63604 63572 -63571 0
-63572 63580 0
-63572 63604 0
-63572 63700 0
-63576 63608 0
-63576 63704 0
-63960 63704 63832 63576 -63575 0
-64216 63704 64088 63576 -63575 0
-64728 63704 64600 63576 -63575 0
-63580 63612 0
-63868 63612 63836 63580 -63579 0
-64124 63612 64092 63580 -63579 0
-64636 63612 64604 63580 -63579 0
-63580 63708 0
-63964 63708 63836 63580 -63579 0
-64220 63708 64092 63580 -63579 0
-64732 63708 64604 63580 -63579 0
-63588 63592 0
-63848 63592 63844 63588 -63587 0
-64104 63592 64100 63588 -63587 0
-64616 63592 64612 63588 -63587 0
-63588 63596 0
-63852 63596 63844 63588 -63587 0
-64108 63596 64100 63588 -63587 0
-63592 63608 0
-63864 63608 63848 63592 -63591 0
-64120 63608 64104 63592 -63591 0
-64632 63608 64616 63592 -63591 0
-64112 63600 64108 63596 -63595 0
-63596 63612 0
-63868 63612 63852 63596 -63595 0
-64124 63612 64108 63596 -63595 0
-64636 63612 64620 63596 -63595 0
-63604 63612 0
-64124 63612 64116 63604 -63603 0
-64636 63612 64628 63604 -63603 0
-63624 63619 0
-63620 63624 0
-63632 63624 63628 63620 -63619 0
-63640 63624 63636 63620 -63619 0
-63656 63624 63652 63620 -63619 0
-63688 63624 63684 63620 -63619 0
-63628 63619 0
-63620 63628 0
-63644 63628 63636 63620 -63619 0
-63660 63628 63652 63620 -63619 0
-63692 63628 63684 63620 -63619 0
-63884 63628 63876 63620 -63619 0
-64140 63628 64132 63620 -63619 0
-63636 63619 0
-63620 63636 0
-63668 63636 63652 63620 -63619 0
-63700 63636 63684 63620 -63619 0
-63716 63652 63684 63620 -63619 0
-63624 63632 0
-63648 63632 63640 63624 -63623 0
-63664 63632 63656 63624 -63623 0
-63696 63632 63688 63624 -63623 0
-63624 63640 0
-63672 63640 63656 63624 -63623 0
-63704 63640 63688 63624 -63623 0
-63624 63656 0
-63624 63688 0
-63628 63632 0
-63648 63632 63644 63628 -63627 0
-63664 63632 63660 63628 -63627 0
-63696 63632 63692 63628 -63627 0
-63888 63632 63884 63628 -63627 0
-64144 63632 64140 63628 -63627 0
-63628 63644 0
-63900 63644 63884 63628 -63627 0
-64156 63644 64140 63628 -63627 0
-63628 63660 0
-63632 63664 0
-63632 63696 0
-63952 63696 63888 63632 -63631 0
-64208 63696 64144 63632 -63631 0
-63636 63640 0
-63648 63640 63644 63636 -63635 0
-63672 63640 63668 63636 -63635 0
-63896 63640 63892 63636 -63635 0
-64152 63640 64148 63636 -63635 0
-63636 63644 0
-63676 63644 63668 63636 -63635 0
-63636 63668 0
-63636 63700 0
-63640 63672 0
-63640 63704 0
-63960 63704 63896 63640 -63639 0
-64216 63704 64152 63640 -63639 0
-63644 63676 0
-63932 63676 63900 63644 -63643 0
-64188 63676 64156 63644 -63643 0
-63644 63708 0
-63652 63656 0
-63672 63656 63668 63652 -63651 0
-63652 63660 0
-63676 63660 63668 63652 -63651 0
-63916 63660 63908 63652 -63651 0
-64172 63660 64164 63652 -63651 0
-63652 63908 0
-63652 64164 0
-63652 64676 0
-63928 63672 63912 63656 -63655 0
-64184 63672 64168 63656 -63655 0
-63920 63664 63916 63660 -63659 0
-64176 63664 64172 63660 -63659 0
-64688 63664 64684 63660 -63659 0
-63660 63676 0
-63932 63676 63916 63660 -63659 0
-64188 63676 64172 63660 -63659 0
-64700 63676 64684 63660 -63659 0
-63668 63672 0
-63684 63688 0
-63696 63688 63692 63684 -63683 0
-63704 63688 63700 63684 -63683 0
-63944 63688 63940 63684 -63683 0
-64200 63688 64196 63684 -63683 0
-64712 63688 64708 63684 -63683 0
-63948 63692 63940 63684 -63683 0
-64204 63692 64196 63684 -63683 0
-63684 63700 0
-63684 63940 0
-63684 64196 0
-63684 64708 0
-63960 63704 63944 63688 -63687 0
-64216 63704 64200 63688 -63687 0
-63952 63696 63948 63692 -63691 0
-64208 63696 64204 63692 -63691 0
-63692 63708 0
-63964 63708 63948 63692 -63691 0
-64220 63708 64204 63692 -63691 0
-63692 63948 0
-63692 64204 0
-63692 64716 0
-63748 63752 0
-63876 63747 0
-63748 64260 0
-63752 63760 0
-63852 63788 63820 63756 -63755 0
-64848 63824 64784 63760 -63759 0
-63760 64272 0
-63760 64784 0
-64344 63832 64280 63768 -63767 0
-63768 64280 0
-63768 64792 0
-63852 63820 63844 63812 -63811 0
-63856 63824 63852 63820 -63819 0
-64336 63824 64332 63820 -63819 0
-64848 63824 64844 63820 -63819 0
-63908 63912 0
-64936 63912 64932 63908 -63907 0
-63908 64420 0
-63908 64932 0
-63940 64452 0
-63940 64964 0
-64004 64008 0
-64132 64003 0
-64008 64016 0
-64108 64044 64076 64012 -64011 0
-64016 65040 0
-65112 64088 65048 64024 -64023 0
-64024 65048 0
-64108 64076 64100 64068 -64067 0
-64112 64080 64108 64076 -64075 0
-64164 65188 0
-64196 65220 0
-64340 64276 64324 64260 -64259 0
-64344 64280 64340 64276 -64275 0
-64324 64452 0
-64516 64520 0
-64520 64528 0
-64620 64556 64588 64524 -64523 0
-65100 64588 65036 64524 -64523 0
-65104 64592 65040 64528 -64527 0
-64528 65040 0
-64620 64588 64612 64580 -64579 0
-64624 64592 64620 64588 -64587 0
-65104 64592 65100 64588 -64587 0
-65224 64712 65220 64708 -64707 0
-64812 64780 64804 64772 -64771 0
-64816 64784 64812 64780 -64779 0
-65068 65036 65060 65028 -65027 0
-65072 65040 65068 65036 -65035 0
-2048 0
31 0
227 0
1795 0
-2080 -226 -354 -610 -1122 -4194 -8290 -16482 -32866 -418 -674 -1186 -4258 -8354 -16546 -32930 -802 -1314 -4386 -8482 -16674 -33058 -1570 -4642 -8738 -16930 -33314 -5154 -9250 -17442 -33826 -12322 -20514 -36898 -24610 -40994 -49186 -450 -706 -1218 -4290 -8386 -16578 -32962 -834 -1346 -4418 -8514 -16706 -33090 -1602 -4674 -8770 -16962 -33346 -5186 -9282 -17474 -33858 -12354 -20546 -36930 -24642 -41026 -49218 -898 -1410 -4482 -8578 -16770 -33154 -1666 -4738 -8834 -17026 -33410 -5250 -9346 -17538 -33922 -12418 -20610 -36994 -24706 -41090 -49282 -1794 -4866 -8962 -17154 -33538 -5378 -9474 -17666 -34050 -12546 -20738 -37122 -24834 -41218 -49410 -5634 -9730 -17922 -34306 -12802 -20994 -37378 -25090 -41474 -49666 -13314 -21506 -37890 -25602 -41986 -50178 -28674 -45058 -53250 -57346 -2019 -5091 -9187 -17379 -33763 -5603 -9699 -17891 -34275 -12771 -20963 -37347 -25059 -41443 -49635 -5859 -9955 -18147 -34531 -13027 -21219 -37603 -25315 -41699 -49891 -13539 -21731 -38115 -25827 -42211 -50403 -28899 -45283 -53475 -57571 -5987 -10083 -18275 -34659 -13155 -21347 -37731 -25443 -41827 -50019 -13667 -21859 -38243 -25955 -42339 -50531 -29027 -45411 -53603 -57699 -13923 -22115 -38499 -26211 -42595 -50787 -29283 -45667 -53859 -57955 -29795 -46179 -54371 -58467 -61539 -6051 -10147 -18339 -34723 -13219 -21411 -37795 -25507 -41891 -50083 -13731 -21923 -38307 -26019 -42403 -50595 -29091 -45475 -53667 -57763 -13987 -22179 -38563 -26275 -42659 -50851 -29347 -45731 -53923 -58019 -29859 -46243 -54435 -58531 -61603 -14115 -22307 -38691 -26403 -42787 -50979 -29475 -45859 -54051 -58147 -29987 -46371 -54563 -58659 -61731 -30243 -46627 -54819 -58915 -61987 -62499 -6083 -10179 -18371 -34755 -13251 -21443 -37827 -25539 -41923 -50115 -13763 -21955 -38339 -26051 -42435 -50627 -29123 -45507 -53699 -57795 -14019 -22211 -38595 -26307 -42691 -50883 -29379 -45763 -53955 -58051 -29891 -46275 -54467 -58563 -61635 -14147 -22339 -38723 -26435 -42819 -51011 -29507 -45891 -54083 -58179 -30019 -46403 -54595 -58691 -61763 -30275 -46659 -54851 -58947 -62019 -62531 -14211 -22403 -38787 -26499 -42883 -51075 -29571 -45955 -54147 -58243 -30083 -46467 -54659 -58755 -61827 -30339 -46723 -54915 -59011 -62083 -62595 -30467 -46851 -55043 -59139 -62211 -62723 -62979 -14308 -22500 -38884 -26596 -42980 -51172 -29668 -46052 -54244 -58340 -30180 -46564 -54756 -58852 -61924 -30436 -46820 -55012 -59108 -62180 -62692 -30564 -46948 -55140 -59236 -62308 -62820 -63076 -30628 -47012 -55204 -59300 -62372 -62884 -63140 -63268 -30660 -47044 -55236 -59332 -62404 -62916 -63172 -63300 -63364 0
-4128 -226 -354 -610 -1122 -2146 -8290 -16482 -32866 -418 -674 -1186 -2210 -8354 -16546 -32930 -802 -1314 -2338 -8482 -16674 -33058 -1570 -2594 -8738 -16930 -33314 -3106 -9250 -17442 -33826 -10274 -18466 -34850 -24610 -40994 -49186 -450 -706 -1218 -2242 -8386 -16578 -32962 -834 -1346 -2370 -8514 -16706 -33090 -1602 -2626 -8770 -16962 -33346 -3138 -9282 -17474 -33858 -10306 -18498 -34882 -24642 -41026 -49218 -898 -1410 -2434 -8578 -16770 -33154 -1666 -2690 -8834 -17026 -33410 -3202 -9346 -17538 -33922 -10370 -18562 -34946 -24706 -41090 -49282 -1794 -2818 -8962 -17154 -33538 -3330 -9474 -17666 -34050 -10498 -18690 -35074 -24834 -41218 -49410 -3586 -9730 -17922 -34306 -10754 -18946 -35330 -25090 -41474 -49666 -11266 -19458 -35842 -25602 -41986 -50178 -26626 -43010 -51202 -57346 -2019 -3043 -9187 -17379 -33763 -3555 -9699 -17891 -34275 -10723 -18915 -35299 -25059 -41443 -49635 -3811 -9955 -18147 -34531 -10979 -19171 -35555 -25315 -41699 -49891 -11491 -19683 -36067 -25827 -42211 -50403 -26851 -43235 -51427 -57571 -3939 -10083 -18275 -34659 -11107 -19299 -35683 -25443 -41827 -50019 -11619 -19811 -36195 -25955 -42339 -50531 -26979 -43363 -51555 -57699 -11875 -20067 -36451 -26211 -42595 -50787 -27235 -43619 -51811 -57955 -27747 -44131 -52323 -58467 -59491 -4003 -10147 -18339 -34723 -11171 -19363 -35747 -25507 -41891 -50083 -11683 -19875 -36259 -26019 -42403 -50595 -27043 -43427 -51619 -57763 -11939 -20131 -36515 -26275 -42659 -50851 -27299 -43683 -51875 -58019 -27811 -44195 -52387 -58531 -59555 -12067 -20259 -36643 -26403 -42787 -50979 -27427 -43811 -52003 -58147 -27939 -44323 -52515 -58659 -59683 -28195 -44579 -52771 -58915 -59939 -60451 -4035 -10179 -18371 -34755 -11203 -19395 -35779 -25539 -41923 -50115 -11715 -19907 -36291 -26051 -42435 -50627 -27075 -43459 -51651 -57795 -11971 -20163 -36547 -26307 -42691 -50883 -27331 -43715 -51907 -58051 -27843 -44227 -52419 -58563 -59587 -12099 -20291 -36675 -26435 -42819 -51011 -27459 -43843 -52035 -58179 -27971 -44355 -52547 -58691 -59715 -28227 -44611 -52803 -58947 -59971 -60483 -12163 -20355 -36739 -26499 -42883 -51075 -27523 -43907 -52099 -58243 -28035 -44419 -52611 -58755 -59779 -28291 -44675 -52867 -59011 -60035 -60547 -28419 -44803 -52995 -59139 -60163 -60675 -60931 -12260 -20452 -36836 -26596 -42980 -51172 -27620 -44004 -52196 -58340 -28132 -44516 -52708 -58852 -59876 -28388 -44772 -52964 -59108 -60132 -60644 -28516 -44900 -53092 -59236 -60260 -60772 -61028 -28580 -44964 -53156 -59300 -60324 -60836 -61092 -61220 -28612 -44996 -53188 -59332 -60356 -60868 -61124 -61252 -61316 0
-8224 -226 -354 -610 -1122 -2146 -4194 -16482 -32866 -418 -674 -1186 -2210 -4258 -16546 -32930 -802 -1314 -2338 -4386 -16674 -33058 -1570 -2594 -4642 -16930 -33314 -3106 -5154 -17442 -33826 -6178 -18466 -34850 -20514 -36898 -49186 -450 -706 -1218 -2242 -4290 -16578 -32962 -834 -1346 -2370 -4418 -16706 -33090 -1602 -2626 -4674 -16962 -33346 -3138 -5186 -17474 -33858 -6210 -18498 -34882 -20546 -36930 -49218 -898 -1410 -2434 -4482 -16770 -33154 -1666 -2690 -4738 -17026 -33410 -3202 -5250 -17538 -33922 -6274 -18562 -34946 -20610 -36994 -49282 -1794 -2818 -4866 -17154 -33538 -3330 -5378 -17666 -34050 -6402 -18690 -35074 -20738 -37122 -49410 -3586 -5634 -17922 -34306 -6658 -18946 -35330 -20994 -37378 -49666 -7170 -19458 -35842 -21506 -37890 -50178 -22530 -38914 -51202 -53250 -2019 -3043 -5091 -17379 -33763 -3555 -5603 -17891 -34275 -6627 -18915 -35299 -20963 -37347 -49635 -3811 -5859 -18147 -34531 -6883 -19171 -35555 -21219 -37603 -49891 -7395 -19683 -36067 -21731 -38115 -50403 -22755 -39139 -51427 -53475 -3939 -5987 -18275 -34659 -7011 -19299 -35683 -21347 -37731 -50019 -7523 -19811 -36195 -21859 -38243 -50531 -22883 -39267 -51555 -53603 -7779 -20067 -36451 -22115 -38499 -50787 -23139 -39523 -51811 -53859 -23651 -40035 -52323 -54371 -55395 -4003 -6051 -18339 -34723 -7075 -19363 -35747 -21411 -37795 -50083 -7587 -19875 -36259 -21923 -38307 -50595 -22947 -39331 -51619 -53667 -7843 -20131 -36515 -22179 -38563 -50851 -23203 -39587 -51875 -53923 -23715 -40099 -52387 -54435 -55459 -7971 -20259 -36643 -22307 -38691 -50979 -23331 -39715 -52003 -54051 -23843 -40227 -52515 -54563 -55587 -24099 -40483 -52771 -54819 -55843 -56355 -4035 -6083 -18371 -34755 -7107 -19395 -35779 -21443 -37827 -50115 -7619 -19907 -36291 -21955 -38339 -50627 -22979 -39363 -51651 -53699 -7875 -20163 -36547 -22211 -38595 -50883 -23235 -39619 -51907 -53955 -23747 -40131 -52419 -54467 -55491 -8003 -20291 -36675 -22339 -38723 -51011 -23363 -39747 -52035 -54083 -23875 -40259 -52547 -54595 -55619 -24131 -40515 -52803 -54851 -55875 -56387 -8067 -20355 -36739 -22403 -38787 -51075 -23427 -39811 -52099 -54147 -23939 -40323 -52611 -54659 -55683 -24195 -40579 -52867 -54915 -55939 -56451 -24323 -40707 -52995 -55043 -56067 -56579 -56835 -8164 -20452 -36836 -22500 -38884 -51172 -23524 -39908 -52196 -54244 -24036 -40420 -52708 -54756 -55780 -24292 -40676 -52964 -55012 -56036 -56548 -24420 -40804 -53092 -55140 -56164 -56676 -56932 -24484 -40868 -53156 -55204 -56228 -56740 -56996 -57124 -24516 -40900 -53188 -55236 -56260 -56772 -57028 -57156 -57220 0
-16416 -226 -354 -610 -1122 -2146 -4194 -8290 -32866 -418 -674 -1186 -2210 -4258 -8354 -32930 -802 -1314 -2338 -4386 -8482 -33058 -1570 -2594 -4642 -8738 -33314 -3106 -5154 -9250 -33826 -6178 -10274 -34850 -12322 -36898 -40994 -450 -706 -1218 -2242 -4290 -8386 -32962 -834 -1346 -2370 -4418 -8514 -33090 -1602 -2626 -4674 -8770 -33346 -3138 -5186 -9282 -33858 -6210 -10306 -34882 -12354 -36930 -41026 -898 -1410 -2434 -4482 -8578 -33154 -1666 -2690 -4738 -8834 -33410 -3202 -5250 -9346 -33922 -6274 -10370 -34946 -12418 -36994 -41090 -1794 -2818 -4866 -8962 -33538 -3330 -5378 -9474 -34050 -6402 -10498 -35074 -12546 -37122 -41218 -3586 -5634 -9730 -34306 -6658 -10754 -35330 -12802 -37378 -41474 -7170 -11266 -35842 -13314 -37890 -41986 -14338 -38914 -43010 -45058 -2019 -3043 -5091 -9187 -33763 -3555 -5603 -9699 -34275 -6627 -10723 -35299 -12771 -37347 -41443 -3811 -5859 -9955 -34531 -6883 -10979 -35555 -13027 -37603 -41699 -7395 -11491 -36067 -13539 -38115 -42211 -14563 -39139 -43235 -45283 -3939 -5987 -10083 -34659 -7011 -11107 -35683 -13155 -37731 -41827 -7523 -11619 -36195 -13667 -38243 -42339 -14691 -39267 -43363 -45411 -7779 -11875 -36451 -13923 -38499 -42595 -14947 -39523 -43619 -45667 -15459 -40035 -44131 -46179 -47203 -4003 -6051 -10147 -34723 -7075 -11171 -35747 -13219 -37795 -41891 -7587 -11683 -36259 -13731 -38307 -42403 -14755 -39331 -43427 -45475 -7843 -11939 -36515 -13987 -38563 -42659 -15011 -39587 -43683 -45731 -15523 -40099 -44195 -46243 -47267 -7971 -12067 -36643 -14115 -38691 -42787 -15139 -39715 -43811 -45859 -15651 -40227 -44323 -46371 -47395 -15907 -40483 -44579 -46627 -47651 -48163 -4035 -6083 -10179 -34755 -7107 -11203 -35779 -13251 -37827 -41923 -7619 -11715 -36291 -13763 -38339 -42435 -14787 -39363 -43459 -45507 -7875 -11971 -36547 -14019 -38595 -42691 -15043 -39619 -43715 -45763 -15555 -40131 -44227 -46275 -47299 -8003 -12099 -36675 -14147 -38723 -42819 -15171 -39747 -43843 -45891 -15683 -40259 -44355 -46403 -47427 -15939 -40515 -44611 -46659 -47683 -48195 -8067 -12163 -36739 -14211 -38787 -42883 -15235 -39811 -43907 -45955 -15747 -40323 -44419 -46467 -47491 -16003 -40579 -44675 -46723 -47747 -48259 -16131 -40707 -44803 -46851 -47875 -48387 -48643 -8164 -12260 -36836 -14308 -38884 -42980 -15332 -39908 -44004 -46052 -15844 -40420 -44516 -46564 -47588 -16100 -40676 -44772 -46820 -47844 -48356 -16228 -40804 -44900 -46948 -47972 -48484 -48740 -16292 -40868 -44964 -47012 -48036 -48548 -48804 -48932 -16324 -40900 -44996 -47044 -48068 -48580 -48836 -48964 -49028 0
-32800 -226 -354 -610 -1122 -2146 -4194 -8290 -16482 -418 -674 -1186 -2210 -4258 -8354 -16546 -802 -1314 -2338 -4386 -8482 -16674 -1570 -2594 -4642 -8738 -16930 -3106 -5154 -9250 -17442 -6178 -10274 -18466 -12322 -20514 -24610 -450 -706 -1218 -2242 -4290 -8386 -16578 -834 -1346 -2370 -4418 -8514 -16706 -1602 -2626 -4674 -8770 -16962 -3138 -5186 -9282 -17474 -6210 -10306 -18498 -12354 -20546 -24642 -898 -1410 -2434 -4482 -8578 -16770 -1666 -2690 -4738 -8834 -17026 -3202 -5250 -9346 -17538 -6274 -10370 -18562 -12418 -20610 -24706 -1794 -2818 -4866 -8962 -17154 -3330 -5378 -9474 -17666 -6402 -10498 -18690 -12546 -20738 -24834 -3586 -5634 -9730 -17922 -6658 -10754 -18946 -12802 -20994 -25090 -7170 -11266 -19458 -13314 -21506 -25602 -14338 -22530 -26626 -28674 -2019 -3043 -5091 -9187 -17379 -3555 -5603 -9699 -17891 -6627 -10723 -18915 -12771 -20963 -25059 -3811 -5859 -9955 -18147 -6883 -10979 -19171 -13027 -21219 -25315 -7395 -11491 -19683 -13539 -21731 -25827 -14563 -22755 -26851 -28899 -3939 -5987 -10083 -18275 -7011 -11107 -19299 -13155 -21347 -25443 -7523 -11619 -19811 -13667 -21859 -25955 -14691 -22883 -26979 -29027 -7779 -11875 -20067 -13923 -22115 -26211 -14947 -23139 -27235 -29283 -15459 -23651 -27747 -29795 -30819 -4003 -6051 -10147 -18339 -7075 -11171 -19363 -13219 -21411 -25507 -7587 -11683 -19875 -13731 -21923 -26019 -14755 -22947 -27043 -29091 -7843 -11939 -20131 -13987 -22179 -26275 -15011 -23203 -27299 -29347 -15523 -23715 -27811 -29859 -30883 -7971 -12067 -20259 -14115 -22307 -26403 -15139 -23331 -27427 -29475 -15651 -23843 -27939 -29987 -31011 -15907 -24099 -28195 -30243 -31267 -31779 -4035 -6083 -10179 -18371 -7107 -11203 -19395 -13251 -21443 -25539 -7619 -11715 -19907 -13763 -21955 -26051 -14787 -22979 -27075 -29123 -7875 -11971 -20163 -14019 -22211 -26307 -15043 -23235 -27331 -29379 -15555 -23747 -27843 -29891 -30915 -8003 -12099 -20291 -14147 -22339 -26435 -15171 -23363 -27459 -29507 -15683 -23875 -27971 -30019 -31043 -15939 -24131 -28227 -30275 -31299 -31811 -8067 -12163 -20355 -14211 -22403 -26499 -15235 -23427 -27523 -29571 -15747 -23939 -28035 -30083 -31107 -16003 -24195 -28291 -30339 -31363 -31875 -16131 -24323 -28419 -30467 -31491 -32003 -32259 -8164 -12260 -20452 -14308 -22500 -26596 -15332 -23524 -27620 -29668 -15844 -24036 -28132 -30180 -31204 -16100 -24292 -28388 -30436 -31460 -31972 -16228 -24420 -28516 -30564 -31588 -32100 -32356 -16292 -24484 -28580 -30628 -31652 -32164 -32420 -32548 -16324 -24516 -28612 -30660 -31684 -32196 -32452 -32580 -32644 0
-2276 -30 -270 -526 -1038 -4110 -8206 -16398 -32782 -278 -534 -1046 -4118 -8214 -16406 -32790 -774 -1286 -4358 -8454 -16646 -33030 -1542 -4614 -8710 -16902 -33286 -5126 -9222 -17414 -33798 -12294 -20486 -36870 -24582 -40966 -49158 -282 -538 -1050 -4122 -8218 -16410 -32794 -778 -1290 -4362 -8458 -16650 -33034 -1546 -4618 -8714 -16906 -33290 -5130 -9226 -17418 -33802 -12298 -20490 -36874 -24586 -40970 -49162 -786 -1298 -4370 -8466 -16658 -33042 -1554 -4626 -8722 -16914 -33298 -5138 -9234 -17426 -33810 -12306 -20498 -36882 -24594 -40978 -49170 -1794 -4866 -8962 -17154 -33538 -5378 -9474 -17666 -34050 -12546 -20738 -37122 -24834 -41218 -49410 -5634 -9730 -17922 -34306 -12802 -20994 -37378 -25090 -41474 -49666 -13314 -21506 -37890 -25602 -41986 -50178 -28674 -45058 -53250 -57346 -1823 -4895 -8991 -17183 -33567 -5407 -9503 -17695 -34079 -12575 -20767 -37151 -24863 -41247 -49439 -5663 -9759 -17951 -34335 -12831 -21023 -37407 -25119 -41503 -49695 -13343 -21535 -37919 -25631 -42015 -50207 -28703 -45087 -53279 -57375 -5903 -9999 -18191 -34575 -13071 -21263 -37647 -25359 -41743 -49935 -13583 -21775 -38159 -25871 -42255 -50447 -28943 -45327 -53519 -57615 -13839 -22031 -38415 -26127 -42511 -50703 -29199 -45583 -53775 -57871 -29711 -46095 -54287 -58383 -61455 -5911 -10007 -18199 -34583 -13079 -21271 -37655 -25367 -41751 -49943 -13591 -21783 -38167 -25879 -42263 -50455 -28951 -45335 -53527 -57623 -13847 -22039 -38423 -26135 -42519 -50711 -29207 -45591 -53783 -57879 -29719 -46103 -54295 -58391 -61463 -14087 -22279 -38663 -26375 -42759 -50951 -29447 -45831 -54023 -58119 -29959 -46343 -54535 -58631 -61703 -30215 -46599 -54791 -58887 -61959 -62471 -5915 -10011 -18203 -34587 -13083 -21275 -37659 -25371 -41755 -49947 -13595 -21787 -38171 -25883 -42267 -50459 -28955 -45339 -53531 -57627 -13851 -22043 -38427 -26139 -42523 -50715 -29211 -45595 -53787 -57883 -29723 -46107 -54299 -58395 -61467 -14091 -22283 -38667 -26379 -42763 -50955 -29451 -45835 -54027 -58123 -29963 -46347 -54539 -58635 -61707 -30219 -46603 -54795 -58891 -61963 -62475 -14099 -22291 -38675 -26387 -42771 -50963 -29459 -45843 -54035 -58131 -29971 -46355 -54547 -58643 -61715 -30227 -46611 -54803 -58899 -61971 -62483 -30467 -46851 -55043 -59139 -62211 -62723 -62979 -14112 -22304 -38688 -26400 -42784 -50976 -29472 -45856 -54048 -58144 -29984 -46368 -54560 -58656 -61728 -30240 -46624 -54816 -58912 -61984 -62496 -30480 -46864 -55056 -59152 -62224 -62736 -62992 -30488 -46872 -55064 -59160 -62232 -62744 -63000 -63240 -30492 -46876 -55068 -59164 -62236 -62748 -63004 -63244 -63252 0
-4324 -30 -270 -526 -1038 -2062 -8206 -16398 -32782 -278 -534 -1046 -2070 -8214 -16406 -32790 -774 -1286 -2310 -8454 -16646 -33030 -1542 -2566 -8710 -16902 -33286 -3078 -9222 -17414 -33798 -10246 -18438 -34822 -24582 -40966 -49158 -282 -538 -1050 -2074 -8218 -16410 -32794 -778 -1290 -2314 -8458 -16650 -33034 -1546 -2570 -8714 -16906 -33290 -3082 -9226 -17418 -33802 -10250 -18442 -34826 -24586 -40970 -49162 -786 -1298 -2322 -8466 -16658 -33042 -1554 -2578 -8722 -16914 -33298 -3090 -9234 -17426 -33810 -10258 -18450 -34834 -24594 -40978 -49170 -1794 -2818 -8962 -17154 -33538 -3330 -9474 -17666 -34050 -10498 -18690 -35074 -24834 -41218 -49410 -3586 -9730 -17922 -34306 -10754 -18946 -35330 -25090 -41474 -49666 -11266 -19458 -35842 -25602 -41986 -50178 -26626 -43010 -51202 -57346 -1823 -2847 -8991 -17183 -33567 -3359 -9503 -17695 -34079 -10527 -18719 -35103 -24863 -41247 -49439 -3615 -9759 -17951 -34335 -10783 -18975 -35359 -25119 -41503 -49695 -11295 -19487 -35871 -25631 -42015 -50207 -26655 -43039 -51231 -57375 -3855 -9999 -18191 -34575 -11023 -19215 -35599 -25359 -41743 -49935 -11535 -19727 -36111 -25871 -42255 -50447 -26895 -43279 -51471 -57615 -11791 -19983 -36367 -26127 -42511 -50703 -27151 -43535 -51727 -57871 -27663 -44047 -52239 -58383 -59407 -3863 -10007 -18199 -34583 -11031 -19223 -35607 -25367 -41751 -49943 -11543 -19735 -36119 -25879 -42263 -50455 -26903 -43287 -51479 -57623 -11799 -19991 -36375 -26135 -42519 -50711 -27159 -43543 -51735 -57879 -27671 -44055 -52247 -58391 -59415 -12039 -20231 -36615 -26375 -42759 -50951 -27399 -43783 -51975 -58119 -27911 -44295 -52487 -58631 -59655 -28167 -44551 -52743 -58887 -59911 -60423 -3867 -10011 -18203 -34587 -11035 -19227 -35611 -25371 -41755 -49947 -11547 -19739 -36123 -25883 -42267 -50459 -26907 -43291 -51483 -57627 -11803 -19995 -36379 -26139 -42523 -50715 -27163 -43547 -51739 -57883 -27675 -44059 -52251 -58395 -59419 -12043 -20235 -36619 -26379 -42763 -50955 -27403 -43787 -51979 -58123 -27915 -44299 -52491 -58635 -59659 -28171 -44555 -52747 -58891 -59915 -60427 -12051 -20243 -36627 -26387 -42771 -50963 -27411 -43795 -51987 -58131 -27923 -44307 -52499 -58643 -59667 -28179 -44563 -52755 -58899 -59923 -60435 -28419 -44803 -52995 -59139 -60163 -60675 -60931 -12064 -20256 -36640 -26400 -42784 -50976 -27424 -43808 -52000 -58144 -27936 -44320 -52512 -58656 -59680 -28192 -44576 -52768 -58912 -59936 -60448 -28432 -44816 -53008 -59152 -60176 -60688 -60944 -28440 -44824 -53016 -59160 -60184 -60696 -60952 -61192 -28444 -44828 -53020 -59164 -60188 -60700 -60956 -61196 -61204 0
-8420 -30 -270 -526 -1038 -2062 -4110 -16398 -32782 -278 -534 -1046 -2070 -4118 -16406 -32790 -774 -1286 -2310 -4358 -16646 -33030 -1542 -2566 -4614 -16902 -33286 -3078 -5126 -17414 -33798 -6150 -18438 -34822 -20486 -36870 -49158 -282 -538 -1050 -2074 -4122 -16410 -32794 -778 -1290 -2314 -4362 -16650 -33034 -1546 -2570 -4618 -16906 -33290 -3082 -5130 -17418 -33802 -6154 -18442 -34826 -20490 -36874 -49162 -786 -1298 -2322 -4370 -16658 -33042 -1554 -2578 -4626 -16914 -33298 -3090 -5138 -17426 -33810 -6162 -18450 -34834 -20498 -36882 -49170 -1794 -2818 -4866 -17154 -33538 -3330 -5378 -17666 -34050 -6402 -18690 -35074 -20738 -37122 -49410 -3586 -5634 -17922 -34306 -6658 -18946 -35330 -20994 -37378 -49666 -7170 -19458 -35842 -21506 -37890 -50178 -22530 -38914 -51202 -53250 -1823 -2847 -4895 -17183 -33567 -3359 -5407 -17695 -34079 -6431 -18719 -35103 -20767 -37151 -49439 -3615 -5663 -17951 -34335 -6687 -18975 -35359 -21023 -37407 -49695 -7199 -19487 -35871 -21535 -37919 -50207 -22559 -38943 -51231 -53279 -3855 -5903 -18191 -34575 -6927 -19215 -35599 -21263 -37647 -49935 -7439 -19727 -36111 -21775 -38159 -50447 -22799 -39183 -51471 -53519 -7695 -19983 -36367 -22031 -38415 -50703 -23055 -39439 -51727 -53775 -23567 -39951 -52239 -54287 -55311 -3863 -5911 -18199 -34583 -6935 -19223 -35607 -21271 -37655 -49943 -7447 -19735 -36119 -21783 -38167 -50455 -22807 -39191 -51479 -53527 -7703 -19991 -36375 -22039 -38423 -50711 -23063 -39447 -51735 -53783 -23575 -39959 -52247 -54295 -55319 -7943 -20231 -36615 -22279 -38663 -50951 -23303 -39687 -51975 -54023 -23815 -40199 -52487 -54535 -55559 -24071 -40455 -52743 -54791 -55815 -56327 -3867 -5915 -18203 -34587 -6939 -19227 -35611 -21275 -37659 -49947 -7451 -19739 -36123 -21787 -38171 -50459 -22811 -39195 -51483 -53531 -7707 -19995 -36379 -22043 -38427 -50715 -23067 -39451 -51739 -53787 -23579 -39963 -52251 -54299 -55323 -7947 -20235 -36619 -22283 -38667 -50955 -23307 -39691 -51979 -54027 -23819 -40203 -52491 -54539 -55563 -24075 -40459 -52747 -54795 -55819 -56331 -7955 -20243 -36627 -22291 -38675 -50963 -23315 -39699 -51987 -54035 -23827 -40211 -52499 -54547 -55571 -24083 -40467 -52755 -54803 -55827 -56339 -24323 -40707 -52995 -55043 -56067 -56579 -56835 -7968 -20256 -36640 -22304 -38688 -50976 -23328 -39712 -52000 -54048 -23840 -40224 -52512 -54560 -55584 -24096 -40480 -52768 -54816 -55840 -56352 -24336 -40720 -53008 -55056 -56080 -56592 -56848 -24344 -40728 -53016 -55064 -56088 -56600 -56856 -57096 -24348 -40732 -53020 -55068 -56092 -56604 -56860 -57100 -57108 0
-16612 -30 -270 -526 -1038 -2062 -4110 -8206 -32782 -278 -534 -1046 -2070 -4118 -8214 -32790 -774 -1286 -2310 -4358 -8454 -33030 -1542 -2566 -4614 -8710 -33286 -3078 -5126 -9222 -33798 -6150 -10246 -34822 -12294 -36870 -40966 -282 -538 -1050 -2074 -4122 -8218 -32794 -778 -1290 -2314 -4362 -8458 -33034 -1546 -2570 -4618 -8714 -33290 -3082 -5130 -9226 -33802 -6154 -10250 -34826 -12298 -36874 -40970 -786 -1298 -2322 -4370 -8466 -33042 -1554 -2578 -4626 -8722 -33298 -3090 -5138 -9234 -33810 -6162 -10258 -34834 -12306 -36882 -40978 -1794 -2818 -4866 -8962 -33538 -3330 -5378 -9474 -34050 -6402 -10498 -35074 -12546 -37122 -41218 -3586 -5634 -9730 -34306 -6658 -10754 -35330 -12802 -37378 -41474 -7170 -11266 -35842 -13314 -37890 -41986 -14338 -38914 -43010 -45058 -1823 -2847 -4895 -8991 -33567 -3359 -5407 -9503 -34079 -6431 -10527 -35103 -12575 -37151 -41247 -3615 -5663 -9759 -34335 -6687 -10783 -35359 -12831 -37407 -41503 -7199 -11295 -35871 -13343 -37919 -42015 -14367 -38943 -43039 -45087 -3855 -5903 -9999 -34575 -6927 -11023 -35599 -13071 -37647 -41743 -7439 -11535 -36111 -13583 -38159 -42255 -14607 -39183 -43279 -45327 -7695 -11791 -36367 -13839 -38415 -42511 -14863 -39439 -43535 -45583 -15375 -39951 -44047 -46095 -47119 -3863 -5911 -10007 -34583 -6935 -11031 -35607 -13079 -37655 -41751 -7447 -11543 -36119 -13591 -38167 -42263 -14615 -39191 -43287 -45335 -7703 -11799 -36375 -13847 -38423 -42519 -14871 -39447 -43543 -45591 -15383 -39959 -44055 -46103 -47127 -7943 -12039 -36615 -14087 -38663 -42759 -15111 -39687 -43783 -45831 -15623 -40199 -44295 -46343 -47367 -15879 -40455 -44551 -46599 -47623 -48135 -3867 -5915 -10011 -34587 -6939 -11035 -35611 -13083 -37659 -41755 -7451 -11547 -36123 -13595 -38171 -42267 -14619 -39195 -43291 -45339 -7707 -11803 -36379 -13851 -38427 -42523 -14875 -39451 -43547 -45595 -15387 -39963 -44059 -46107 -47131 -7947 -12043 -36619 -14091 -38667 -42763 -15115 -39691 -43787 -45835 -15627 -40203 -44299 -46347 -47371 -15883 -40459 -44555 -46603 -47627 -48139 -7955 -12051 -36627 -14099 -38675 -42771 -15123 -39699 -43795 -45843 -15635 -40211 -44307 -46355 -47379 -15891 -40467 -44563 -46611 -47635 -48147 -16131 -40707 -44803 -46851 -47875 -48387 -48643 -7968 -12064 -36640 -14112 -38688 -42784 -15136 -39712 -43808 -45856 -15648 -40224 -44320 -46368 -47392 -15904 -40480 -44576 -46624 -47648 -48160 -16144 -40720 -44816 -46864 -47888 -48400 -48656 -16152 -40728 -44824 -46872 -47896 -48408 -48664 -48904 -16156 -40732 -44828 -46876 -47900 -48412 -48668 -48908 -48916 0
-32996 -30 -270 -526 -1038 -2062 -4110 -8206 -16398 -278 -534 -1046 -2070 -4118 -8214 -16406 -774 -1286 -2310 -4358 -8454 -16646 -1542 -2566 -4614 -8710 -16902 -3078 -5126 -9222 -17414 -6150 -10246 -18438 -12294 -20486 -24582 -282 -538 -1050 -2074 -4122 -8218 -16410 -778 -1290 -2314 -4362 -8458 -16650 -1546 -2570 -4618 -8714 -16906 -3082 -5130 -9226 -17418 -6154 -10250 -18442 -12298 -20490 -24586 -786 -1298 -2322 -4370 -8466 -16658 -1554 -2578 -4626 -8722 -16914 -3090 -5138 -9234 -17426 -6162 -10258 -18450 -12306 -20498 -24594 -1794 -2818 -4866 -8962 -17154 -3330 -5378 -9474 -17666 -6402 -10498 -18690 -12546 -20738 -24834 -3586 -5634 -9730 -17922 -6658 -10754 -18946 -12802 -20994 -25090 -7170 -11266 -19458 -13314 -21506 -25602 -14338 -22530 -26626 -28674 -1823 -2847 -4895 -8991 -17183 -3359 -5407 -9503 -17695 -6431 -10527 -18719 -12575 -20767 -24863 -3615 -5663 -9759 -17951 -6687 -10783 -18975 -12831 -21023 -25119 -7199 -11295 -19487 -13343 -21535 -25631 -14367 -22559 -26655 -28703 -3855 -5903 -9999 -18191 -6927 -11023 -19215 -13071 -21263 -25359 -7439 -11535 -19727 -13583 -21775 -25871 -14607 -22799 -26895 -28943 -7695 -11791 -19983 -13839 -22031 -26127 -14863 -23055 -27151 -29199 -15375 -23567 -27663 -29711 -30735 -3863 -5911 -10007 -18199 -6935 -11031 -19223 -13079 -21271 -25367 -7447 -11543 -19735 -13591 -21783 -25879 -14615 -22807 -26903 -28951 -7703 -11799 -19991 -13847 -22039 -26135 -14871 -23063 -27159 -29207 -15383 -23575 -27671 -29719 -30743 -7943 -12039 -20231 -14087 -22279 -26375 -15111 -23303 -27399 -29447 -15623 -23815 -27911 -29959 -30983 -15879 -24071 -28167 -30215 -31239 -31751 -3867 -5915 -10011 -18203 -6939 -11035 -19227 -13083 -21275 -25371 -7451 -11547 -19739 -13595 -21787 -25883 -14619 -22811 -26907 -28955 -7707 -11803 -19995 -13851 -22043 -26139 -14875 -23067 -27163 -29211 -15387 -23579 -27675 -29723 -30747 -7947 -12043 -20235 -14091 -22283 -26379 -15115 -23307 -27403 -29451 -15627 -23819 -27915 -29963 -30987 -15883 -24075 -28171 -30219 -31243 -31755 -7955 -12051 -20243 -14099 -22291 -26387 -15123 -23315 -27411 -29459 -15635 -23827 -27923 -29971 -30995 -15891 -24083 -28179 -30227 -31251 -31763 -16131 -24323 -28419 -30467 -31491 -32003 -32259 -7968 -12064 -20256 -14112 -22304 -26400 -15136 -23328 -27424 -29472 -15648 -23840 -27936 -29984 -31008 -15904 -24096 -28192 -30240 -31264 -31776 -16144 -24336 -28432 -30480 -31504 -32016 -32272 -16152 -24344 -28440 -30488 -31512 -32024 -32280 -32520 -16156 -24348 -28444 -30492 -31516 -32028 -32284 -32524 -32532 0
-3844 -30 -46 -78 -142 -4110 -8206 -16398 -32782 -54 -86 -150 -4118 -8214 -16406 -32790 -102 -166 -4134 -8230 -16422 -32806 -198 -4166 -8262 -16454 -32838 -4230 -8326 -16518 -32902 -12294 -20486 -36870 -24582 -40966 -49158 -58 -90 -154 -4122 -8218 -16410 -32794 -106 -170 -4138 -8234 -16426 -32810 -202 -4170 -8266 -16458 -32842 -4234 -8330 -16522 -32906 -12298 -20490 -36874 -24586 -40970 -49162 -114 -178 -4146 -8242 -16434 -32818 -210 -4178 -8274 -16466 -32850 -4242 -8338 -16530 -32914 -12306 -20498 -36882 -24594 -40978 -49170 -226 -4194 -8290 -16482 -32866 -4258 -8354 -16546 -32930 -12322 -20514 -36898 -24610 -40994 -49186 -4290 -8386 -16578 -32962 -12354 -20546 -36930 -24642 -41026 -49218 -12418 -20610 -36994 -24706 -41090 -49282 -28674 -45058 -53250 -57346 -255 -4223 -8319 -16511 -32895 -4287 -8383 -16575 -32959 -12351 -20543 -36927 -24639 -41023 -49215 -4319 -8415 -16607 -32991 -12383 -20575 -36959 -24671 -41055 -49247 -12447 -20639 -37023 -24735 -41119 -49311 -28703 -45087 -53279 -57375 -4335 -8431 -16623 -33007 -12399 -20591 -36975 -24687 -41071 -49263 -12463 -20655 -37039 -24751 -41135 -49327 -28719 -45103 -53295 -57391 -12495 -20687 -37071 -24783 -41167 -49359 -28751 -45135 -53327 -57423 -28815 -45199 -53391 -57487 -61455 -4343 -8439 -16631 -33015 -12407 -20599 -36983 -24695 -41079 -49271 -12471 -20663 -37047 -24759 -41143 -49335 -28727 -45111 -53303 -57399 -12503 -20695 -37079 -24791 -41175 -49367 -28759 -45143 -53335 -57431 -28823 -45207 -53399 -57495 -61463 -12519 -20711 -37095 -24807 -41191 -49383 -28775 -45159 -53351 -57447 -28839 -45223 -53415 -57511 -61479 -28871 -45255 -53447 -57543 -61511 -61575 -4347 -8443 -16635 -33019 -12411 -20603 -36987 -24699 -41083 -49275 -12475 -20667 -37051 -24763 -41147 -49339 -28731 -45115 -53307 -57403 -12507 -20699 -37083 -24795 -41179 -49371 -28763 -45147 -53339 -57435 -28827 -45211 -53403 -57499 -61467 -12523 -20715 -37099 -24811 -41195 -49387 -28779 -45163 -53355 -57451 -28843 -45227 -53419 -57515 -61483 -28875 -45259 -53451 -57547 -61515 -61579 -12531 -20723 -37107 -24819 -41203 -49395 -28787 -45171 -53363 -57459 -28851 -45235 -53427 -57523 -61491 -28883 -45267 -53459 -57555 -61523 -61587 -28899 -45283 -53475 -57571 -61539 -61603 -61635 -12544 -20736 -37120 -24832 -41216 -49408 -28800 -45184 -53376 -57472 -28864 -45248 -53440 -57536 -61504 -28896 -45280 -53472 -57568 -61536 -61600 -28912 -45296 -53488 -57584 -61552 -61616 -61648 -28920 -45304 -53496 -57592 -61560 -61624 -61656 -61672 -28924 -45308 -53500 -57596 -61564 -61628 -61660 -61676 -61684 0
-5892 -30 -46 -78 -142 -2062 -8206 -16398 -32782 -54 -86 -150 -2070 -8214 -16406 -32790 -102 -166 -2086 -8230 -16422 -32806 -198 -2118 -8262 -16454 -32838 -2182 -8326 -16518 -32902 -10246 -18438 -34822 -24582 -40966 -49158 -58 -90 -154 -2074 -8218 -16410 -32794 -106 -170 -2090 -8234 -16426 -32810 -202 -2122 -8266 -16458 -32842 -2186 -8330 -16522 -32906 -10250 -18442 -34826 -24586 -40970 -49162 -114 -178 -2098 -8242 -16434 -32818 -210 -2130 -8274 -16466 -32850 -2194 -8338 -16530 -32914 -10258 -18450 -34834 -24594 -40978 -49170 -226 -2146 -8290 -16482 -32866 -2210 -8354 -16546 -32930 -10274 -18466 -34850 -24610 -40994 -49186 -2242 -8386 -16578 -32962 -10306 -18498 -34882 -24642 -41026 -49218 -10370 -18562 -34946 -24706 -41090 -49282 -26626 -43010 -51202 -57346 -255 -2175 -8319 -16511 -32895 -2239 -8383 -16575 -32959 -10303 -18495 -34879 -24639 -41023 -49215 -2271 -8415 -16607 -32991 -10335 -18527 -34911 -24671 -41055 -49247 -10399 -18591 -34975 -24735 -41119 -49311 -26655 -43039 -51231 -57375 -2287 -8431 -16623 -33007 -10351 -18543 -34927 -24687 -41071 -49263 -10415 -18607 -34991 -24751 -41135 -49327 -26671 -43055 -51247 -57391 -10447 -18639 -35023 -24783 -41167 -49359 -26703 -43087 -51279 -57423 -26767 -43151 -51343 -57487 -59407 -2295 -8439 -16631 -33015 -10359 -18551 -34935 -24695 -41079 -49271 -10423 -18615 -34999 -24759 -41143 -49335 -26679 -43063 -51255 -57399 -10455 -18647 -35031 -24791 -41175 -49367 -26711 -43095 -51287 -57431 -26775 -43159 -51351 -57495 -59415 -10471 -18663 -35047 -24807 -41191 -49383 -26727 -43111 -51303 -57447 -26791 -43175 -51367 -57511 -59431 -26823 -43207 -51399 -57543 -59463 -59527 -2299 -8443 -16635 -33019 -10363 -18555 -34939 -24699 -41083 -49275 -10427 -18619 -35003 -24763 -41147 -49339 -26683 -43067 -51259 -57403 -10459 -18651 -35035 -24795 -41179 -49371 -26715 -43099 -51291 -57435 -26779 -43163 -51355 -57499 -59419 -10475 -18667 -35051 -24811 -41195 -49387 -26731 -43115 -51307 -57451 -26795 -43179 -51371 -57515 -59435 -26827 -43211 -51403 -57547 -59467 -59531 -10483 -18675 -35059 -24819 -41203 -49395 -26739 -43123 -51315 -57459 -26803 -43187 -51379 -57523 -59443 -26835 -43219 -51411 -57555 -59475 -59539 -26851 -43235 -51427 -57571 -59491 -59555 -59587 -10496 -18688 -35072 -24832 -41216 -49408 -26752 -43136 -51328 -57472 -26816 -43200 -51392 -57536 -59456 -26848 -43232 -51424 -57568 -59488 -59552 -26864 -43248 -51440 -57584 -59504 -59568 -59600 -26872 -43256 -51448 -57592 -59512 -59576 -59608 -59624 -26876 -43260 -51452 -57596 -59516 -59580 -59612 -59628 -59636 0
-9988 -30 -46 -78 -142 -2062 -4110 -16398 -32782 -54 -86 -150 -2070 -4118 -16406 -32790 -102 -166 -2086 -4134 -16422 -32806 -198 -2118 -4166 -16454 -32838 -2182 -4230 -16518 -32902 -6150 -18438 -34822 -20486 -36870 -49158 -58 -90 -154 -2074 -4122 -16410 -32794 -106 -170 -2090 -4138 -16426 -32810 -202 -2122 -4170 -16458 -32842 -2186 -4234 -16522 -32906 -6154 -18442 -34826 -20490 -36874 -49162 -114 -178 -2098 -4146 -16434 -32818 -210 -2130 -4178 -16466 -32850 -2194 -4242 -16530 -32914 -6162 -18450 -34834 -20498 -36882 -49170 -226 -2146 -4194 -16482 -32866 -2210 -4258 -16546 -32930 -6178 -18466 -34850 -20514 -36898 -49186 -2242 -4290 -16578 -32962 -6210 -18498 -34882 -20546 -36930 -49218 -6274 -18562 -34946 -20610 -36994 -49282 -22530 -38914 -51202 -53250 -255 -2175 -4223 -16511 -32895 -2239 -4287 -16575 -32959 -6207 -18495 -34879 -20543 -36927 -49215 -2271 -4319 -16607 -32991 -6239 -18527 -34911 -20575 -36959 -49247 -6303 -18591 -34975 -20639 -37023 -49311 -22559 -38943 -51231 -53279 -2287 -4335 -16623 -33007 -6255 -18543 -34927 -20591 -36975 -49263 -6319 -18607 -34991 -20655 -37039 -49327 -22575 -38959 -51247 -53295 -6351 -18639 -35023 -20687 -37071 -49359 -22607 -38991 -51279 -53327 -22671 -39055 -51343 -53391 -55311 -2295 -4343 -16631 -33015 -6263 -18551 -34935 -20599 -36983 -49271 -6327 -18615 -34999 -20663 -37047 -49335 -22583 -38967 -51255 -53303 -6359 -18647 -35031 -20695 -37079 -49367 -22615 -38999 -51287 -53335 -22679 -39063 -51351 -53399 -55319 -6375 -18663 -35047 -20711 -37095 -49383 -22631 -39015 -51303 -53351 -22695 -39079 -51367 -53415 -55335 -22727 -39111 -51399 -53447 -55367 -55431 -2299 -4347 -16635 -33019 -6267 -18555 -34939 -20603 -36987 -49275 -6331 -18619 -35003 -20667 -37051 -49339 -22587 -38971 -51259 -53307 -6363 -18651 -35035 -20699 -37083 -49371 -22619 -39003 -51291 -53339 -22683 -39067 -51355 -53403 -55323 -6379 -18667 -35051 -20715 -37099 -49387 -22635 -39019 -51307 -53355 -22699 -39083 -51371 -53419 -55339 -22731 -39115 -51403 -53451 -55371 -55435 -6387 -18675 -35059 -20723 -37107 -49395 -22643 -39027 -51315 -53363 -22707 -39091 -51379 -53427 -55347 -22739 -39123 -51411 -53459 -55379 -55443 -22755 -39139 -51427 -53475 -55395 -55459 -55491 -6400 -18688 -35072 -20736 -37120 -49408 -22656 -39040 -51328 -53376 -22720 -39104 -51392 -53440 -55360 -22752 -39136 -51424 -53472 -55392 -55456 -22768 -39152 -51440 -53488 -55408 -55472 -55504 -22776 -39160 -51448 -53496 -55416 -55480 -55512 -55528 -22780 -39164 -51452 -53500 -55420 -55484 -55516 -55532 -55540 0
-18180 -30 -46 -78 -142 -2062 -4110 -8206 -32782 -54 -86 -150 -2070 -4118 -8214 -32790 -102 -166 -2086 -4134 -8230 -32806 -198 -2118 -4166 -8262 -32838 -2182 -4230 -8326 -32902 -6150 -10246 -34822 -12294 -36870 -40966 -58 -90 -154 -2074 -4122 -8218 -32794 -106 -170 -2090 -4138 -8234 -32810 -202 -2122 -4170 -8266 -32842 -2186 -4234 -8330 -32906 -6154 -10250 -34826 -12298 -36874 -40970 -114 -178 -2098 -4146 -8242 -32818 -210 -2130 -4178 -8274 -32850 -2194 -4242 -8338 -32914 -6162 -10258 -34834 -12306 -36882 -40978 -226 -2146 -4194 -8290 -32866 -2210 -4258 -8354 -32930 -6178 -10274 -34850 -12322 -36898 -40994 -2242 -4290 -8386 -32962 -6210 -10306 -34882 -12354 -36930 -41026 -6274 -10370 -34946 -12418 -36994 -41090 -14338 -38914 -43010 -45058 -255 -2175 -4223 -8319 -32895 -2239 -4287 -8383 -32959 -6207 -10303 -34879 -12351 -36927 -41023 -2271 -4319 -8415 -32991 -6239 -10335 -34911 -12383 -36959 -41055 -6303 -10399 -34975 -12447 -37023 -41119 -14367 -38943 -43039 -45087 -2287 -4335 -8431 -33007 -6255 -10351 -34927 -12399 -36975 -41071 -6319 -10415 -34991 -12463 -37039 -41135 -14383 -38959 -43055 -45103 -6351 -10447 -35023 -12495 -37071 -41167 -14415 -38991 -43087 -45135 -14479 -39055 -43151 -45199 -47119 -2295 -4343 -8439 -33015 -6263 -10359 -34935 -12407 -36983 -41079 -6327 -10423 -34999 -12471 -37047 -41143 -14391 -38967 -43063 -45111 -6359 -10455 -35031 -12503 -37079 -41175 -14423 -38999 -43095 -45143 -14487 -39063 -43159 -45207 -47127 -6375 -10471 -35047 -12519 -37095 -41191 -14439 -39015 -43111 -45159 -14503 -39079 -43175 -45223 -47143 -14535 -39111 -43207 -45255 -47175 -47239 -2299 -4347 -8443 -33019 -6267 -10363 -34939 -12411 -36987 -41083 -6331 -10427 -35003 -12475 -37051 -41147 -14395 -38971 -43067 -45115 -6363 -10459 -35035 -12507 -37083 -41179 -14427 -39003 -43099 -45147 -14491 -39067 -43163 -45211 -47131 -6379 -10475 -35051 -12523 -37099 -41195 -14443 -39019 -43115 -45163 -14507 -39083 -43179 -45227 -47147 -14539 -39115 -43211 -45259 -47179 -47243 -6387 -10483 -35059 -12531 -37107 -41203 -14451 -39027 -43123 -45171 -14515 -39091 -43187 -45235 -47155 -14547 -39123 -43219 -45267 -47187 -47251 -14563 -39139 -43235 -45283 -47203 -47267 -47299 -6400 -10496 -35072 -12544 -37120 -41216 -14464 -39040 -43136 -45184 -14528 -39104 -43200 -45248 -47168 -14560 -39136 -43232 -45280 -47200 -47264 -14576 -39152 -43248 -45296 -47216 -47280 -47312 -14584 -39160 -43256 -45304 -47224 -47288 -47320 -47336 -14588 -39164 -43260 -45308 -47228 -47292 -47324 -47340 -47348 0
-34564 -30 -46 -78 -142 -2062 -4110 -8206 -16398 -54 -86 -150 -2070 -4118 -8214 -16406 -102 -166 -2086 -4134 -8230 -16422 -198 -2118 -4166 -8262 -16454 -2182 -4230 -8326 -16518 -6150 -10246 -18438 -12294 -20486 -24582 -58 -90 -154 -2074 -4122 -8218 -16410 -106 -170 -2090 -4138 -8234 -16426 -202 -2122 -4170 -8266 -16458 -2186 -4234 -8330 -16522 -6154 -10250 -18442 -12298 -20490 -24586 -114 -178 -2098 -4146 -8242 -16434 -210 -2130 -4178 -8274 -16466 -2194 -4242 -8338 -16530 -6162 -10258 -18450 -12306 -20498 -24594 -226 -2146 -4194 -8290 -16482 -2210 -4258 -8354 -16546 -6178 -10274 -18466 -12322 -20514 -24610 -2242 -4290 -8386 -16578 -6210 -10306 -18498 -12354 -20546 -24642 -6274 -10370 -18562 -12418 -20610 -24706 -14338 -22530 -26626 -28674 -255 -2175 -4223 -8319 -16511 -2239 -4287 -8383 -16575 -6207 -10303 -18495 -12351 -20543 -24639 -2271 -4319 -8415 -16607 -6239 -10335 -18527 -12383 -20575 -24671 -6303 -10399 -18591 -12447 -20639 -24735 -14367 -22559 -26655 -28703 -2287 -4335 -8431 -16623 -6255 -10351 -18543 -12399 -20591 -24687 -6319 -10415 -18607 -12463 -20655 -24751 -14383 -22575 -26671 -28719 -6351 -10447 -18639 -12495 -20687 -24783 -14415 -22607 -26703 -28751 -14479 -22671 -26767 -28815 -30735 -2295 -4343 -8439 -16631 -6263 -10359 -18551 -12407 -20599 -24695 -6327 -10423 -18615 -12471 -20663 -24759 -14391 -22583 -26679 -28727 -6359 -10455 -18647 -12503 -20695 -24791 -14423 -22615 -26711 -28759 -14487 -22679 -26775 -28823 -30743 -6375 -10471 -18663 -12519 -20711 -24807 -14439 -22631 -26727 -28775 -14503 -22695 -26791 -28839 -30759 -14535 -22727 -26823 -28871 -30791 -30855 -2299 -4347 -8443 -16635 -6267 -10363 -18555 -12411 -20603 -24699 -6331 -10427 -18619 -12475 -20667 -24763 -14395 -22587 -26683 -28731 -6363 -10459 -18651 -12507 -20699 -24795 -14427 -22619 -26715 -28763 -14491 -22683 -26779 -28827 -30747 -6379 -10475 -18667 -12523 -20715 -24811 -14443 -22635 -26731 -28779 -14507 -22699 -26795 -28843 -30763 -14539 -22731 -26827 -28875 -30795 -30859 -6387 -10483 -18675 -12531 -20723 -24819 -14451 -22643 -26739 -28787 -14515 -22707 -26803 -28851 -30771 -14547 -22739 -26835 -28883 -30803 -30867 -14563 -22755 -26851 -28899 -30819 -30883 -30915 -6400 -10496 -18688 -12544 -20736 -24832 -14464 -22656 -26752 -28800 -14528 -22720 -26816 -28864 -30784 -14560 -22752 -26848 -28896 -30816 -30880 -14576 -22768 -26864 -28912 -30832 -30896 -30928 -14584 -22776 -26872 -28920 -30840 -30904 -30936 -30952 -14588 -22780 -26876 -28924 -30844 -30908 -30940 -30956 -30964 0
