p cnf 256 221
-15 0
14 0
-23 0
22 0
-27 0
26 0
-32 0
-39 0
38 0
-43 0
42 0
-48 0
-51 0
50 0
-56 0
-60 0
63 0
-71 0
70 0
-75 0
74 0
-80 0
-83 0
82 0
-88 0
-92 0
-99 0
98 0
-104 0
-108 0
111 0
-116 0
119 0
128 0
-135 0
134 0
-139 0
138 0
-144 0
-147 0
146 0
-152 0
-156 0
159 0
-163 0
162 0
-168 0
-172 0
175 0
-180 0
187 0
192 0
-195 0
194 0
-200 0
-204 0
-212 0
215 0
219 0
224 0
-228 0
231 0
235 0
240 0
243 0
248 0
252 0
-111 47 79 15 -14 0
-175 47 143 15 -14 0
-159 31 151 23 -22 0
-119 55 87 23 -22 0
-159 31 155 27 -26 0
-64 31 0
-128 64 96 32 -31 0
-192 64 160 32 -31 0
-224 96 160 32 -31 0
-160 31 0
-175 47 167 39 -38 0
-231 103 167 39 -38 0
-175 47 171 43 -42 0
-64 47 0
-128 64 112 48 -47 0
-192 64 176 48 -47 0
-240 112 176 48 -47 0
-176 47 0
-63 55 59 51 -50 0
-187 59 179 51 -50 0
-128 64 120 56 -55 0
-192 64 184 56 -55 0
-120 55 0
-184 55 0
-64 59 0
-128 64 124 60 -59 0
-192 64 188 60 -59 0
-252 124 188 60 -59 0
-188 59 0
-111 79 103 71 -70 0
-215 87 199 71 -70 0
-111 79 107 75 -74 0
-235 107 203 75 -74 0
-128 96 112 80 -79 0
-224 96 208 80 -79 0
-112 79 0
-240 112 208 80 -79 0
-208 79 0
-219 91 211 83 -82 0
-243 115 211 83 -82 0
-128 96 120 88 -87 0
-224 96 216 88 -87 0
-248 120 216 88 -87 0
-216 87 0
-128 96 124 92 -91 0
-224 96 220 92 -91 0
-220 91 0
-119 103 115 99 -98 0
-112 103 0
-128 112 120 104 -103 0
-240 112 232 104 -103 0
-120 103 0
-248 120 232 104 -103 0
-232 103 0
-112 107 0
-128 112 124 108 -107 0
-240 112 236 108 -107 0
-124 107 0
-252 124 236 108 -107 0
-236 107 0
-120 115 0
-128 120 124 116 -115 0
-248 120 244 116 -115 0
-252 124 244 116 -115 0
-244 115 0
-175 143 167 135 -134 0
-175 143 171 139 -138 0
-235 171 203 139 -138 0
-192 160 176 144 -143 0
-224 160 208 144 -143 0
-176 143 0
-240 176 208 144 -143 0
-208 143 0
-187 155 179 147 -146 0
-243 179 211 147 -146 0
-160 151 0
-192 160 184 152 -151 0
-224 160 216 152 -151 0
-248 184 216 152 -151 0
-216 151 0
-192 160 188 156 -155 0
-224 160 220 156 -155 0
-188 155 0
-220 155 0
-187 171 179 163 -162 0
-243 179 227 163 -162 0
-176 167 0
-192 176 184 168 -167 0
-240 176 232 168 -167 0
-248 184 232 168 -167 0
-232 167 0
-176 171 0
-192 176 188 172 -171 0
-240 176 236 172 -171 0
-252 188 236 172 -171 0
-236 171 0
-192 184 188 180 -179 0
-248 184 244 180 -179 0
-188 179 0
-252 188 244 180 -179 0
-244 179 0
-231 199 227 195 -194 0
-219 203 211 195 -194 0
-243 211 227 195 -194 0
-224 208 216 200 -199 0
-240 208 232 200 -199 0
-216 199 0
-248 216 232 200 -199 0
-232 199 0
-208 203 0
-224 208 220 204 -203 0
-240 208 236 204 -203 0
-220 203 0
-252 220 236 204 -203 0
-236 203 0
-224 216 220 212 -211 0
-248 216 244 212 -211 0
-220 211 0
-252 220 244 212 -211 0
-244 211 0
-232 227 0
-240 232 236 228 -227 0
-248 232 244 228 -227 0
-252 236 244 228 -227 0
-244 227 0
-64 -124 -244 -232 -208 -160 0
-96 -220 -244 -232 -176 -64 0
-160 -220 -244 -232 -112 -64 0
-64 -124 -244 -216 -208 -176 0
-112 -124 -244 -216 -160 -176 0
-112 -236 -244 -216 -160 -64 0
-176 -188 -244 -216 -96 -112 0
-176 -236 -244 -216 -96 -64 0
-112 -236 -244 -184 -160 -96 0
-208 -220 -244 -184 -64 -112 0
-176 -236 -244 -120 -96 -160 0
-208 -220 -244 -120 -64 -176 0
-208 -236 -244 -120 -64 -160 0
-64 -124 -236 -232 -216 -160 0
-160 -188 -236 -232 -120 -96 0
-160 -220 -236 -232 -120 -64 0
-96 -220 -236 -176 -184 -120 0
-216 -220 -236 -176 -64 -120 0
-160 -188 -236 -112 -120 -216 0
-64 -188 -220 -216 -232 -112 0
-176 -188 -220 -216 -120 -112 0
-120 -124 -220 -208 -176 -184 0
-184 -188 -220 -208 -112 -120 0
-184 -188 -220 -96 -112 -232 0
-112 -124 -188 -184 -216 -208 0
-96 -124 -188 -176 -232 -216 0
-120 -124 -188 -176 -208 -216 0
-112 -124 -188 -160 -216 -232 0
-120 -124 -188 -160 -208 -232 0
