p cnf 1024 6242
-6 0
5 0
-10 0
9 0
-15 0
-18 0
17 0
-23 0
-27 0
-32 0
30 0
-34 0
33 0
-39 0
-43 0
-48 0
46 0
-51 0
-56 0
54 0
-60 0
58 0
-66 0
65 0
-71 0
-75 0
-80 0
78 0
-83 0
-88 0
86 0
-92 0
90 0
-99 0
-104 0
102 0
-108 0
106 0
-116 0
114 0
127 0
-130 0
129 0
-135 0
-139 0
-144 0
142 0
-147 0
-152 0
150 0
-156 0
154 0
-163 0
-168 0
166 0
-172 0
170 0
-180 0
178 0
-188 187 0
191 0
-195 0
-200 0
198 0
-204 0
202 0
-208 207 0
-212 0
210 0
-220 219 0
223 0
-228 0
226 0
239 0
247 0
251 0
-258 0
257 0
-263 0
-267 0
-272 0
270 0
-275 0
-280 0
278 0
-284 0
282 0
-291 0
-296 0
294 0
-300 0
298 0
-308 0
306 0
319 0
-323 0
-328 0
326 0
-332 0
330 0
-340 0
338 0
351 0
-356 0
354 0
367 0
375 0
379 0
-387 0
-392 0
390 0
-396 0
394 0
-400 399 0
-404 0
402 0
415 0
-420 0
418 0
431 0
439 0
443 0
-452 0
450 0
463 0
471 0
475 0
487 0
491 0
499 0
512 0
-514 0
513 0
-519 0
-523 0
-528 0
526 0
-531 0
-536 0
534 0
-540 0
538 0
-547 0
-552 0
550 0
-556 0
554 0
-564 0
562 0
575 0
-579 0
-584 0
582 0
-588 0
586 0
-596 0
594 0
607 0
-612 0
610 0
623 0
631 0
635 0
-643 0
-648 0
646 0
-652 0
650 0
-660 0
658 0
671 0
-676 0
674 0
687 0
695 0
699 0
-708 0
706 0
-716 715 0
719 0
727 0
731 0
743 0
747 0
755 0
768 0
-771 0
-776 0
774 0
-780 0
778 0
-788 0
786 0
799 0
-804 0
802 0
-812 811 0
815 0
823 0
827 0
-836 0
834 0
847 0
855 0
859 0
871 0
875 0
883 0
896 0
-900 0
898 0
911 0
919 0
923 0
935 0
939 0
947 0
960 0
967 0
971 0
979 0
992 0
995 0
1008 0
1016 0
1020 0
-30 14 22 6 -5 0
-46 14 38 6 -5 0
-78 14 70 6 -5 0
-142 14 134 6 -5 0
-270 14 262 6 -5 0
-526 14 518 6 -5 0
-54 22 38 6 -5 0
-86 22 70 6 -5 0
-150 22 134 6 -5 0
-278 22 262 6 -5 0
-534 22 518 6 -5 0
-102 38 70 6 -5 0
-166 38 134 6 -5 0
-294 38 262 6 -5 0
-550 38 518 6 -5 0
-198 70 134 6 -5 0
-326 70 262 6 -5 0
-582 70 518 6 -5 0
-390 134 262 6 -5 0
-646 134 518 6 -5 0
-774 262 518 6 -5 0
-30 14 26 10 -9 0
-46 14 42 10 -9 0
-78 14 74 10 -9 0
-142 14 138 10 -9 0
-270 14 266 10 -9 0
-526 14 522 10 -9 0
-58 26 42 10 -9 0
-90 26 74 10 -9 0
-154 26 138 10 -9 0
-282 26 266 10 -9 0
-538 26 522 10 -9 0
-106 42 74 10 -9 0
-170 42 138 10 -9 0
-298 42 266 10 -9 0
-554 42 522 10 -9 0
-202 74 138 10 -9 0
-330 74 266 10 -9 0
-586 74 522 10 -9 0
-394 138 266 10 -9 0
-650 138 522 10 -9 0
-778 266 522 10 -9 0
-31 14 0
-63 31 47 15 -14 0
-95 31 79 15 -14 0
-159 31 143 15 -14 0
-287 31 271 15 -14 0
-543 31 527 15 -14 0
-47 14 0
-111 47 79 15 -14 0
-175 47 143 15 -14 0
-303 47 271 15 -14 0
-559 47 527 15 -14 0
-79 14 0
-207 79 143 15 -14 0
-335 79 271 15 -14 0
-591 79 527 15 -14 0
-143 14 0
-399 143 271 15 -14 0
-655 143 527 15 -14 0
-271 14 0
-783 271 527 15 -14 0
-527 14 0
-30 22 26 18 -17 0
-54 22 50 18 -17 0
-86 22 82 18 -17 0
-150 22 146 18 -17 0
-278 22 274 18 -17 0
-534 22 530 18 -17 0
-58 26 50 18 -17 0
-90 26 82 18 -17 0
-154 26 146 18 -17 0
-282 26 274 18 -17 0
-538 26 530 18 -17 0
-114 50 82 18 -17 0
-178 50 146 18 -17 0
-306 50 274 18 -17 0
-562 50 530 18 -17 0
-210 82 146 18 -17 0
-338 82 274 18 -17 0
-594 82 530 18 -17 0
-402 146 274 18 -17 0
-658 146 530 18 -17 0
-786 274 530 18 -17 0
-31 22 0
-63 31 55 23 -22 0
-95 31 87 23 -22 0
-159 31 151 23 -22 0
-287 31 279 23 -22 0
-543 31 535 23 -22 0
-55 22 0
-119 55 87 23 -22 0
-183 55 151 23 -22 0
-311 55 279 23 -22 0
-567 55 535 23 -22 0
-87 22 0
-215 87 151 23 -22 0
-343 87 279 23 -22 0
-599 87 535 23 -22 0
-151 22 0
-407 151 279 23 -22 0
-663 151 535 23 -22 0
-279 22 0
-791 279 535 23 -22 0
-535 22 0
-31 26 0
-63 31 59 27 -26 0
-95 31 91 27 -26 0
-159 31 155 27 -26 0
-287 31 283 27 -26 0
-543 31 539 27 -26 0
-59 26 0
-123 59 91 27 -26 0
-187 59 155 27 -26 0
-315 59 283 27 -26 0
-571 59 539 27 -26 0
-91 26 0
-219 91 155 27 -26 0
-347 91 283 27 -26 0
-603 91 539 27 -26 0
-155 26 0
-411 155 283 27 -26 0
-667 155 539 27 -26 0
-283 26 0
-795 283 539 27 -26 0
-539 26 0
-31 63 0
-64 31 0
-127 63 95 31 -30 0
-128 64 96 32 -31 0
-191 63 159 31 -30 0
-192 64 160 32 -31 0
-319 63 287 31 -30 0
-320 64 288 32 -31 0
-575 63 543 31 -30 0
-576 64 544 32 -31 0
-31 95 0
-96 31 0
-223 95 159 31 -30 0
-224 96 160 32 -31 0
-351 95 287 31 -30 0
-352 96 288 32 -31 0
-607 95 543 31 -30 0
-608 96 544 32 -31 0
-31 159 0
-160 31 0
-415 159 287 31 -30 0
-416 160 288 32 -31 0
-671 159 543 31 -30 0
-672 160 544 32 -31 0
-31 287 0
-288 31 0
-800 288 544 32 -31 0
-31 543 0
-544 31 0
-46 38 42 34 -33 0
-54 38 50 34 -33 0
-102 38 98 34 -33 0
-166 38 162 34 -33 0
-294 38 290 34 -33 0
-550 38 546 34 -33 0
-58 42 50 34 -33 0
-106 42 98 34 -33 0
-170 42 162 34 -33 0
-298 42 290 34 -33 0
-554 42 546 34 -33 0
-114 50 98 34 -33 0
-178 50 162 34 -33 0
-306 50 290 34 -33 0
-562 50 546 34 -33 0
-226 98 162 34 -33 0
-354 98 290 34 -33 0
-610 98 546 34 -33 0
-418 162 290 34 -33 0
-674 162 546 34 -33 0
-802 290 546 34 -33 0
-47 38 0
-63 47 55 39 -38 0
-111 47 103 39 -38 0
-175 47 167 39 -38 0
-303 47 295 39 -38 0
-559 47 551 39 -38 0
-55 38 0
-119 55 103 39 -38 0
-183 55 167 39 -38 0
-311 55 295 39 -38 0
-567 55 551 39 -38 0
-103 38 0
-231 103 167 39 -38 0
-359 103 295 39 -38 0
-615 103 551 39 -38 0
-167 38 0
-423 167 295 39 -38 0
-679 167 551 39 -38 0
-295 38 0
-807 295 551 39 -38 0
-551 38 0
-47 42 0
-63 47 59 43 -42 0
-111 47 107 43 -42 0
-175 47 171 43 -42 0
-303 47 299 43 -42 0
-559 47 555 43 -42 0
-59 42 0
-123 59 107 43 -42 0
-187 59 171 43 -42 0
-315 59 299 43 -42 0
-571 59 555 43 -42 0
-107 42 0
-235 107 171 43 -42 0
-363 107 299 43 -42 0
-619 107 555 43 -42 0
-171 42 0
-427 171 299 43 -42 0
-683 171 555 43 -42 0
-299 42 0
-811 299 555 43 -42 0
-555 42 0
-47 63 0
-64 47 0
-127 63 111 47 -46 0
-128 64 112 48 -47 0
-191 63 175 47 -46 0
-192 64 176 48 -47 0
-319 63 303 47 -46 0
-320 64 304 48 -47 0
-575 63 559 47 -46 0
-576 64 560 48 -47 0
-47 111 0
-112 47 0
-239 111 175 47 -46 0
-240 112 176 48 -47 0
-367 111 303 47 -46 0
-368 112 304 48 -47 0
-623 111 559 47 -46 0
-624 112 560 48 -47 0
-47 175 0
-176 47 0
-431 175 303 47 -46 0
-432 176 304 48 -47 0
-687 175 559 47 -46 0
-688 176 560 48 -47 0
-47 303 0
-304 47 0
-815 303 559 47 -46 0
-816 304 560 48 -47 0
-47 559 0
-560 47 0
-55 50 0
-63 55 59 51 -50 0
-119 55 115 51 -50 0
-183 55 179 51 -50 0
-311 55 307 51 -50 0
-567 55 563 51 -50 0
-59 50 0
-123 59 115 51 -50 0
-187 59 179 51 -50 0
-315 59 307 51 -50 0
-571 59 563 51 -50 0
-115 50 0
-243 115 179 51 -50 0
-371 115 307 51 -50 0
-627 115 563 51 -50 0
-179 50 0
-435 179 307 51 -50 0
-691 179 563 51 -50 0
-307 50 0
-819 307 563 51 -50 0
-563 50 0
-55 63 0
-64 55 0
-127 63 119 55 -54 0
-128 64 120 56 -55 0
-191 63 183 55 -54 0
-192 64 184 56 -55 0
-319 63 311 55 -54 0
-320 64 312 56 -55 0
-575 63 567 55 -54 0
-576 64 568 56 -55 0
-55 119 0
-120 55 0
-247 119 183 55 -54 0
-248 120 184 56 -55 0
-375 119 311 55 -54 0
-376 120 312 56 -55 0
-631 119 567 55 -54 0
-632 120 568 56 -55 0
-55 183 0
-184 55 0
-439 183 311 55 -54 0
-440 184 312 56 -55 0
-695 183 567 55 -54 0
-696 184 568 56 -55 0
-55 311 0
-312 55 0
-823 311 567 55 -54 0
-824 312 568 56 -55 0
-55 567 0
-568 55 0
-59 63 0
-64 59 0
-127 63 123 59 -58 0
-128 64 124 60 -59 0
-191 63 187 59 -58 0
-192 64 188 60 -59 0
-319 63 315 59 -58 0
-320 64 316 60 -59 0
-575 63 571 59 -58 0
-576 64 572 60 -59 0
-59 123 0
-124 59 0
-251 123 187 59 -58 0
-252 124 188 60 -59 0
-379 123 315 59 -58 0
-380 124 316 60 -59 0
-635 123 571 59 -58 0
-636 124 572 60 -59 0
-59 187 0
-188 59 0
-443 187 315 59 -58 0
-444 188 316 60 -59 0
-699 187 571 59 -58 0
-700 188 572 60 -59 0
-59 315 0
-316 59 0
-827 315 571 59 -58 0
-828 316 572 60 -59 0
-59 571 0
-572 59 0
-128 63 0
-64 128 0
-256 128 192 64 -63 0
-384 128 320 64 -63 0
-640 128 576 64 -63 0
-192 63 0
-64 192 0
-448 192 320 64 -63 0
-704 192 576 64 -63 0
-320 63 0
-64 320 0
-832 320 576 64 -63 0
-576 63 0
-64 576 0
-78 70 74 66 -65 0
-86 70 82 66 -65 0
-102 70 98 66 -65 0
-198 70 194 66 -65 0
-326 70 322 66 -65 0
-582 70 578 66 -65 0
-90 74 82 66 -65 0
-106 74 98 66 -65 0
-202 74 194 66 -65 0
-330 74 322 66 -65 0
-586 74 578 66 -65 0
-114 82 98 66 -65 0
-210 82 194 66 -65 0
-338 82 322 66 -65 0
-594 82 578 66 -65 0
-226 98 194 66 -65 0
-354 98 322 66 -65 0
-610 98 578 66 -65 0
-450 194 322 66 -65 0
-706 194 578 66 -65 0
-834 322 578 66 -65 0
-79 70 0
-95 79 87 71 -70 0
-111 79 103 71 -70 0
-207 79 199 71 -70 0
-335 79 327 71 -70 0
-591 79 583 71 -70 0
-87 70 0
-119 87 103 71 -70 0
-215 87 199 71 -70 0
-343 87 327 71 -70 0
-599 87 583 71 -70 0
-103 70 0
-231 103 199 71 -70 0
-359 103 327 71 -70 0
-615 103 583 71 -70 0
-199 70 0
-455 199 327 71 -70 0
-711 199 583 71 -70 0
-327 70 0
-839 327 583 71 -70 0
-583 70 0
-79 74 0
-95 79 91 75 -74 0
-111 79 107 75 -74 0
-207 79 203 75 -74 0
-335 79 331 75 -74 0
-591 79 587 75 -74 0
-91 74 0
-123 91 107 75 -74 0
-219 91 203 75 -74 0
-347 91 331 75 -74 0
-603 91 587 75 -74 0
-107 74 0
-235 107 203 75 -74 0
-363 107 331 75 -74 0
-619 107 587 75 -74 0
-203 74 0
-459 203 331 75 -74 0
-715 203 587 75 -74 0
-331 74 0
-843 331 587 75 -74 0
-587 74 0
-79 95 0
-96 79 0
-127 95 111 79 -78 0
-128 96 112 80 -79 0
-223 95 207 79 -78 0
-224 96 208 80 -79 0
-351 95 335 79 -78 0
-352 96 336 80 -79 0
-607 95 591 79 -78 0
-608 96 592 80 -79 0
-79 111 0
-112 79 0
-239 111 207 79 -78 0
-240 112 208 80 -79 0
-367 111 335 79 -78 0
-368 112 336 80 -79 0
-623 111 591 79 -78 0
-624 112 592 80 -79 0
-79 207 0
-208 79 0
-463 207 335 79 -78 0
-464 208 336 80 -79 0
-719 207 591 79 -78 0
-720 208 592 80 -79 0
-79 335 0
-336 79 0
-847 335 591 79 -78 0
-848 336 592 80 -79 0
-79 591 0
-592 79 0
-87 82 0
-95 87 91 83 -82 0
-119 87 115 83 -82 0
-215 87 211 83 -82 0
-343 87 339 83 -82 0
-599 87 595 83 -82 0
-91 82 0
-123 91 115 83 -82 0
-219 91 211 83 -82 0
-347 91 339 83 -82 0
-603 91 595 83 -82 0
-115 82 0
-243 115 211 83 -82 0
-371 115 339 83 -82 0
-627 115 595 83 -82 0
-211 82 0
-467 211 339 83 -82 0
-723 211 595 83 -82 0
-339 82 0
-851 339 595 83 -82 0
-595 82 0
-87 95 0
-96 87 0
-127 95 119 87 -86 0
-128 96 120 88 -87 0
-223 95 215 87 -86 0
-224 96 216 88 -87 0
-351 95 343 87 -86 0
-352 96 344 88 -87 0
-607 95 599 87 -86 0
-608 96 600 88 -87 0
-87 119 0
-120 87 0
-247 119 215 87 -86 0
-248 120 216 88 -87 0
-375 119 343 87 -86 0
-376 120 344 88 -87 0
-631 119 599 87 -86 0
-632 120 600 88 -87 0
-87 215 0
-216 87 0
-471 215 343 87 -86 0
-472 216 344 88 -87 0
-727 215 599 87 -86 0
-728 216 600 88 -87 0
-87 343 0
-344 87 0
-855 343 599 87 -86 0
-856 344 600 88 -87 0
-87 599 0
-600 87 0
-91 95 0
-96 91 0
-127 95 123 91 -90 0
-128 96 124 92 -91 0
-223 95 219 91 -90 0
-224 96 220 92 -91 0
-351 95 347 91 -90 0
-352 96 348 92 -91 0
-607 95 603 91 -90 0
-608 96 604 92 -91 0
-91 123 0
-124 91 0
-251 123 219 91 -90 0
-252 124 220 92 -91 0
-379 123 347 91 -90 0
-380 124 348 92 -91 0
-635 123 603 91 -90 0
-636 124 604 92 -91 0
-91 219 0
-220 91 0
-475 219 347 91 -90 0
-476 220 348 92 -91 0
-731 219 603 91 -90 0
-732 220 604 92 -91 0
-91 347 0
-348 91 0
-859 347 603 91 -90 0
-860 348 604 92 -91 0
-91 603 0
-604 91 0
-128 95 0
-96 128 0
-256 128 224 96 -95 0
-384 128 352 96 -95 0
-640 128 608 96 -95 0
-224 95 0
-96 224 0
-480 224 352 96 -95 0
-736 224 608 96 -95 0
-352 95 0
-96 352 0
-864 352 608 96 -95 0
-608 95 0
-96 608 0
-103 98 0
-111 103 107 99 -98 0
-119 103 115 99 -98 0
-231 103 227 99 -98 0
-359 103 355 99 -98 0
-615 103 611 99 -98 0
-107 98 0
-123 107 115 99 -98 0
-235 107 227 99 -98 0
-363 107 355 99 -98 0
-619 107 611 99 -98 0
-115 98 0
-243 115 227 99 -98 0
-371 115 355 99 -98 0
-627 115 611 99 -98 0
-227 98 0
-483 227 355 99 -98 0
-739 227 611 99 -98 0
-355 98 0
-867 355 611 99 -98 0
-611 98 0
-103 111 0
-112 103 0
-127 111 119 103 -102 0
-128 112 120 104 -103 0
-239 111 231 103 -102 0
-240 112 232 104 -103 0
-367 111 359 103 -102 0
-368 112 360 104 -103 0
-623 111 615 103 -102 0
-624 112 616 104 -103 0
-103 119 0
-120 103 0
-247 119 231 103 -102 0
-248 120 232 104 -103 0
-375 119 359 103 -102 0
-376 120 360 104 -103 0
-631 119 615 103 -102 0
-632 120 616 104 -103 0
-103 231 0
-232 103 0
-487 231 359 103 -102 0
-488 232 360 104 -103 0
-743 231 615 103 -102 0
-744 232 616 104 -103 0
-103 359 0
-360 103 0
-871 359 615 103 -102 0
-872 360 616 104 -103 0
-103 615 0
-616 103 0
-107 111 0
-112 107 0
-127 111 123 107 -106 0
-128 112 124 108 -107 0
-239 111 235 107 -106 0
-240 112 236 108 -107 0
-367 111 363 107 -106 0
-368 112 364 108 -107 0
-623 111 619 107 -106 0
-624 112 620 108 -107 0
-107 123 0
-124 107 0
-251 123 235 107 -106 0
-252 124 236 108 -107 0
-379 123 363 107 -106 0
-380 124 364 108 -107 0
-635 123 619 107 -106 0
-636 124 620 108 -107 0
-107 235 0
-236 107 0
-491 235 363 107 -106 0
-492 236 364 108 -107 0
-747 235 619 107 -106 0
-748 236 620 108 -107 0
-107 363 0
-364 107 0
-875 363 619 107 -106 0
-876 364 620 108 -107 0
-107 619 0
-620 107 0
-128 111 0
-112 128 0
-256 128 240 112 -111 0
-384 128 368 112 -111 0
-640 128 624 112 -111 0
-240 111 0
-112 240 0
-496 240 368 112 -111 0
-752 240 624 112 -111 0
-368 111 0
-112 368 0
-880 368 624 112 -111 0
-624 111 0
-112 624 0
-115 119 0
-120 115 0
-127 119 123 115 -114 0
-128 120 124 116 -115 0
-247 119 243 115 -114 0
-248 120 244 116 -115 0
-375 119 371 115 -114 0
-376 120 372 116 -115 0
-631 119 627 115 -114 0
-632 120 628 116 -115 0
-115 123 0
-124 115 0
-251 123 243 115 -114 0
-252 124 244 116 -115 0
-379 123 371 115 -114 0
-380 124 372 116 -115 0
-635 123 627 115 -114 0
-636 124 628 116 -115 0
-115 243 0
-244 115 0
-499 243 371 115 -114 0
-500 244 372 116 -115 0
-755 243 627 115 -114 0
-756 244 628 116 -115 0
-115 371 0
-372 115 0
-883 371 627 115 -114 0
-884 372 628 116 -115 0
-115 627 0
-628 115 0
-128 119 0
-120 128 0
-256 128 248 120 -119 0
-384 128 376 120 -119 0
-640 128 632 120 -119 0
-248 119 0
-120 248 0
-504 248 376 120 -119 0
-760 248 632 120 -119 0
-376 119 0
-120 376 0
-888 376 632 120 -119 0
-632 119 0
-120 632 0
-128 123 0
-124 128 0
-256 128 252 124 -123 0
-384 128 380 124 -123 0
-640 128 636 124 -123 0
-252 123 0
-124 252 0
-508 252 380 124 -123 0
-764 252 636 124 -123 0
-380 123 0
-124 380 0
-892 380 636 124 -123 0
-636 123 0
-124 636 0
-128 256 0
-512 256 384 128 -127 0
-768 256 640 128 -127 0
-128 384 0
-896 384 640 128 -127 0
-128 640 0
-142 134 138 130 -129 0
-150 134 146 130 -129 0
-166 134 162 130 -129 0
-198 134 194 130 -129 0
-390 134 386 130 -129 0
-646 134 642 130 -129 0
-154 138 146 130 -129 0
-170 138 162 130 -129 0
-202 138 194 130 -129 0
-394 138 386 130 -129 0
-650 138 642 130 -129 0
-178 146 162 130 -129 0
-210 146 194 130 -129 0
-402 146 386 130 -129 0
-658 146 642 130 -129 0
-226 162 194 130 -129 0
-418 162 386 130 -129 0
-674 162 642 130 -129 0
-450 194 386 130 -129 0
-706 194 642 130 -129 0
-898 386 642 130 -129 0
-143 134 0
-159 143 151 135 -134 0
-175 143 167 135 -134 0
-207 143 199 135 -134 0
-399 143 391 135 -134 0
-655 143 647 135 -134 0
-151 134 0
-183 151 167 135 -134 0
-215 151 199 135 -134 0
-407 151 391 135 -134 0
-663 151 647 135 -134 0
-167 134 0
-231 167 199 135 -134 0
-423 167 391 135 -134 0
-679 167 647 135 -134 0
-199 134 0
-455 199 391 135 -134 0
-711 199 647 135 -134 0
-391 134 0
-903 391 647 135 -134 0
-647 134 0
-143 138 0
-159 143 155 139 -138 0
-175 143 171 139 -138 0
-207 143 203 139 -138 0
-399 143 395 139 -138 0
-655 143 651 139 -138 0
-155 138 0
-187 155 171 139 -138 0
-219 155 203 139 -138 0
-411 155 395 139 -138 0
-667 155 651 139 -138 0
-171 138 0
-235 171 203 139 -138 0
-427 171 395 139 -138 0
-683 171 651 139 -138 0
-203 138 0
-459 203 395 139 -138 0
-715 203 651 139 -138 0
-395 138 0
-907 395 651 139 -138 0
-651 138 0
-143 159 0
-160 143 0
-191 159 175 143 -142 0
-192 160 176 144 -143 0
-223 159 207 143 -142 0
-224 160 208 144 -143 0
-415 159 399 143 -142 0
-416 160 400 144 -143 0
-671 159 655 143 -142 0
-672 160 656 144 -143 0
-143 175 0
-176 143 0
-239 175 207 143 -142 0
-240 176 208 144 -143 0
-431 175 399 143 -142 0
-432 176 400 144 -143 0
-687 175 655 143 -142 0
-688 176 656 144 -143 0
-143 207 0
-208 143 0
-463 207 399 143 -142 0
-464 208 400 144 -143 0
-719 207 655 143 -142 0
-720 208 656 144 -143 0
-143 399 0
-400 143 0
-911 399 655 143 -142 0
-912 400 656 144 -143 0
-143 655 0
-656 143 0
-151 146 0
-159 151 155 147 -146 0
-183 151 179 147 -146 0
-215 151 211 147 -146 0
-407 151 403 147 -146 0
-663 151 659 147 -146 0
-155 146 0
-187 155 179 147 -146 0
-219 155 211 147 -146 0
-411 155 403 147 -146 0
-667 155 659 147 -146 0
-179 146 0
-243 179 211 147 -146 0
-435 179 403 147 -146 0
-691 179 659 147 -146 0
-211 146 0
-467 211 403 147 -146 0
-723 211 659 147 -146 0
-403 146 0
-915 403 659 147 -146 0
-659 146 0
-151 159 0
-160 151 0
-191 159 183 151 -150 0
-192 160 184 152 -151 0
-223 159 215 151 -150 0
-224 160 216 152 -151 0
-415 159 407 151 -150 0
-416 160 408 152 -151 0
-671 159 663 151 -150 0
-672 160 664 152 -151 0
-151 183 0
-184 151 0
-247 183 215 151 -150 0
-248 184 216 152 -151 0
-439 183 407 151 -150 0
-440 184 408 152 -151 0
-695 183 663 151 -150 0
-696 184 664 152 -151 0
-151 215 0
-216 151 0
-471 215 407 151 -150 0
-472 216 408 152 -151 0
-727 215 663 151 -150 0
-728 216 664 152 -151 0
-151 407 0
-408 151 0
-919 407 663 151 -150 0
-920 408 664 152 -151 0
-151 663 0
-664 151 0
-155 159 0
-160 155 0
-191 159 187 155 -154 0
-192 160 188 156 -155 0
-223 159 219 155 -154 0
-224 160 220 156 -155 0
-415 159 411 155 -154 0
-416 160 412 156 -155 0
-671 159 667 155 -154 0
-672 160 668 156 -155 0
-155 187 0
-188 155 0
-251 187 219 155 -154 0
-252 188 220 156 -155 0
-443 187 411 155 -154 0
-444 188 412 156 -155 0
-699 187 667 155 -154 0
-700 188 668 156 -155 0
-155 219 0
-220 155 0
-475 219 411 155 -154 0
-476 220 412 156 -155 0
-731 219 667 155 -154 0
-732 220 668 156 -155 0
-155 411 0
-412 155 0
-923 411 667 155 -154 0
-924 412 668 156 -155 0
-155 667 0
-668 155 0
-192 159 0
-160 192 0
-256 192 224 160 -159 0
-448 192 416 160 -159 0
-704 192 672 160 -159 0
-224 159 0
-160 224 0
-480 224 416 160 -159 0
-736 224 672 160 -159 0
-416 159 0
-160 416 0
-928 416 672 160 -159 0
-672 159 0
-160 672 0
-167 162 0
-175 167 171 163 -162 0
-183 167 179 163 -162 0
-231 167 227 163 -162 0
-423 167 419 163 -162 0
-679 167 675 163 -162 0
-171 162 0
-187 171 179 163 -162 0
-235 171 227 163 -162 0
-427 171 419 163 -162 0
-683 171 675 163 -162 0
-179 162 0
-243 179 227 163 -162 0
-435 179 419 163 -162 0
-691 179 675 163 -162 0
-227 162 0
-483 227 419 163 -162 0
-739 227 675 163 -162 0
-419 162 0
-931 419 675 163 -162 0
-675 162 0
-167 175 0
-176 167 0
-191 175 183 167 -166 0
-192 176 184 168 -167 0
-239 175 231 167 -166 0
-240 176 232 168 -167 0
-431 175 423 167 -166 0
-432 176 424 168 -167 0
-687 175 679 167 -166 0
-688 176 680 168 -167 0
-167 183 0
-184 167 0
-247 183 231 167 -166 0
-248 184 232 168 -167 0
-439 183 423 167 -166 0
-440 184 424 168 -167 0
-695 183 679 167 -166 0
-696 184 680 168 -167 0
-167 231 0
-232 167 0
-487 231 423 167 -166 0
-488 232 424 168 -167 0
-743 231 679 167 -166 0
-744 232 680 168 -167 0
-167 423 0
-424 167 0
-935 423 679 167 -166 0
-936 424 680 168 -167 0
-167 679 0
-680 167 0
-171 175 0
-176 171 0
-191 175 187 171 -170 0
-192 176 188 172 -171 0
-239 175 235 171 -170 0
-240 176 236 172 -171 0
-431 175 427 171 -170 0
-432 176 428 172 -171 0
-687 175 683 171 -170 0
-688 176 684 172 -171 0
-171 187 0
-188 171 0
-251 187 235 171 -170 0
-252 188 236 172 -171 0
-443 187 427 171 -170 0
-444 188 428 172 -171 0
-699 187 683 171 -170 0
-700 188 684 172 -171 0
-171 235 0
-236 171 0
-491 235 427 171 -170 0
-492 236 428 172 -171 0
-747 235 683 171 -170 0
-748 236 684 172 -171 0
-171 427 0
-428 171 0
-939 427 683 171 -170 0
-940 428 684 172 -171 0
-171 683 0
-684 171 0
-192 175 0
-176 192 0
-256 192 240 176 -175 0
-448 192 432 176 -175 0
-704 192 688 176 -175 0
-240 175 0
-176 240 0
-496 240 432 176 -175 0
-752 240 688 176 -175 0
-432 175 0
-176 432 0
-944 432 688 176 -175 0
-688 175 0
-176 688 0
-179 183 0
-184 179 0
-191 183 187 179 -178 0
-192 184 188 180 -179 0
-247 183 243 179 -178 0
-248 184 244 180 -179 0
-439 183 435 179 -178 0
-440 184 436 180 -179 0
-695 183 691 179 -178 0
-696 184 692 180 -179 0
-179 187 0
-188 179 0
-251 187 243 179 -178 0
-252 188 244 180 -179 0
-443 187 435 179 -178 0
-444 188 436 180 -179 0
-699 187 691 179 -178 0
-700 188 692 180 -179 0
-179 243 0
-244 179 0
-499 243 435 179 -178 0
-500 244 436 180 -179 0
-755 243 691 179 -178 0
-756 244 692 180 -179 0
-179 435 0
-436 179 0
-947 435 691 179 -178 0
-948 436 692 180 -179 0
-179 691 0
-692 179 0
-192 183 0
-184 192 0
-256 192 248 184 -183 0
-448 192 440 184 -183 0
-704 192 696 184 -183 0
-248 183 0
-184 248 0
-504 248 440 184 -183 0
-760 248 696 184 -183 0
-440 183 0
-184 440 0
-952 440 696 184 -183 0
-696 183 0
-184 696 0
-192 187 0
-188 192 0
-256 192 252 188 -187 0
-448 192 444 188 -187 0
-704 192 700 188 -187 0
-252 187 0
-188 252 0
-508 252 444 188 -187 0
-764 252 700 188 -187 0
-444 187 0
-188 444 0
-956 444 700 188 -187 0
-700 187 0
-188 700 0
-192 256 0
-512 256 448 192 -191 0
-768 256 704 192 -191 0
-192 448 0
-960 448 704 192 -191 0
-192 704 0
-199 194 0
-207 199 203 195 -194 0
-215 199 211 195 -194 0
-231 199 227 195 -194 0
-455 199 451 195 -194 0
-711 199 707 195 -194 0
-203 194 0
-219 203 211 195 -194 0
-235 203 227 195 -194 0
-459 203 451 195 -194 0
-715 203 707 195 -194 0
-211 194 0
-243 211 227 195 -194 0
-467 211 451 195 -194 0
-723 211 707 195 -194 0
-227 194 0
-483 227 451 195 -194 0
-739 227 707 195 -194 0
-451 194 0
-963 451 707 195 -194 0
-707 194 0
-199 207 0
-208 199 0
-223 207 215 199 -198 0
-224 208 216 200 -199 0
-239 207 231 199 -198 0
-240 208 232 200 -199 0
-463 207 455 199 -198 0
-464 208 456 200 -199 0
-719 207 711 199 -198 0
-720 208 712 200 -199 0
-199 215 0
-216 199 0
-248 216 232 200 -199 0
-471 215 455 199 -198 0
-472 216 456 200 -199 0
-727 215 711 199 -198 0
-728 216 712 200 -199 0
-199 231 0
-232 199 0
-487 231 455 199 -198 0
-488 232 456 200 -199 0
-743 231 711 199 -198 0
-744 232 712 200 -199 0
-199 455 0
-456 199 0
-967 455 711 199 -198 0
-968 456 712 200 -199 0
-199 711 0
-712 199 0
-203 207 0
-208 203 0
-223 207 219 203 -202 0
-224 208 220 204 -203 0
-239 207 235 203 -202 0
-240 208 236 204 -203 0
-463 207 459 203 -202 0
-464 208 460 204 -203 0
-719 207 715 203 -202 0
-720 208 716 204 -203 0
-203 219 0
-220 203 0
-251 219 235 203 -202 0
-252 220 236 204 -203 0
-475 219 459 203 -202 0
-476 220 460 204 -203 0
-731 219 715 203 -202 0
-732 220 716 204 -203 0
-203 235 0
-236 203 0
-491 235 459 203 -202 0
-492 236 460 204 -203 0
-747 235 715 203 -202 0
-748 236 716 204 -203 0
-203 459 0
-460 203 0
-971 459 715 203 -202 0
-972 460 716 204 -203 0
-203 715 0
-716 203 0
-224 207 0
-208 224 0
-256 224 240 208 -207 0
-480 224 464 208 -207 0
-736 224 720 208 -207 0
-240 207 0
-208 240 0
-496 240 464 208 -207 0
-752 240 720 208 -207 0
-464 207 0
-208 464 0
-976 464 720 208 -207 0
-720 207 0
-208 720 0
-211 215 0
-216 211 0
-223 215 219 211 -210 0
-224 216 220 212 -211 0
-247 215 243 211 -210 0
-248 216 244 212 -211 0
-471 215 467 211 -210 0
-472 216 468 212 -211 0
-727 215 723 211 -210 0
-728 216 724 212 -211 0
-211 219 0
-220 211 0
-251 219 243 211 -210 0
-252 220 244 212 -211 0
-475 219 467 211 -210 0
-476 220 468 212 -211 0
-731 219 723 211 -210 0
-732 220 724 212 -211 0
-211 243 0
-244 211 0
-499 243 467 211 -210 0
-500 244 468 212 -211 0
-755 243 723 211 -210 0
-756 244 724 212 -211 0
-211 467 0
-468 211 0
-979 467 723 211 -210 0
-980 468 724 212 -211 0
-211 723 0
-724 211 0
-224 215 0
-216 224 0
-256 224 248 216 -215 0
-480 224 472 216 -215 0
-736 224 728 216 -215 0
-248 215 0
-216 248 0
-504 248 472 216 -215 0
-760 248 728 216 -215 0
-472 215 0
-216 472 0
-984 472 728 216 -215 0
-728 215 0
-216 728 0
-224 219 0
-220 224 0
-256 224 252 220 -219 0
-480 224 476 220 -219 0
-736 224 732 220 -219 0
-252 219 0
-220 252 0
-508 252 476 220 -219 0
-764 252 732 220 -219 0
-476 219 0
-220 476 0
-988 476 732 220 -219 0
-732 219 0
-220 732 0
-224 256 0
-512 256 480 224 -223 0
-768 256 736 224 -223 0
-224 480 0
-992 480 736 224 -223 0
-224 736 0
-227 231 0
-232 227 0
-239 231 235 227 -226 0
-240 232 236 228 -227 0
-247 231 243 227 -226 0
-248 232 244 228 -227 0
-487 231 483 227 -226 0
-488 232 484 228 -227 0
-743 231 739 227 -226 0
-744 232 740 228 -227 0
-227 235 0
-236 227 0
-251 235 243 227 -226 0
-252 236 244 228 -227 0
-491 235 483 227 -226 0
-492 236 484 228 -227 0
-747 235 739 227 -226 0
-748 236 740 228 -227 0
-227 243 0
-244 227 0
-499 243 483 227 -226 0
-500 244 484 228 -227 0
-755 243 739 227 -226 0
-756 244 740 228 -227 0
-227 483 0
-484 227 0
-995 483 739 227 -226 0
-996 484 740 228 -227 0
-227 739 0
-740 227 0
-240 231 0
-232 240 0
-256 240 248 232 -231 0
-496 240 488 232 -231 0
-752 240 744 232 -231 0
-248 231 0
-232 248 0
-504 248 488 232 -231 0
-760 248 744 232 -231 0
-488 231 0
-232 488 0
-1000 488 744 232 -231 0
-744 231 0
-232 744 0
-240 235 0
-236 240 0
-256 240 252 236 -235 0
-496 240 492 236 -235 0
-752 240 748 236 -235 0
-252 235 0
-236 252 0
-508 252 492 236 -235 0
-764 252 748 236 -235 0
-492 235 0
-236 492 0
-1004 492 748 236 -235 0
-748 235 0
-236 748 0
-240 256 0
-512 256 496 240 -239 0
-768 256 752 240 -239 0
-240 496 0
-1008 496 752 240 -239 0
-240 752 0
-248 243 0
-244 248 0
-256 248 252 244 -243 0
-504 248 500 244 -243 0
-760 248 756 244 -243 0
-252 243 0
-244 252 0
-508 252 500 244 -243 0
-764 252 756 244 -243 0
-500 243 0
-244 500 0
-1012 500 756 244 -243 0
-756 243 0
-244 756 0
-248 256 0
-512 256 504 248 -247 0
-768 256 760 248 -247 0
-248 504 0
-1016 504 760 248 -247 0
-248 760 0
-252 256 0
-512 256 508 252 -251 0
-768 256 764 252 -251 0
-252 508 0
-1020 508 764 252 -251 0
-252 764 0
-270 262 266 258 -257 0
-278 262 274 258 -257 0
-294 262 290 258 -257 0
-326 262 322 258 -257 0
-390 262 386 258 -257 0
-774 262 770 258 -257 0
-282 266 274 258 -257 0
-298 266 290 258 -257 0
-330 266 322 258 -257 0
-394 266 386 258 -257 0
-778 266 770 258 -257 0
-306 274 290 258 -257 0
-338 274 322 258 -257 0
-402 274 386 258 -257 0
-786 274 770 258 -257 0
-354 290 322 258 -257 0
-418 290 386 258 -257 0
-802 290 770 258 -257 0
-450 322 386 258 -257 0
-834 322 770 258 -257 0
-898 386 770 258 -257 0
-271 262 0
-287 271 279 263 -262 0
-303 271 295 263 -262 0
-335 271 327 263 -262 0
-399 271 391 263 -262 0
-783 271 775 263 -262 0
-279 262 0
-311 279 295 263 -262 0
-343 279 327 263 -262 0
-407 279 391 263 -262 0
-791 279 775 263 -262 0
-295 262 0
-359 295 327 263 -262 0
-423 295 391 263 -262 0
-807 295 775 263 -262 0
-327 262 0
-455 327 391 263 -262 0
-839 327 775 263 -262 0
-391 262 0
-903 391 775 263 -262 0
-775 262 0
-271 266 0
-287 271 283 267 -266 0
-303 271 299 267 -266 0
-335 271 331 267 -266 0
-399 271 395 267 -266 0
-783 271 779 267 -266 0
-283 266 0
-315 283 299 267 -266 0
-347 283 331 267 -266 0
-411 283 395 267 -266 0
-795 283 779 267 -266 0
-299 266 0
-363 299 331 267 -266 0
-427 299 395 267 -266 0
-811 299 779 267 -266 0
-331 266 0
-459 331 395 267 -266 0
-843 331 779 267 -266 0
-395 266 0
-907 395 779 267 -266 0
-779 266 0
-271 287 0
-288 271 0
-319 287 303 271 -270 0
-320 288 304 272 -271 0
-351 287 335 271 -270 0
-352 288 336 272 -271 0
-415 287 399 271 -270 0
-416 288 400 272 -271 0
-799 287 783 271 -270 0
-800 288 784 272 -271 0
-271 303 0
-304 271 0
-367 303 335 271 -270 0
-368 304 336 272 -271 0
-431 303 399 271 -270 0
-432 304 400 272 -271 0
-815 303 783 271 -270 0
-816 304 784 272 -271 0
-271 335 0
-336 271 0
-463 335 399 271 -270 0
-464 336 400 272 -271 0
-847 335 783 271 -270 0
-848 336 784 272 -271 0
-271 399 0
-400 271 0
-911 399 783 271 -270 0
-912 400 784 272 -271 0
-271 783 0
-784 271 0
-279 274 0
-287 279 283 275 -274 0
-311 279 307 275 -274 0
-343 279 339 275 -274 0
-407 279 403 275 -274 0
-791 279 787 275 -274 0
-283 274 0
-315 283 307 275 -274 0
-347 283 339 275 -274 0
-411 283 403 275 -274 0
-795 283 787 275 -274 0
-307 274 0
-371 307 339 275 -274 0
-435 307 403 275 -274 0
-819 307 787 275 -274 0
-339 274 0
-467 339 403 275 -274 0
-851 339 787 275 -274 0
-403 274 0
-915 403 787 275 -274 0
-787 274 0
-279 287 0
-288 279 0
-319 287 311 279 -278 0
-320 288 312 280 -279 0
-351 287 343 279 -278 0
-352 288 344 280 -279 0
-415 287 407 279 -278 0
-416 288 408 280 -279 0
-799 287 791 279 -278 0
-800 288 792 280 -279 0
-279 311 0
-312 279 0
-375 311 343 279 -278 0
-376 312 344 280 -279 0
-439 311 407 279 -278 0
-440 312 408 280 -279 0
-823 311 791 279 -278 0
-824 312 792 280 -279 0
-279 343 0
-344 279 0
-471 343 407 279 -278 0
-472 344 408 280 -279 0
-856 344 792 280 -279 0
-279 407 0
-408 279 0
-919 407 791 279 -278 0
-920 408 792 280 -279 0
-279 791 0
-792 279 0
-283 287 0
-288 283 0
-319 287 315 283 -282 0
-320 288 316 284 -283 0
-351 287 347 283 -282 0
-352 288 348 284 -283 0
-415 287 411 283 -282 0
-416 288 412 284 -283 0
-799 287 795 283 -282 0
-800 288 796 284 -283 0
-283 315 0
-316 283 0
-379 315 347 283 -282 0
-380 316 348 284 -283 0
-443 315 411 283 -282 0
-444 316 412 284 -283 0
-827 315 795 283 -282 0
-828 316 796 284 -283 0
-283 347 0
-348 283 0
-475 347 411 283 -282 0
-476 348 412 284 -283 0
-859 347 795 283 -282 0
-860 348 796 284 -283 0
-283 411 0
-412 283 0
-923 411 795 283 -282 0
-924 412 796 284 -283 0
-283 795 0
-796 283 0
-320 287 0
-288 320 0
-384 320 352 288 -287 0
-448 320 416 288 -287 0
-832 320 800 288 -287 0
-352 287 0
-288 352 0
-480 352 416 288 -287 0
-864 352 800 288 -287 0
-416 287 0
-288 416 0
-928 416 800 288 -287 0
-800 287 0
-288 800 0
-295 290 0
-303 295 299 291 -290 0
-311 295 307 291 -290 0
-359 295 355 291 -290 0
-423 295 419 291 -290 0
-807 295 803 291 -290 0
-299 290 0
-315 299 307 291 -290 0
-363 299 355 291 -290 0
-427 299 419 291 -290 0
-811 299 803 291 -290 0
-307 290 0
-371 307 355 291 -290 0
-435 307 419 291 -290 0
-819 307 803 291 -290 0
-355 290 0
-483 355 419 291 -290 0
-867 355 803 291 -290 0
-419 290 0
-931 419 803 291 -290 0
-803 290 0
-295 303 0
-304 295 0
-319 303 311 295 -294 0
-320 304 312 296 -295 0
-367 303 359 295 -294 0
-368 304 360 296 -295 0
-431 303 423 295 -294 0
-432 304 424 296 -295 0
-815 303 807 295 -294 0
-816 304 808 296 -295 0
-295 311 0
-312 295 0
-375 311 359 295 -294 0
-376 312 360 296 -295 0
-439 311 423 295 -294 0
-440 312 424 296 -295 0
-823 311 807 295 -294 0
-824 312 808 296 -295 0
-295 359 0
-360 295 0
-487 359 423 295 -294 0
-488 360 424 296 -295 0
-871 359 807 295 -294 0
-872 360 808 296 -295 0
-295 423 0
-424 295 0
-935 423 807 295 -294 0
-936 424 808 296 -295 0
-295 807 0
-808 295 0
-299 303 0
-304 299 0
-320 304 316 300 -299 0
-367 303 363 299 -298 0
-368 304 364 300 -299 0
-431 303 427 299 -298 0
-432 304 428 300 -299 0
-815 303 811 299 -298 0
-816 304 812 300 -299 0
-299 315 0
-316 299 0
-380 316 364 300 -299 0
-443 315 427 299 -298 0
-444 316 428 300 -299 0
-827 315 811 299 -298 0
-828 316 812 300 -299 0
-299 363 0
-364 299 0
-491 363 427 299 -298 0
-492 364 428 300 -299 0
-875 363 811 299 -298 0
-876 364 812 300 -299 0
-299 427 0
-428 299 0
-939 427 811 299 -298 0
-940 428 812 300 -299 0
-299 811 0
-812 299 0
-320 303 0
-304 320 0
-384 320 368 304 -303 0
-448 320 432 304 -303 0
-832 320 816 304 -303 0
-368 303 0
-304 368 0
-496 368 432 304 -303 0
-880 368 816 304 -303 0
-432 303 0
-304 432 0
-944 432 816 304 -303 0
-816 303 0
-304 816 0
-307 311 0
-312 307 0
-319 311 315 307 -306 0
-320 312 316 308 -307 0
-375 311 371 307 -306 0
-376 312 372 308 -307 0
-439 311 435 307 -306 0
-440 312 436 308 -307 0
-823 311 819 307 -306 0
-824 312 820 308 -307 0
-307 315 0
-316 307 0
-379 315 371 307 -306 0
-380 316 372 308 -307 0
-443 315 435 307 -306 0
-444 316 436 308 -307 0
-827 315 819 307 -306 0
-828 316 820 308 -307 0
-307 371 0
-372 307 0
-499 371 435 307 -306 0
-500 372 436 308 -307 0
-883 371 819 307 -306 0
-884 372 820 308 -307 0
-307 435 0
-436 307 0
-947 435 819 307 -306 0
-948 436 820 308 -307 0
-307 819 0
-820 307 0
-320 311 0
-312 320 0
-384 320 376 312 -311 0
-448 320 440 312 -311 0
-832 320 824 312 -311 0
-376 311 0
-312 376 0
-504 376 440 312 -311 0
-888 376 824 312 -311 0
-440 311 0
-312 440 0
-952 440 824 312 -311 0
-824 311 0
-312 824 0
-320 315 0
-316 320 0
-384 320 380 316 -315 0
-448 320 444 316 -315 0
-832 320 828 316 -315 0
-380 315 0
-316 380 0
-508 380 444 316 -315 0
-892 380 828 316 -315 0
-444 315 0
-316 444 0
-956 444 828 316 -315 0
-828 315 0
-316 828 0
-320 384 0
-512 384 448 320 -319 0
-896 384 832 320 -319 0
-320 448 0
-960 448 832 320 -319 0
-320 832 0
-327 322 0
-335 327 331 323 -322 0
-343 327 339 323 -322 0
-359 327 355 323 -322 0
-455 327 451 323 -322 0
-839 327 835 323 -322 0
-331 322 0
-347 331 339 323 -322 0
-363 331 355 323 -322 0
-459 331 451 323 -322 0
-843 331 835 323 -322 0
-339 322 0
-371 339 355 323 -322 0
-467 339 451 323 -322 0
-851 339 835 323 -322 0
-355 322 0
-483 355 451 323 -322 0
-867 355 835 323 -322 0
-451 322 0
-963 451 835 323 -322 0
-835 322 0
-327 335 0
-336 327 0
-351 335 343 327 -326 0
-352 336 344 328 -327 0
-367 335 359 327 -326 0
-368 336 360 328 -327 0
-463 335 455 327 -326 0
-464 336 456 328 -327 0
-847 335 839 327 -326 0
-848 336 840 328 -327 0
-327 343 0
-344 327 0
-375 343 359 327 -326 0
-376 344 360 328 -327 0
-471 343 455 327 -326 0
-472 344 456 328 -327 0
-856 344 840 328 -327 0
-327 359 0
-360 327 0
-487 359 455 327 -326 0
-488 360 456 328 -327 0
-871 359 839 327 -326 0
-872 360 840 328 -327 0
-327 455 0
-456 327 0
-967 455 839 327 -326 0
-968 456 840 328 -327 0
-327 839 0
-840 327 0
-331 335 0
-336 331 0
-351 335 347 331 -330 0
-352 336 348 332 -331 0
-367 335 363 331 -330 0
-368 336 364 332 -331 0
-463 335 459 331 -330 0
-464 336 460 332 -331 0
-847 335 843 331 -330 0
-848 336 844 332 -331 0
-331 347 0
-348 331 0
-379 347 363 331 -330 0
-380 348 364 332 -331 0
-475 347 459 331 -330 0
-476 348 460 332 -331 0
-859 347 843 331 -330 0
-860 348 844 332 -331 0
-331 363 0
-364 331 0
-491 363 459 331 -330 0
-492 364 460 332 -331 0
-875 363 843 331 -330 0
-876 364 844 332 -331 0
-331 459 0
-460 331 0
-971 459 843 331 -330 0
-972 460 844 332 -331 0
-331 843 0
-844 331 0
-352 335 0
-336 352 0
-384 352 368 336 -335 0
-480 352 464 336 -335 0
-864 352 848 336 -335 0
-368 335 0
-336 368 0
-496 368 464 336 -335 0
-880 368 848 336 -335 0
-464 335 0
-336 464 0
-976 464 848 336 -335 0
-848 335 0
-336 848 0
-339 343 0
-344 339 0
-351 343 347 339 -338 0
-352 344 348 340 -339 0
-375 343 371 339 -338 0
-376 344 372 340 -339 0
-471 343 467 339 -338 0
-472 344 468 340 -339 0
-855 343 851 339 -338 0
-856 344 852 340 -339 0
-339 347 0
-348 339 0
-379 347 371 339 -338 0
-380 348 372 340 -339 0
-475 347 467 339 -338 0
-476 348 468 340 -339 0
-859 347 851 339 -338 0
-860 348 852 340 -339 0
-339 371 0
-372 339 0
-499 371 467 339 -338 0
-500 372 468 340 -339 0
-883 371 851 339 -338 0
-884 372 852 340 -339 0
-339 467 0
-468 339 0
-979 467 851 339 -338 0
-980 468 852 340 -339 0
-339 851 0
-852 339 0
-352 343 0
-344 352 0
-384 352 376 344 -343 0
-480 352 472 344 -343 0
-864 352 856 344 -343 0
-376 343 0
-344 376 0
-504 376 472 344 -343 0
-888 376 856 344 -343 0
-472 343 0
-344 472 0
-984 472 856 344 -343 0
-856 343 0
-344 856 0
-352 347 0
-348 352 0
-384 352 380 348 -347 0
-480 352 476 348 -347 0
-864 352 860 348 -347 0
-380 347 0
-348 380 0
-508 380 476 348 -347 0
-892 380 860 348 -347 0
-476 347 0
-348 476 0
-988 476 860 348 -347 0
-860 347 0
-348 860 0
-352 384 0
-512 384 480 352 -351 0
-896 384 864 352 -351 0
-352 480 0
-992 480 864 352 -351 0
-352 864 0
-355 359 0
-360 355 0
-367 359 363 355 -354 0
-368 360 364 356 -355 0
-375 359 371 355 -354 0
-376 360 372 356 -355 0
-487 359 483 355 -354 0
-488 360 484 356 -355 0
-872 360 868 356 -355 0
-355 363 0
-364 355 0
-379 363 371 355 -354 0
-380 364 372 356 -355 0
-491 363 483 355 -354 0
-492 364 484 356 -355 0
-875 363 867 355 -354 0
-876 364 868 356 -355 0
-355 371 0
-372 355 0
-499 371 483 355 -354 0
-500 372 484 356 -355 0
-883 371 867 355 -354 0
-884 372 868 356 -355 0
-355 483 0
-484 355 0
-996 484 868 356 -355 0
-355 867 0
-868 355 0
-368 359 0
-360 368 0
-384 368 376 360 -359 0
-496 368 488 360 -359 0
-880 368 872 360 -359 0
-376 359 0
-360 376 0
-504 376 488 360 -359 0
-888 376 872 360 -359 0
-488 359 0
-360 488 0
-1000 488 872 360 -359 0
-872 359 0
-360 872 0
-368 363 0
-364 368 0
-384 368 380 364 -363 0
-496 368 492 364 -363 0
-880 368 876 364 -363 0
-380 363 0
-364 380 0
-508 380 492 364 -363 0
-892 380 876 364 -363 0
-492 363 0
-364 492 0
-1004 492 876 364 -363 0
-876 363 0
-364 876 0
-368 384 0
-512 384 496 368 -367 0
-896 384 880 368 -367 0
-368 496 0
-1008 496 880 368 -367 0
-368 880 0
-376 371 0
-372 376 0
-384 376 380 372 -371 0
-504 376 500 372 -371 0
-888 376 884 372 -371 0
-380 371 0
-372 380 0
-508 380 500 372 -371 0
-892 380 884 372 -371 0
-500 371 0
-372 500 0
-1012 500 884 372 -371 0
-884 371 0
-372 884 0
-376 384 0
-512 384 504 376 -375 0
-896 384 888 376 -375 0
-376 504 0
-1016 504 888 376 -375 0
-376 888 0
-380 384 0
-512 384 508 380 -379 0
-896 384 892 380 -379 0
-380 508 0
-1020 508 892 380 -379 0
-380 892 0
-391 386 0
-399 391 395 387 -386 0
-407 391 403 387 -386 0
-423 391 419 387 -386 0
-455 391 451 387 -386 0
-903 391 899 387 -386 0
-395 386 0
-411 395 403 387 -386 0
-427 395 419 387 -386 0
-459 395 451 387 -386 0
-907 395 899 387 -386 0
-403 386 0
-435 403 419 387 -386 0
-467 403 451 387 -386 0
-915 403 899 387 -386 0
-419 386 0
-483 419 451 387 -386 0
-931 419 899 387 -386 0
-451 386 0
-963 451 899 387 -386 0
-899 386 0
-391 399 0
-400 391 0
-415 399 407 391 -390 0
-416 400 408 392 -391 0
-431 399 423 391 -390 0
-432 400 424 392 -391 0
-463 399 455 391 -390 0
-464 400 456 392 -391 0
-911 399 903 391 -390 0
-912 400 904 392 -391 0
-391 407 0
-408 391 0
-439 407 423 391 -390 0
-440 408 424 392 -391 0
-472 408 456 392 -391 0
-919 407 903 391 -390 0
-920 408 904 392 -391 0
-391 423 0
-424 391 0
-487 423 455 391 -390 0
-488 424 456 392 -391 0
-935 423 903 391 -390 0
-936 424 904 392 -391 0
-391 455 0
-456 391 0
-967 455 903 391 -390 0
-968 456 904 392 -391 0
-391 903 0
-904 391 0
-395 399 0
-400 395 0
-415 399 411 395 -394 0
-416 400 412 396 -395 0
-431 399 427 395 -394 0
-432 400 428 396 -395 0
-463 399 459 395 -394 0
-464 400 460 396 -395 0
-911 399 907 395 -394 0
-912 400 908 396 -395 0
-395 411 0
-412 395 0
-443 411 427 395 -394 0
-444 412 428 396 -395 0
-475 411 459 395 -394 0
-476 412 460 396 -395 0
-923 411 907 395 -394 0
-924 412 908 396 -395 0
-395 427 0
-428 395 0
-491 427 459 395 -394 0
-492 428 460 396 -395 0
-939 427 907 395 -394 0
-940 428 908 396 -395 0
-395 459 0
-460 395 0
-971 459 907 395 -394 0
-972 460 908 396 -395 0
-395 907 0
-908 395 0
-416 399 0
-400 416 0
-448 416 432 400 -399 0
-480 416 464 400 -399 0
-928 416 912 400 -399 0
-432 399 0
-400 432 0
-496 432 464 400 -399 0
-944 432 912 400 -399 0
-464 399 0
-400 464 0
-976 464 912 400 -399 0
-912 399 0
-400 912 0
-403 407 0
-408 403 0
-415 407 411 403 -402 0
-416 408 412 404 -403 0
-439 407 435 403 -402 0
-440 408 436 404 -403 0
-471 407 467 403 -402 0
-472 408 468 404 -403 0
-919 407 915 403 -402 0
-920 408 916 404 -403 0
-403 411 0
-412 403 0
-443 411 435 403 -402 0
-444 412 436 404 -403 0
-475 411 467 403 -402 0
-476 412 468 404 -403 0
-923 411 915 403 -402 0
-924 412 916 404 -403 0
-403 435 0
-436 403 0
-499 435 467 403 -402 0
-500 436 468 404 -403 0
-947 435 915 403 -402 0
-948 436 916 404 -403 0
-403 467 0
-468 403 0
-979 467 915 403 -402 0
-980 468 916 404 -403 0
-403 915 0
-916 403 0
-416 407 0
-408 416 0
-448 416 440 408 -407 0
-480 416 472 408 -407 0
-928 416 920 408 -407 0
-440 407 0
-408 440 0
-504 440 472 408 -407 0
-952 440 920 408 -407 0
-472 407 0
-408 472 0
-984 472 920 408 -407 0
-920 407 0
-408 920 0
-416 411 0
-412 416 0
-448 416 444 412 -411 0
-480 416 476 412 -411 0
-928 416 924 412 -411 0
-444 411 0
-412 444 0
-508 444 476 412 -411 0
-956 444 924 412 -411 0
-476 411 0
-412 476 0
-988 476 924 412 -411 0
-924 411 0
-412 924 0
-416 448 0
-512 448 480 416 -415 0
-960 448 928 416 -415 0
-416 480 0
-992 480 928 416 -415 0
-416 928 0
-419 423 0
-424 419 0
-431 423 427 419 -418 0
-432 424 428 420 -419 0
-439 423 435 419 -418 0
-440 424 436 420 -419 0
-487 423 483 419 -418 0
-488 424 484 420 -419 0
-935 423 931 419 -418 0
-936 424 932 420 -419 0
-419 427 0
-428 419 0
-444 428 436 420 -419 0
-491 427 483 419 -418 0
-492 428 484 420 -419 0
-939 427 931 419 -418 0
-940 428 932 420 -419 0
-419 435 0
-436 419 0
-499 435 483 419 -418 0
-500 436 484 420 -419 0
-947 435 931 419 -418 0
-948 436 932 420 -419 0
-419 483 0
-484 419 0
-995 483 931 419 -418 0
-996 484 932 420 -419 0
-419 931 0
-932 419 0
-432 423 0
-424 432 0
-448 432 440 424 -423 0
-496 432 488 424 -423 0
-944 432 936 424 -423 0
-440 423 0
-424 440 0
-504 440 488 424 -423 0
-952 440 936 424 -423 0
-488 423 0
-424 488 0
-1000 488 936 424 -423 0
-936 423 0
-424 936 0
-432 427 0
-428 432 0
-448 432 444 428 -427 0
-496 432 492 428 -427 0
-944 432 940 428 -427 0
-444 427 0
-428 444 0
-508 444 492 428 -427 0
-956 444 940 428 -427 0
-492 427 0
-428 492 0
-1004 492 940 428 -427 0
-940 427 0
-428 940 0
-432 448 0
-512 448 496 432 -431 0
-960 448 944 432 -431 0
-432 496 0
-1008 496 944 432 -431 0
-432 944 0
-440 435 0
-436 440 0
-448 440 444 436 -435 0
-504 440 500 436 -435 0
-952 440 948 436 -435 0
-444 435 0
-436 444 0
-508 444 500 436 -435 0
-956 444 948 436 -435 0
-500 435 0
-436 500 0
-1012 500 948 436 -435 0
-948 435 0
-436 948 0
-440 448 0
-512 448 504 440 -439 0
-960 448 952 440 -439 0
-440 504 0
-1016 504 952 440 -439 0
-440 952 0
-444 448 0
-512 448 508 444 -443 0
-960 448 956 444 -443 0
-444 508 0
-1020 508 956 444 -443 0
-444 956 0
-451 455 0
-456 451 0
-463 455 459 451 -450 0
-464 456 460 452 -451 0
-471 455 467 451 -450 0
-472 456 468 452 -451 0
-487 455 483 451 -450 0
-488 456 484 452 -451 0
-967 455 963 451 -450 0
-968 456 964 452 -451 0
-451 459 0
-460 451 0
-475 459 467 451 -450 0
-476 460 468 452 -451 0
-491 459 483 451 -450 0
-492 460 484 452 -451 0
-971 459 963 451 -450 0
-972 460 964 452 -451 0
-451 467 0
-468 451 0
-499 467 483 451 -450 0
-500 468 484 452 -451 0
-979 467 963 451 -450 0
-980 468 964 452 -451 0
-451 483 0
-484 451 0
-995 483 963 451 -450 0
-996 484 964 452 -451 0
-451 963 0
-964 451 0
-464 455 0
-456 464 0
-480 464 472 456 -455 0
-496 464 488 456 -455 0
-976 464 968 456 -455 0
-472 455 0
-456 472 0
-504 472 488 456 -455 0
-984 472 968 456 -455 0
-488 455 0
-456 488 0
-1000 488 968 456 -455 0
-968 455 0
-456 968 0
-464 459 0
-460 464 0
-480 464 476 460 -459 0
-496 464 492 460 -459 0
-976 464 972 460 -459 0
-476 459 0
-460 476 0
-508 476 492 460 -459 0
-988 476 972 460 -459 0
-492 459 0
-460 492 0
-1004 492 972 460 -459 0
-972 459 0
-460 972 0
-464 480 0
-512 480 496 464 -463 0
-992 480 976 464 -463 0
-464 496 0
-1008 496 976 464 -463 0
-464 976 0
-472 467 0
-468 472 0
-480 472 476 468 -467 0
-504 472 500 468 -467 0
-984 472 980 468 -467 0
-476 467 0
-468 476 0
-508 476 500 468 -467 0
-988 476 980 468 -467 0
-500 467 0
-468 500 0
-1012 500 980 468 -467 0
-980 467 0
-468 980 0
-472 480 0
-512 480 504 472 -471 0
-992 480 984 472 -471 0
-472 504 0
-1016 504 984 472 -471 0
-472 984 0
-476 480 0
-512 480 508 476 -475 0
-992 480 988 476 -475 0
-476 508 0
-1020 508 988 476 -475 0
-476 988 0
-488 483 0
-484 488 0
-496 488 492 484 -483 0
-504 488 500 484 -483 0
-1000 488 996 484 -483 0
-492 483 0
-484 492 0
-508 492 500 484 -483 0
-1004 492 996 484 -483 0
-500 483 0
-484 500 0
-1012 500 996 484 -483 0
-996 483 0
-484 996 0
-488 496 0
-512 496 504 488 -487 0
-1008 496 1000 488 -487 0
-488 504 0
-1016 504 1000 488 -487 0
-488 1000 0
-492 496 0
-512 496 508 492 -491 0
-1008 496 1004 492 -491 0
-492 508 0
-1020 508 1004 492 -491 0
-492 1004 0
-500 504 0
-512 504 508 500 -499 0
-1016 504 1012 500 -499 0
-500 508 0
-1020 508 1012 500 -499 0
-500 1012 0
-526 518 522 514 -513 0
-534 518 530 514 -513 0
-550 518 546 514 -513 0
-582 518 578 514 -513 0
-646 518 642 514 -513 0
-774 518 770 514 -513 0
-538 522 530 514 -513 0
-554 522 546 514 -513 0
-586 522 578 514 -513 0
-650 522 642 514 -513 0
-778 522 770 514 -513 0
-562 530 546 514 -513 0
-594 530 578 514 -513 0
-658 530 642 514 -513 0
-786 530 770 514 -513 0
-610 546 578 514 -513 0
-674 546 642 514 -513 0
-802 546 770 514 -513 0
-706 578 642 514 -513 0
-834 578 770 514 -513 0
-898 642 770 514 -513 0
-527 518 0
-543 527 535 519 -518 0
-559 527 551 519 -518 0
-591 527 583 519 -518 0
-655 527 647 519 -518 0
-783 527 775 519 -518 0
-535 518 0
-567 535 551 519 -518 0
-599 535 583 519 -518 0
-663 535 647 519 -518 0
-791 535 775 519 -518 0
-551 518 0
-615 551 583 519 -518 0
-679 551 647 519 -518 0
-807 551 775 519 -518 0
-583 518 0
-711 583 647 519 -518 0
-839 583 775 519 -518 0
-647 518 0
-903 647 775 519 -518 0
-775 518 0
-527 522 0
-543 527 539 523 -522 0
-559 527 555 523 -522 0
-591 527 587 523 -522 0
-655 527 651 523 -522 0
-783 527 779 523 -522 0
-539 522 0
-571 539 555 523 -522 0
-603 539 587 523 -522 0
-667 539 651 523 -522 0
-795 539 779 523 -522 0
-555 522 0
-619 555 587 523 -522 0
-683 555 651 523 -522 0
-811 555 779 523 -522 0
-587 522 0
-715 587 651 523 -522 0
-843 587 779 523 -522 0
-651 522 0
-907 651 779 523 -522 0
-779 522 0
-527 543 0
-544 527 0
-575 543 559 527 -526 0
-576 544 560 528 -527 0
-607 543 591 527 -526 0
-608 544 592 528 -527 0
-671 543 655 527 -526 0
-672 544 656 528 -527 0
-799 543 783 527 -526 0
-800 544 784 528 -527 0
-527 559 0
-560 527 0
-623 559 591 527 -526 0
-624 560 592 528 -527 0
-687 559 655 527 -526 0
-688 560 656 528 -527 0
-815 559 783 527 -526 0
-816 560 784 528 -527 0
-527 591 0
-592 527 0
-719 591 655 527 -526 0
-720 592 656 528 -527 0
-847 591 783 527 -526 0
-848 592 784 528 -527 0
-527 655 0
-656 527 0
-911 655 783 527 -526 0
-912 656 784 528 -527 0
-527 783 0
-784 527 0
-535 530 0
-543 535 539 531 -530 0
-567 535 563 531 -530 0
-599 535 595 531 -530 0
-663 535 659 531 -530 0
-791 535 787 531 -530 0
-539 530 0
-571 539 563 531 -530 0
-603 539 595 531 -530 0
-667 539 659 531 -530 0
-795 539 787 531 -530 0
-563 530 0
-627 563 595 531 -530 0
-691 563 659 531 -530 0
-819 563 787 531 -530 0
-595 530 0
-723 595 659 531 -530 0
-851 595 787 531 -530 0
-659 530 0
-915 659 787 531 -530 0
-787 530 0
-535 543 0
-544 535 0
-575 543 567 535 -534 0
-576 544 568 536 -535 0
-607 543 599 535 -534 0
-608 544 600 536 -535 0
-671 543 663 535 -534 0
-672 544 664 536 -535 0
-799 543 791 535 -534 0
-800 544 792 536 -535 0
-535 567 0
-568 535 0
-631 567 599 535 -534 0
-632 568 600 536 -535 0
-695 567 663 535 -534 0
-696 568 664 536 -535 0
-823 567 791 535 -534 0
-824 568 792 536 -535 0
-535 599 0
-600 535 0
-727 599 663 535 -534 0
-728 600 664 536 -535 0
-855 599 791 535 -534 0
-856 600 792 536 -535 0
-535 663 0
-664 535 0
-920 664 792 536 -535 0
-535 791 0
-792 535 0
-539 543 0
-544 539 0
-575 543 571 539 -538 0
-576 544 572 540 -539 0
-607 543 603 539 -538 0
-608 544 604 540 -539 0
-671 543 667 539 -538 0
-672 544 668 540 -539 0
-799 543 795 539 -538 0
-800 544 796 540 -539 0
-539 571 0
-572 539 0
-635 571 603 539 -538 0
-636 572 604 540 -539 0
-699 571 667 539 -538 0
-700 572 668 540 -539 0
-827 571 795 539 -538 0
-828 572 796 540 -539 0
-539 603 0
-604 539 0
-731 603 667 539 -538 0
-732 604 668 540 -539 0
-859 603 795 539 -538 0
-860 604 796 540 -539 0
-539 667 0
-668 539 0
-923 667 795 539 -538 0
-924 668 796 540 -539 0
-539 795 0
-796 539 0
-576 543 0
-544 576 0
-640 576 608 544 -543 0
-704 576 672 544 -543 0
-832 576 800 544 -543 0
-608 543 0
-544 608 0
-736 608 672 544 -543 0
-864 608 800 544 -543 0
-672 543 0
-544 672 0
-928 672 800 544 -543 0
-800 543 0
-544 800 0
-551 546 0
-559 551 555 547 -546 0
-567 551 563 547 -546 0
-615 551 611 547 -546 0
-679 551 675 547 -546 0
-807 551 803 547 -546 0
-555 546 0
-571 555 563 547 -546 0
-619 555 611 547 -546 0
-683 555 675 547 -546 0
-811 555 803 547 -546 0
-563 546 0
-627 563 611 547 -546 0
-691 563 675 547 -546 0
-819 563 803 547 -546 0
-611 546 0
-739 611 675 547 -546 0
-867 611 803 547 -546 0
-675 546 0
-931 675 803 547 -546 0
-803 546 0
-551 559 0
-560 551 0
-575 559 567 551 -550 0
-576 560 568 552 -551 0
-623 559 615 551 -550 0
-624 560 616 552 -551 0
-687 559 679 551 -550 0
-688 560 680 552 -551 0
-815 559 807 551 -550 0
-816 560 808 552 -551 0
-551 567 0
-568 551 0
-631 567 615 551 -550 0
-632 568 616 552 -551 0
-695 567 679 551 -550 0
-696 568 680 552 -551 0
-823 567 807 551 -550 0
-824 568 808 552 -551 0
-551 615 0
-616 551 0
-743 615 679 551 -550 0
-744 616 680 552 -551 0
-871 615 807 551 -550 0
-872 616 808 552 -551 0
-551 679 0
-680 551 0
-935 679 807 551 -550 0
-936 680 808 552 -551 0
-551 807 0
-808 551 0
-555 559 0
-560 555 0
-575 559 571 555 -554 0
-576 560 572 556 -555 0
-623 559 619 555 -554 0
-624 560 620 556 -555 0
-687 559 683 555 -554 0
-688 560 684 556 -555 0
-815 559 811 555 -554 0
-816 560 812 556 -555 0
-555 571 0
-572 555 0
-635 571 619 555 -554 0
-636 572 620 556 -555 0
-699 571 683 555 -554 0
-700 572 684 556 -555 0
-827 571 811 555 -554 0
-828 572 812 556 -555 0
-555 619 0
-620 555 0
-747 619 683 555 -554 0
-748 620 684 556 -555 0
-875 619 811 555 -554 0
-876 620 812 556 -555 0
-555 683 0
-684 555 0
-939 683 811 555 -554 0
-940 684 812 556 -555 0
-555 811 0
-812 555 0
-576 559 0
-560 576 0
-640 576 624 560 -559 0
-704 576 688 560 -559 0
-832 576 816 560 -559 0
-624 559 0
-560 624 0
-752 624 688 560 -559 0
-880 624 816 560 -559 0
-688 559 0
-560 688 0
-944 688 816 560 -559 0
-816 559 0
-560 816 0
-563 567 0
-568 563 0
-575 567 571 563 -562 0
-576 568 572 564 -563 0
-631 567 627 563 -562 0
-632 568 628 564 -563 0
-695 567 691 563 -562 0
-696 568 692 564 -563 0
-823 567 819 563 -562 0
-824 568 820 564 -563 0
-563 571 0
-572 563 0
-635 571 627 563 -562 0
-636 572 628 564 -563 0
-699 571 691 563 -562 0
-700 572 692 564 -563 0
-827 571 819 563 -562 0
-828 572 820 564 -563 0
-563 627 0
-628 563 0
-755 627 691 563 -562 0
-756 628 692 564 -563 0
-883 627 819 563 -562 0
-884 628 820 564 -563 0
-563 691 0
-692 563 0
-947 691 819 563 -562 0
-948 692 820 564 -563 0
-563 819 0
-820 563 0
-576 567 0
-568 576 0
-640 576 632 568 -567 0
-704 576 696 568 -567 0
-832 576 824 568 -567 0
-632 567 0
-568 632 0
-760 632 696 568 -567 0
-888 632 824 568 -567 0
-696 567 0
-568 696 0
-952 696 824 568 -567 0
-824 567 0
-568 824 0
-576 571 0
-572 576 0
-640 576 636 572 -571 0
-704 576 700 572 -571 0
-832 576 828 572 -571 0
-636 571 0
-572 636 0
-764 636 700 572 -571 0
-892 636 828 572 -571 0
-700 571 0
-572 700 0
-956 700 828 572 -571 0
-828 571 0
-572 828 0
-576 640 0
-768 640 704 576 -575 0
-896 640 832 576 -575 0
-576 704 0
-960 704 832 576 -575 0
-576 832 0
-583 578 0
-591 583 587 579 -578 0
-599 583 595 579 -578 0
-615 583 611 579 -578 0
-711 583 707 579 -578 0
-839 583 835 579 -578 0
-587 578 0
-603 587 595 579 -578 0
-619 587 611 579 -578 0
-715 587 707 579 -578 0
-843 587 835 579 -578 0
-595 578 0
-627 595 611 579 -578 0
-723 595 707 579 -578 0
-851 595 835 579 -578 0
-611 578 0
-739 611 707 579 -578 0
-867 611 835 579 -578 0
-707 578 0
-963 707 835 579 -578 0
-835 578 0
-583 591 0
-592 583 0
-607 591 599 583 -582 0
-608 592 600 584 -583 0
-623 591 615 583 -582 0
-624 592 616 584 -583 0
-719 591 711 583 -582 0
-720 592 712 584 -583 0
-847 591 839 583 -582 0
-848 592 840 584 -583 0
-583 599 0
-600 583 0
-631 599 615 583 -582 0
-632 600 616 584 -583 0
-727 599 711 583 -582 0
-728 600 712 584 -583 0
-855 599 839 583 -582 0
-856 600 840 584 -583 0
-583 615 0
-616 583 0
-743 615 711 583 -582 0
-744 616 712 584 -583 0
-871 615 839 583 -582 0
-872 616 840 584 -583 0
-583 711 0
-712 583 0
-967 711 839 583 -582 0
-968 712 840 584 -583 0
-583 839 0
-840 583 0
-587 591 0
-592 587 0
-607 591 603 587 -586 0
-608 592 604 588 -587 0
-623 591 619 587 -586 0
-624 592 620 588 -587 0
-719 591 715 587 -586 0
-720 592 716 588 -587 0
-847 591 843 587 -586 0
-848 592 844 588 -587 0
-587 603 0
-604 587 0
-635 603 619 587 -586 0
-636 604 620 588 -587 0
-731 603 715 587 -586 0
-732 604 716 588 -587 0
-859 603 843 587 -586 0
-860 604 844 588 -587 0
-587 619 0
-620 587 0
-747 619 715 587 -586 0
-748 620 716 588 -587 0
-875 619 843 587 -586 0
-876 620 844 588 -587 0
-587 715 0
-716 587 0
-971 715 843 587 -586 0
-972 716 844 588 -587 0
-587 843 0
-844 587 0
-608 591 0
-592 608 0
-640 608 624 592 -591 0
-736 608 720 592 -591 0
-864 608 848 592 -591 0
-624 591 0
-592 624 0
-752 624 720 592 -591 0
-880 624 848 592 -591 0
-720 591 0
-592 720 0
-976 720 848 592 -591 0
-848 591 0
-592 848 0
-595 599 0
-600 595 0
-607 599 603 595 -594 0
-608 600 604 596 -595 0
-631 599 627 595 -594 0
-632 600 628 596 -595 0
-727 599 723 595 -594 0
-728 600 724 596 -595 0
-855 599 851 595 -594 0
-856 600 852 596 -595 0
-595 603 0
-604 595 0
-635 603 627 595 -594 0
-636 604 628 596 -595 0
-731 603 723 595 -594 0
-732 604 724 596 -595 0
-859 603 851 595 -594 0
-860 604 852 596 -595 0
-595 627 0
-628 595 0
-755 627 723 595 -594 0
-756 628 724 596 -595 0
-883 627 851 595 -594 0
-884 628 852 596 -595 0
-595 723 0
-724 595 0
-979 723 851 595 -594 0
-980 724 852 596 -595 0
-595 851 0
-852 595 0
-608 599 0
-600 608 0
-640 608 632 600 -599 0
-736 608 728 600 -599 0
-864 608 856 600 -599 0
-632 599 0
-600 632 0
-760 632 728 600 -599 0
-888 632 856 600 -599 0
-728 599 0
-600 728 0
-984 728 856 600 -599 0
-856 599 0
-600 856 0
-608 603 0
-604 608 0
-640 608 636 604 -603 0
-736 608 732 604 -603 0
-864 608 860 604 -603 0
-636 603 0
-604 636 0
-764 636 732 604 -603 0
-892 636 860 604 -603 0
-732 603 0
-604 732 0
-988 732 860 604 -603 0
-860 603 0
-604 860 0
-608 640 0
-768 640 736 608 -607 0
-896 640 864 608 -607 0
-608 736 0
-992 736 864 608 -607 0
-608 864 0
-611 615 0
-616 611 0
-623 615 619 611 -610 0
-624 616 620 612 -611 0
-631 615 627 611 -610 0
-632 616 628 612 -611 0
-743 615 739 611 -610 0
-744 616 740 612 -611 0
-871 615 867 611 -610 0
-872 616 868 612 -611 0
-611 619 0
-620 611 0
-635 619 627 611 -610 0
-636 620 628 612 -611 0
-747 619 739 611 -610 0
-748 620 740 612 -611 0
-876 620 868 612 -611 0
-611 627 0
-628 611 0
-755 627 739 611 -610 0
-756 628 740 612 -611 0
-883 627 867 611 -610 0
-884 628 868 612 -611 0
-611 739 0
-740 611 0
-996 740 868 612 -611 0
-611 867 0
-868 611 0
-624 615 0
-616 624 0
-640 624 632 616 -615 0
-752 624 744 616 -615 0
-880 624 872 616 -615 0
-632 615 0
-616 632 0
-760 632 744 616 -615 0
-888 632 872 616 -615 0
-744 615 0
-616 744 0
-1000 744 872 616 -615 0
-872 615 0
-616 872 0
-624 619 0
-620 624 0
-640 624 636 620 -619 0
-752 624 748 620 -619 0
-880 624 876 620 -619 0
-636 619 0
-620 636 0
-764 636 748 620 -619 0
-892 636 876 620 -619 0
-748 619 0
-620 748 0
-1004 748 876 620 -619 0
-876 619 0
-620 876 0
-624 640 0
-768 640 752 624 -623 0
-896 640 880 624 -623 0
-624 752 0
-1008 752 880 624 -623 0
-624 880 0
-632 627 0
-628 632 0
-640 632 636 628 -627 0
-760 632 756 628 -627 0
-888 632 884 628 -627 0
-636 627 0
-628 636 0
-764 636 756 628 -627 0
-892 636 884 628 -627 0
-756 627 0
-628 756 0
-1012 756 884 628 -627 0
-884 627 0
-628 884 0
-632 640 0
-768 640 760 632 -631 0
-896 640 888 632 -631 0
-632 760 0
-1016 760 888 632 -631 0
-632 888 0
-636 640 0
-768 640 764 636 -635 0
-896 640 892 636 -635 0
-636 764 0
-1020 764 892 636 -635 0
-636 892 0
-647 642 0
-655 647 651 643 -642 0
-663 647 659 643 -642 0
-679 647 675 643 -642 0
-711 647 707 643 -642 0
-903 647 899 643 -642 0
-651 642 0
-667 651 659 643 -642 0
-683 651 675 643 -642 0
-715 651 707 643 -642 0
-907 651 899 643 -642 0
-659 642 0
-691 659 675 643 -642 0
-723 659 707 643 -642 0
-915 659 899 643 -642 0
-675 642 0
-739 675 707 643 -642 0
-931 675 899 643 -642 0
-707 642 0
-963 707 899 643 -642 0
-899 642 0
-647 655 0
-656 647 0
-671 655 663 647 -646 0
-672 656 664 648 -647 0
-687 655 679 647 -646 0
-688 656 680 648 -647 0
-719 655 711 647 -646 0
-720 656 712 648 -647 0
-911 655 903 647 -646 0
-912 656 904 648 -647 0
-647 663 0
-664 647 0
-695 663 679 647 -646 0
-696 664 680 648 -647 0
-728 664 712 648 -647 0
-919 663 903 647 -646 0
-920 664 904 648 -647 0
-647 679 0
-680 647 0
-743 679 711 647 -646 0
-744 680 712 648 -647 0
-935 679 903 647 -646 0
-936 680 904 648 -647 0
-647 711 0
-712 647 0
-967 711 903 647 -646 0
-968 712 904 648 -647 0
-647 903 0
-904 647 0
-651 655 0
-656 651 0
-671 655 667 651 -650 0
-672 656 668 652 -651 0
-687 655 683 651 -650 0
-688 656 684 652 -651 0
-719 655 715 651 -650 0
-720 656 716 652 -651 0
-911 655 907 651 -650 0
-912 656 908 652 -651 0
-651 667 0
-668 651 0
-699 667 683 651 -650 0
-700 668 684 652 -651 0
-731 667 715 651 -650 0
-732 668 716 652 -651 0
-923 667 907 651 -650 0
-924 668 908 652 -651 0
-651 683 0
-684 651 0
-747 683 715 651 -650 0
-748 684 716 652 -651 0
-939 683 907 651 -650 0
-940 684 908 652 -651 0
-651 715 0
-716 651 0
-971 715 907 651 -650 0
-972 716 908 652 -651 0
-651 907 0
-908 651 0
-672 655 0
-656 672 0
-704 672 688 656 -655 0
-736 672 720 656 -655 0
-928 672 912 656 -655 0
-688 655 0
-656 688 0
-752 688 720 656 -655 0
-944 688 912 656 -655 0
-720 655 0
-656 720 0
-976 720 912 656 -655 0
-912 655 0
-656 912 0
-659 663 0
-664 659 0
-671 663 667 659 -658 0
-672 664 668 660 -659 0
-695 663 691 659 -658 0
-696 664 692 660 -659 0
-728 664 724 660 -659 0
-919 663 915 659 -658 0
-920 664 916 660 -659 0
-659 667 0
-668 659 0
-699 667 691 659 -658 0
-700 668 692 660 -659 0
-731 667 723 659 -658 0
-732 668 724 660 -659 0
-923 667 915 659 -658 0
-924 668 916 660 -659 0
-659 691 0
-692 659 0
-755 691 723 659 -658 0
-756 692 724 660 -659 0
-947 691 915 659 -658 0
-948 692 916 660 -659 0
-659 723 0
-724 659 0
-979 723 915 659 -658 0
-980 724 916 660 -659 0
-659 915 0
-916 659 0
-672 663 0
-664 672 0
-704 672 696 664 -663 0
-736 672 728 664 -663 0
-928 672 920 664 -663 0
-696 663 0
-664 696 0
-760 696 728 664 -663 0
-952 696 920 664 -663 0
-728 663 0
-664 728 0
-984 728 920 664 -663 0
-920 663 0
-664 920 0
-672 667 0
-668 672 0
-704 672 700 668 -667 0
-736 672 732 668 -667 0
-928 672 924 668 -667 0
-700 667 0
-668 700 0
-764 700 732 668 -667 0
-956 700 924 668 -667 0
-732 667 0
-668 732 0
-988 732 924 668 -667 0
-924 667 0
-668 924 0
-672 704 0
-768 704 736 672 -671 0
-960 704 928 672 -671 0
-672 736 0
-992 736 928 672 -671 0
-672 928 0
-675 679 0
-680 675 0
-687 679 683 675 -674 0
-688 680 684 676 -675 0
-695 679 691 675 -674 0
-696 680 692 676 -675 0
-743 679 739 675 -674 0
-744 680 740 676 -675 0
-935 679 931 675 -674 0
-936 680 932 676 -675 0
-675 683 0
-684 675 0
-699 683 691 675 -674 0
-700 684 692 676 -675 0
-747 683 739 675 -674 0
-748 684 740 676 -675 0
-939 683 931 675 -674 0
-940 684 932 676 -675 0
-675 691 0
-692 675 0
-755 691 739 675 -674 0
-756 692 740 676 -675 0
-947 691 931 675 -674 0
-948 692 932 676 -675 0
-675 739 0
-740 675 0
-995 739 931 675 -674 0
-996 740 932 676 -675 0
-675 931 0
-932 675 0
-688 679 0
-680 688 0
-704 688 696 680 -679 0
-752 688 744 680 -679 0
-944 688 936 680 -679 0
-696 679 0
-680 696 0
-760 696 744 680 -679 0
-952 696 936 680 -679 0
-744 679 0
-680 744 0
-1000 744 936 680 -679 0
-936 679 0
-680 936 0
-688 683 0
-684 688 0
-704 688 700 684 -683 0
-752 688 748 684 -683 0
-944 688 940 684 -683 0
-700 683 0
-684 700 0
-764 700 748 684 -683 0
-956 700 940 684 -683 0
-748 683 0
-684 748 0
-1004 748 940 684 -683 0
-940 683 0
-684 940 0
-688 704 0
-768 704 752 688 -687 0
-960 704 944 688 -687 0
-688 752 0
-1008 752 944 688 -687 0
-688 944 0
-696 691 0
-692 696 0
-704 696 700 692 -691 0
-760 696 756 692 -691 0
-952 696 948 692 -691 0
-700 691 0
-692 700 0
-764 700 756 692 -691 0
-956 700 948 692 -691 0
-756 691 0
-692 756 0
-1012 756 948 692 -691 0
-948 691 0
-692 948 0
-696 704 0
-768 704 760 696 -695 0
-960 704 952 696 -695 0
-696 760 0
-1016 760 952 696 -695 0
-696 952 0
-700 704 0
-768 704 764 700 -699 0
-960 704 956 700 -699 0
-700 764 0
-1020 764 956 700 -699 0
-700 956 0
-707 711 0
-712 707 0
-719 711 715 707 -706 0
-720 712 716 708 -707 0
-727 711 723 707 -706 0
-728 712 724 708 -707 0
-743 711 739 707 -706 0
-744 712 740 708 -707 0
-967 711 963 707 -706 0
-968 712 964 708 -707 0
-707 715 0
-716 707 0
-731 715 723 707 -706 0
-732 716 724 708 -707 0
-747 715 739 707 -706 0
-748 716 740 708 -707 0
-971 715 963 707 -706 0
-972 716 964 708 -707 0
-707 723 0
-724 707 0
-755 723 739 707 -706 0
-756 724 740 708 -707 0
-979 723 963 707 -706 0
-980 724 964 708 -707 0
-707 739 0
-740 707 0
-995 739 963 707 -706 0
-996 740 964 708 -707 0
-707 963 0
-964 707 0
-720 711 0
-712 720 0
-736 720 728 712 -711 0
-752 720 744 712 -711 0
-976 720 968 712 -711 0
-728 711 0
-712 728 0
-760 728 744 712 -711 0
-984 728 968 712 -711 0
-744 711 0
-712 744 0
-1000 744 968 712 -711 0
-968 711 0
-712 968 0
-720 715 0
-716 720 0
-736 720 732 716 -715 0
-752 720 748 716 -715 0
-976 720 972 716 -715 0
-732 715 0
-716 732 0
-764 732 748 716 -715 0
-988 732 972 716 -715 0
-748 715 0
-716 748 0
-1004 748 972 716 -715 0
-972 715 0
-716 972 0
-720 736 0
-768 736 752 720 -719 0
-992 736 976 720 -719 0
-720 752 0
-1008 752 976 720 -719 0
-720 976 0
-728 723 0
-724 728 0
-736 728 732 724 -723 0
-760 728 756 724 -723 0
-984 728 980 724 -723 0
-732 723 0
-724 732 0
-764 732 756 724 -723 0
-988 732 980 724 -723 0
-756 723 0
-724 756 0
-1012 756 980 724 -723 0
-980 723 0
-724 980 0
-728 736 0
-768 736 760 728 -727 0
-992 736 984 728 -727 0
-728 760 0
-1016 760 984 728 -727 0
-728 984 0
-732 736 0
-768 736 764 732 -731 0
-992 736 988 732 -731 0
-732 764 0
-1020 764 988 732 -731 0
-732 988 0
-744 739 0
-740 744 0
-752 744 748 740 -739 0
-760 744 756 740 -739 0
-1000 744 996 740 -739 0
-748 739 0
-740 748 0
-764 748 756 740 -739 0
-1004 748 996 740 -739 0
-756 739 0
-740 756 0
-1012 756 996 740 -739 0
-996 739 0
-740 996 0
-744 752 0
-768 752 760 744 -743 0
-1008 752 1000 744 -743 0
-744 760 0
-1016 760 1000 744 -743 0
-744 1000 0
-748 752 0
-768 752 764 748 -747 0
-1008 752 1004 748 -747 0
-748 764 0
-1020 764 1004 748 -747 0
-748 1004 0
-756 760 0
-768 760 764 756 -755 0
-1016 760 1012 756 -755 0
-756 764 0
-1020 764 1012 756 -755 0
-756 1012 0
-775 770 0
-783 775 779 771 -770 0
-791 775 787 771 -770 0
-807 775 803 771 -770 0
-839 775 835 771 -770 0
-903 775 899 771 -770 0
-779 770 0
-795 779 787 771 -770 0
-811 779 803 771 -770 0
-843 779 835 771 -770 0
-907 779 899 771 -770 0
-787 770 0
-819 787 803 771 -770 0
-851 787 835 771 -770 0
-915 787 899 771 -770 0
-803 770 0
-867 803 835 771 -770 0
-931 803 899 771 -770 0
-835 770 0
-963 835 899 771 -770 0
-899 770 0
-775 783 0
-784 775 0
-799 783 791 775 -774 0
-800 784 792 776 -775 0
-815 783 807 775 -774 0
-816 784 808 776 -775 0
-847 783 839 775 -774 0
-848 784 840 776 -775 0
-911 783 903 775 -774 0
-912 784 904 776 -775 0
-775 791 0
-792 775 0
-823 791 807 775 -774 0
-824 792 808 776 -775 0
-855 791 839 775 -774 0
-856 792 840 776 -775 0
-919 791 903 775 -774 0
-920 792 904 776 -775 0
-775 807 0
-808 775 0
-871 807 839 775 -774 0
-872 808 840 776 -775 0
-935 807 903 775 -774 0
-936 808 904 776 -775 0
-775 839 0
-840 775 0
-967 839 903 775 -774 0
-968 840 904 776 -775 0
-775 903 0
-904 775 0
-779 783 0
-784 779 0
-800 784 796 780 -779 0
-815 783 811 779 -778 0
-816 784 812 780 -779 0
-847 783 843 779 -778 0
-848 784 844 780 -779 0
-911 783 907 779 -778 0
-912 784 908 780 -779 0
-779 795 0
-796 779 0
-827 795 811 779 -778 0
-828 796 812 780 -779 0
-859 795 843 779 -778 0
-860 796 844 780 -779 0
-923 795 907 779 -778 0
-924 796 908 780 -779 0
-779 811 0
-812 779 0
-875 811 843 779 -778 0
-876 812 844 780 -779 0
-939 811 907 779 -778 0
-940 812 908 780 -779 0
-779 843 0
-844 779 0
-971 843 907 779 -778 0
-972 844 908 780 -779 0
-779 907 0
-908 779 0
-800 783 0
-784 800 0
-832 800 816 784 -783 0
-864 800 848 784 -783 0
-928 800 912 784 -783 0
-816 783 0
-784 816 0
-880 816 848 784 -783 0
-944 816 912 784 -783 0
-848 783 0
-784 848 0
-976 848 912 784 -783 0
-912 783 0
-784 912 0
-787 791 0
-792 787 0
-799 791 795 787 -786 0
-800 792 796 788 -787 0
-823 791 819 787 -786 0
-824 792 820 788 -787 0
-855 791 851 787 -786 0
-856 792 852 788 -787 0
-919 791 915 787 -786 0
-920 792 916 788 -787 0
-787 795 0
-796 787 0
-827 795 819 787 -786 0
-828 796 820 788 -787 0
-860 796 852 788 -787 0
-923 795 915 787 -786 0
-924 796 916 788 -787 0
-787 819 0
-820 787 0
-883 819 851 787 -786 0
-884 820 852 788 -787 0
-947 819 915 787 -786 0
-948 820 916 788 -787 0
-787 851 0
-852 787 0
-979 851 915 787 -786 0
-980 852 916 788 -787 0
-787 915 0
-916 787 0
-800 791 0
-792 800 0
-832 800 824 792 -791 0
-864 800 856 792 -791 0
-928 800 920 792 -791 0
-824 791 0
-792 824 0
-888 824 856 792 -791 0
-952 824 920 792 -791 0
-856 791 0
-792 856 0
-984 856 920 792 -791 0
-920 791 0
-792 920 0
-800 795 0
-796 800 0
-832 800 828 796 -795 0
-864 800 860 796 -795 0
-928 800 924 796 -795 0
-828 795 0
-796 828 0
-892 828 860 796 -795 0
-956 828 924 796 -795 0
-860 795 0
-796 860 0
-988 860 924 796 -795 0
-924 795 0
-796 924 0
-800 832 0
-896 832 864 800 -799 0
-960 832 928 800 -799 0
-800 864 0
-992 864 928 800 -799 0
-800 928 0
-803 807 0
-808 803 0
-815 807 811 803 -802 0
-816 808 812 804 -803 0
-823 807 819 803 -802 0
-824 808 820 804 -803 0
-871 807 867 803 -802 0
-872 808 868 804 -803 0
-935 807 931 803 -802 0
-936 808 932 804 -803 0
-803 811 0
-812 803 0
-827 811 819 803 -802 0
-828 812 820 804 -803 0
-875 811 867 803 -802 0
-876 812 868 804 -803 0
-939 811 931 803 -802 0
-940 812 932 804 -803 0
-803 819 0
-820 803 0
-883 819 867 803 -802 0
-884 820 868 804 -803 0
-947 819 931 803 -802 0
-948 820 932 804 -803 0
-803 867 0
-868 803 0
-995 867 931 803 -802 0
-996 868 932 804 -803 0
-803 931 0
-932 803 0
-816 807 0
-808 816 0
-832 816 824 808 -807 0
-880 816 872 808 -807 0
-944 816 936 808 -807 0
-824 807 0
-808 824 0
-888 824 872 808 -807 0
-952 824 936 808 -807 0
-872 807 0
-808 872 0
-1000 872 936 808 -807 0
-936 807 0
-808 936 0
-816 811 0
-812 816 0
-832 816 828 812 -811 0
-880 816 876 812 -811 0
-944 816 940 812 -811 0
-828 811 0
-812 828 0
-892 828 876 812 -811 0
-956 828 940 812 -811 0
-876 811 0
-812 876 0
-1004 876 940 812 -811 0
-940 811 0
-812 940 0
-816 832 0
-896 832 880 816 -815 0
-960 832 944 816 -815 0
-816 880 0
-1008 880 944 816 -815 0
-816 944 0
-824 819 0
-820 824 0
-832 824 828 820 -819 0
-888 824 884 820 -819 0
-952 824 948 820 -819 0
-828 819 0
-820 828 0
-892 828 884 820 -819 0
-956 828 948 820 -819 0
-884 819 0
-820 884 0
-1012 884 948 820 -819 0
-948 819 0
-820 948 0
-824 832 0
-896 832 888 824 -823 0
-960 832 952 824 -823 0
-824 888 0
-1016 888 952 824 -823 0
-824 952 0
-828 832 0
-896 832 892 828 -827 0
-960 832 956 828 -827 0
-828 892 0
-1020 892 956 828 -827 0
-828 956 0
-835 839 0
-840 835 0
-847 839 843 835 -834 0
-848 840 844 836 -835 0
-855 839 851 835 -834 0
-856 840 852 836 -835 0
-871 839 867 835 -834 0
-872 840 868 836 -835 0
-967 839 963 835 -834 0
-968 840 964 836 -835 0
-835 843 0
-844 835 0
-859 843 851 835 -834 0
-860 844 852 836 -835 0
-875 843 867 835 -834 0
-876 844 868 836 -835 0
-971 843 963 835 -834 0
-972 844 964 836 -835 0
-835 851 0
-852 835 0
-883 851 867 835 -834 0
-884 852 868 836 -835 0
-979 851 963 835 -834 0
-980 852 964 836 -835 0
-835 867 0
-868 835 0
-995 867 963 835 -834 0
-996 868 964 836 -835 0
-835 963 0
-964 835 0
-848 839 0
-840 848 0
-864 848 856 840 -839 0
-880 848 872 840 -839 0
-976 848 968 840 -839 0
-856 839 0
-840 856 0
-888 856 872 840 -839 0
-984 856 968 840 -839 0
-872 839 0
-840 872 0
-1000 872 968 840 -839 0
-968 839 0
-840 968 0
-848 843 0
-844 848 0
-864 848 860 844 -843 0
-880 848 876 844 -843 0
-976 848 972 844 -843 0
-860 843 0
-844 860 0
-892 860 876 844 -843 0
-988 860 972 844 -843 0
-876 843 0
-844 876 0
-1004 876 972 844 -843 0
-972 843 0
-844 972 0
-848 864 0
-896 864 880 848 -847 0
-992 864 976 848 -847 0
-848 880 0
-1008 880 976 848 -847 0
-848 976 0
-856 851 0
-852 856 0
-864 856 860 852 -851 0
-888 856 884 852 -851 0
-984 856 980 852 -851 0
-860 851 0
-852 860 0
-892 860 884 852 -851 0
-988 860 980 852 -851 0
-884 851 0
-852 884 0
-1012 884 980 852 -851 0
-980 851 0
-852 980 0
-856 864 0
-896 864 888 856 -855 0
-992 864 984 856 -855 0
-856 888 0
-1016 888 984 856 -855 0
-856 984 0
-860 864 0
-896 864 892 860 -859 0
-992 864 988 860 -859 0
-860 892 0
-1020 892 988 860 -859 0
-860 988 0
-872 867 0
-868 872 0
-880 872 876 868 -867 0
-888 872 884 868 -867 0
-1000 872 996 868 -867 0
-876 867 0
-868 876 0
-892 876 884 868 -867 0
-1004 876 996 868 -867 0
-884 867 0
-868 884 0
-1012 884 996 868 -867 0
-996 867 0
-868 996 0
-872 880 0
-896 880 888 872 -871 0
-1008 880 1000 872 -871 0
-872 888 0
-1016 888 1000 872 -871 0
-872 1000 0
-876 880 0
-896 880 892 876 -875 0
-1008 880 1004 876 -875 0
-876 892 0
-1020 892 1004 876 -875 0
-876 1004 0
-884 888 0
-896 888 892 884 -883 0
-1016 888 1012 884 -883 0
-884 892 0
-1020 892 1012 884 -883 0
-884 1012 0
-899 903 0
-904 899 0
-911 903 907 899 -898 0
-912 904 908 900 -899 0
-919 903 915 899 -898 0
-920 904 916 900 -899 0
-935 903 931 899 -898 0
-936 904 932 900 -899 0
-967 903 963 899 -898 0
-968 904 964 900 -899 0
-899 907 0
-908 899 0
-923 907 915 899 -898 0
-924 908 916 900 -899 0
-939 907 931 899 -898 0
-940 908 932 900 -899 0
-971 907 963 899 -898 0
-972 908 964 900 -899 0
-899 915 0
-916 899 0
-947 915 931 899 -898 0
-948 916 932 900 -899 0
-979 915 963 899 -898 0
-980 916 964 900 -899 0
-899 931 0
-932 899 0
-995 931 963 899 -898 0
-996 932 964 900 -899 0
-899 963 0
-964 899 0
-912 903 0
-904 912 0
-928 912 920 904 -903 0
-944 912 936 904 -903 0
-976 912 968 904 -903 0
-920 903 0
-904 920 0
-952 920 936 904 -903 0
-984 920 968 904 -903 0
-936 903 0
-904 936 0
-1000 936 968 904 -903 0
-968 903 0
-904 968 0
-912 907 0
-908 912 0
-928 912 924 908 -907 0
-944 912 940 908 -907 0
-976 912 972 908 -907 0
-924 907 0
-908 924 0
-956 924 940 908 -907 0
-988 924 972 908 -907 0
-940 907 0
-908 940 0
-1004 940 972 908 -907 0
-972 907 0
-908 972 0
-912 928 0
-960 928 944 912 -911 0
-992 928 976 912 -911 0
-912 944 0
-1008 944 976 912 -911 0
-912 976 0
-920 915 0
-916 920 0
-928 920 924 916 -915 0
-952 920 948 916 -915 0
-984 920 980 916 -915 0
-924 915 0
-916 924 0
-956 924 948 916 -915 0
-988 924 980 916 -915 0
-948 915 0
-916 948 0
-1012 948 980 916 -915 0
-980 915 0
-916 980 0
-920 928 0
-960 928 952 920 -919 0
-992 928 984 920 -919 0
-920 952 0
-1016 952 984 920 -919 0
-920 984 0
-924 928 0
-960 928 956 924 -923 0
-992 928 988 924 -923 0
-924 956 0
-1020 956 988 924 -923 0
-924 988 0
-936 931 0
-932 936 0
-944 936 940 932 -931 0
-952 936 948 932 -931 0
-1000 936 996 932 -931 0
-940 931 0
-932 940 0
-956 940 948 932 -931 0
-1004 940 996 932 -931 0
-948 931 0
-932 948 0
-1012 948 996 932 -931 0
-996 931 0
-932 996 0
-936 944 0
-960 944 952 936 -935 0
-1008 944 1000 936 -935 0
-936 952 0
-1016 952 1000 936 -935 0
-936 1000 0
-940 944 0
-960 944 956 940 -939 0
-1008 944 1004 940 -939 0
-940 956 0
-1020 956 1004 940 -939 0
-940 1004 0
-948 952 0
-960 952 956 948 -947 0
-1016 952 1012 948 -947 0
-948 956 0
-1020 956 1012 948 -947 0
-948 1012 0
-968 963 0
-964 968 0
-976 968 972 964 -963 0
-984 968 980 964 -963 0
-1000 968 996 964 -963 0
-972 963 0
-964 972 0
-988 972 980 964 -963 0
-1004 972 996 964 -963 0
-980 963 0
-964 980 0
-1012 980 996 964 -963 0
-996 963 0
-964 996 0
-968 976 0
-992 976 984 968 -967 0
-1008 976 1000 968 -967 0
-968 984 0
-1016 984 1000 968 -967 0
-968 1000 0
-972 976 0
-992 976 988 972 -971 0
-1008 976 1004 972 -971 0
-972 988 0
-1020 988 1004 972 -971 0
-972 1004 0
-980 984 0
-992 984 988 980 -979 0
-1016 984 1012 980 -979 0
-980 988 0
-1020 988 1012 980 -979 0
-980 1012 0
-996 1000 0
-1008 1000 1004 996 -995 0
-1016 1000 1012 996 -995 0
-996 1004 0
-1020 1004 1012 996 -995 0
-996 1012 0
-64 -124 -244 -484 -964 -904 -784 -544 0
-64 -124 -244 -740 -964 -904 -784 -288 0
-64 -124 -372 -484 -964 -904 -656 -544 0
-64 -124 -372 -868 -964 -904 -656 -160 0
-64 -124 -628 -740 -964 -904 -400 -288 0
-64 -124 -628 -868 -964 -904 -400 -160 0
-64 -188 -244 -484 -964 -840 -784 -544 0
-64 -188 -244 -740 -964 -840 -784 -288 0
-64 -188 -436 -932 -964 -840 -592 -96 0
-64 -188 -692 -740 -964 -840 -336 -288 0
-64 -188 -692 -932 -964 -840 -336 -96 0
-64 -316 -372 -484 -964 -712 -656 -544 0
-64 -316 -372 -868 -964 -712 -656 -160 0
-64 -316 -436 -484 -964 -712 -592 -544 0
-64 -316 -436 -932 -964 -712 -592 -96 0
-64 -316 -820 -868 -964 -712 -208 -160 0
-64 -316 -820 -932 -964 -712 -208 -96 0
-64 -572 -692 -740 -964 -456 -336 -288 0
-64 -572 -692 -932 -964 -456 -336 -96 0
-64 -572 -820 -868 -964 -456 -208 -160 0
-64 -572 -820 -932 -964 -456 -208 -96 0
-96 -124 -244 -484 -932 -904 -784 -544 0
-96 -124 -244 -740 -932 -904 -784 -288 0
-96 -124 -372 -484 -932 -904 -656 -544 0
-96 -124 -372 -868 -932 -904 -656 -160 0
-96 -124 -628 -740 -932 -904 -400 -288 0
-96 -220 -244 -740 -932 -808 -784 -288 0
-96 -220 -468 -484 -932 -808 -560 -544 0
-96 -220 -468 -964 -932 -808 -560 -64 0
-96 -220 -724 -740 -932 -808 -304 -288 0
-96 -220 -724 -964 -932 -808 -304 -64 0
-96 -348 -372 -484 -932 -680 -656 -544 0
-96 -348 -372 -868 -932 -680 -656 -160 0
-96 -348 -468 -484 -932 -680 -560 -544 0
-96 -348 -852 -868 -932 -680 -176 -160 0
-96 -348 -852 -964 -932 -680 -176 -64 0
-96 -604 -724 -740 -932 -424 -304 -288 0
-96 -604 -724 -964 -932 -424 -304 -64 0
-96 -604 -852 -868 -932 -424 -176 -160 0
-96 -604 -852 -964 -932 -424 -176 -64 0
-160 -188 -244 -484 -868 -840 -784 -544 0
-160 -188 -244 -740 -868 -840 -784 -288 0
-160 -188 -436 -484 -868 -840 -592 -544 0
-160 -188 -436 -932 -868 -840 -592 -96 0
-160 -188 -692 -740 -868 -840 -336 -288 0
-160 -188 -692 -932 -868 -840 -336 -96 0
-160 -220 -244 -484 -868 -808 -784 -544 0
-160 -220 -244 -740 -868 -808 -784 -288 0
-160 -220 -468 -484 -868 -808 -560 -544 0
-160 -220 -724 -740 -868 -808 -304 -288 0
-160 -220 -724 -964 -868 -808 -304 -64 0
-160 -412 -436 -484 -868 -616 -592 -544 0
-160 -412 -436 -932 -868 -616 -592 -96 0
-160 -412 -468 -484 -868 -616 -560 -544 0
-160 -412 -916 -932 -868 -616 -112 -96 0
-160 -668 -692 -740 -868 -360 -336 -288 0
-160 -668 -692 -932 -868 -360 -336 -96 0
-160 -668 -724 -740 -868 -360 -304 -288 0
-160 -668 -724 -964 -868 -360 -304 -64 0
-160 -668 -916 -932 -868 -360 -112 -96 0
-288 -316 -372 -484 -740 -712 -656 -544 0
-288 -316 -372 -868 -740 -712 -656 -160 0
-288 -316 -436 -484 -740 -712 -592 -544 0
-288 -316 -436 -932 -740 -712 -592 -96 0
-288 -316 -820 -868 -740 -712 -208 -160 0
-288 -316 -820 -932 -740 -712 -208 -96 0
-288 -348 -372 -484 -740 -680 -656 -544 0
-288 -348 -372 -868 -740 -680 -656 -160 0
-288 -348 -468 -484 -740 -680 -560 -544 0
-288 -348 -468 -964 -740 -680 -560 -64 0
-288 -348 -852 -868 -740 -680 -176 -160 0
-288 -348 -852 -964 -740 -680 -176 -64 0
-288 -412 -468 -964 -740 -616 -560 -64 0
-288 -412 -916 -932 -740 -616 -112 -96 0
-288 -412 -916 -964 -740 -616 -112 -64 0
-288 -796 -820 -868 -740 -232 -208 -160 0
-288 -796 -820 -932 -740 -232 -208 -96 0
-288 -796 -852 -868 -740 -232 -176 -160 0
-288 -796 -852 -964 -740 -232 -176 -64 0
-288 -796 -916 -932 -740 -232 -112 -96 0
-288 -796 -916 -964 -740 -232 -112 -64 0
-544 -572 -628 -740 -484 -456 -400 -288 0
-544 -572 -628 -868 -484 -456 -400 -160 0
-544 -572 -692 -740 -484 -456 -336 -288 0
-544 -572 -692 -932 -484 -456 -336 -96 0
-544 -572 -820 -868 -484 -456 -208 -160 0
-544 -572 -820 -932 -484 -456 -208 -96 0
-544 -604 -628 -740 -484 -424 -400 -288 0
-544 -604 -628 -868 -484 -424 -400 -160 0
-544 -604 -724 -740 -484 -424 -304 -288 0
-544 -604 -724 -964 -484 -424 -304 -64 0
-544 -604 -852 -868 -484 -424 -176 -160 0
-544 -668 -692 -740 -484 -360 -336 -288 0
-544 -668 -724 -740 -484 -360 -304 -288 0
-544 -668 -724 -964 -484 -360 -304 -64 0
-544 -668 -916 -932 -484 -360 -112 -96 0
-544 -668 -916 -964 -484 -360 -112 -64 0
-544 -796 -820 -868 -484 -232 -208 -160 0
-544 -796 -852 -868 -484 -232 -176 -160 0
-544 -796 -852 -964 -484 -232 -176 -64 0
-544 -796 -916 -932 -484 -232 -112 -96 0
-64 -124 -244 -468 -964 -904 -784 -560 0
-64 -124 -244 -724 -964 -904 -784 -304 0
-64 -124 -372 -468 -964 -904 -656 -560 0
-64 -124 -372 -852 -964 -904 -656 -176 0
-64 -124 -628 -724 -964 -904 -400 -304 0
-64 -124 -628 -852 -964 -904 -400 -176 0
-64 -188 -244 -468 -964 -840 -784 -560 0
-64 -188 -244 -724 -964 -840 -784 -304 0
-64 -188 -436 -468 -964 -840 -592 -560 0
-64 -188 -436 -916 -964 -840 -592 -112 0
-64 -188 -692 -724 -964 -840 -336 -304 0
-64 -188 -692 -916 -964 -840 -336 -112 0
-64 -316 -372 -468 -964 -712 -656 -560 0
-64 -316 -436 -468 -964 -712 -592 -560 0
-64 -316 -436 -916 -964 -712 -592 -112 0
-64 -316 -820 -852 -964 -712 -208 -176 0
-64 -316 -820 -916 -964 -712 -208 -112 0
-64 -572 -628 -724 -964 -456 -400 -304 0
-64 -572 -628 -852 -964 -456 -400 -176 0
-64 -572 -692 -724 -964 -456 -336 -304 0
-64 -572 -692 -916 -964 -456 -336 -112 0
-64 -572 -820 -916 -964 -456 -208 -112 0
-112 -124 -244 -468 -916 -904 -784 -560 0
-112 -124 -244 -724 -916 -904 -784 -304 0
-112 -124 -372 -468 -916 -904 -656 -560 0
-112 -124 -372 -852 -916 -904 -656 -176 0
-112 -124 -628 -724 -916 -904 -400 -304 0
-112 -124 -628 -852 -916 -904 -400 -176 0
-112 -236 -484 -468 -916 -792 -544 -560 0
-112 -236 -484 -964 -916 -792 -544 -64 0
-112 -236 -740 -964 -916 -792 -288 -64 0
-112 -364 -372 -468 -916 -664 -656 -560 0
-112 -364 -484 -468 -916 -664 -544 -560 0
-112 -364 -484 -964 -916 -664 -544 -64 0
-112 -364 -868 -964 -916 -664 -160 -64 0
-112 -620 -740 -724 -916 -408 -288 -304 0
-112 -620 -740 -964 -916 -408 -288 -64 0
-112 -620 -868 -852 -916 -408 -160 -176 0
-176 -188 -244 -468 -852 -840 -784 -560 0
-176 -188 -244 -724 -852 -840 -784 -304 0
-176 -188 -436 -468 -852 -840 -592 -560 0
-176 -188 -436 -916 -852 -840 -592 -112 0
-176 -188 -692 -724 -852 -840 -336 -304 0
-176 -188 -692 -916 -852 -840 -336 -112 0
-176 -236 -244 -468 -852 -792 -784 -560 0
-176 -236 -244 -724 -852 -792 -784 -304 0
-176 -236 -484 -468 -852 -792 -544 -560 0
-176 -236 -484 -964 -852 -792 -544 -64 0
-176 -236 -740 -724 -852 -792 -288 -304 0
-176 -236 -740 -964 -852 -792 -288 -64 0
-176 -428 -436 -468 -852 -600 -592 -560 0
-176 -428 -436 -916 -852 -600 -592 -112 0
-176 -428 -484 -468 -852 -600 -544 -560 0
-176 -428 -484 -964 -852 -600 -544 -64 0
-176 -428 -932 -916 -852 -600 -96 -112 0
-176 -684 -692 -724 -852 -344 -336 -304 0
-176 -684 -740 -724 -852 -344 -288 -304 0
-176 -684 -740 -964 -852 -344 -288 -64 0
-176 -684 -932 -916 -852 -344 -96 -112 0
-176 -684 -932 -964 -852 -344 -96 -64 0
-304 -316 -372 -468 -724 -712 -656 -560 0
-304 -316 -372 -852 -724 -712 -656 -176 0
-304 -316 -436 -468 -724 -712 -592 -560 0
-304 -316 -436 -916 -724 -712 -592 -112 0
-304 -316 -820 -852 -724 -712 -208 -176 0
-304 -316 -820 -916 -724 -712 -208 -112 0
-304 -364 -372 -852 -724 -664 -656 -176 0
-304 -364 -484 -468 -724 -664 -544 -560 0
-304 -364 -484 -964 -724 -664 -544 -64 0
-304 -364 -868 -964 -724 -664 -160 -64 0
-304 -428 -436 -468 -724 -600 -592 -560 0
-304 -428 -484 -468 -724 -600 -544 -560 0
-304 -428 -484 -964 -724 -600 -544 -64 0
-304 -428 -932 -916 -724 -600 -96 -112 0
-304 -428 -932 -964 -724 -600 -96 -64 0
-304 -812 -820 -852 -724 -216 -208 -176 0
-304 -812 -820 -916 -724 -216 -208 -112 0
-304 -812 -868 -852 -724 -216 -160 -176 0
-304 -812 -868 -964 -724 -216 -160 -64 0
-304 -812 -932 -916 -724 -216 -96 -112 0
-304 -812 -932 -964 -724 -216 -96 -64 0
-560 -572 -628 -724 -468 -456 -400 -304 0
-560 -572 -628 -852 -468 -456 -400 -176 0
-560 -572 -692 -724 -468 -456 -336 -304 0
-560 -572 -820 -852 -468 -456 -208 -176 0
-560 -620 -628 -724 -468 -408 -400 -304 0
-560 -620 -628 -852 -468 -408 -400 -176 0
-560 -620 -740 -724 -468 -408 -288 -304 0
-560 -620 -740 -964 -468 -408 -288 -64 0
-560 -620 -868 -852 -468 -408 -160 -176 0
-560 -684 -740 -724 -468 -344 -288 -304 0
-560 -684 -740 -964 -468 -344 -288 -64 0
-560 -684 -932 -916 -468 -344 -96 -112 0
-560 -684 -932 -964 -468 -344 -96 -64 0
-560 -812 -820 -852 -468 -216 -208 -176 0
-560 -812 -868 -852 -468 -216 -160 -176 0
-560 -812 -868 -964 -468 -216 -160 -64 0
-560 -812 -932 -916 -468 -216 -96 -112 0
-560 -812 -932 -964 -468 -216 -96 -64 0
-96 -124 -244 -436 -932 -904 -784 -592 0
-96 -124 -244 -692 -932 -904 -784 -336 0
-96 -124 -372 -436 -932 -904 -656 -592 0
-96 -124 -372 -820 -932 -904 -656 -208 0
-96 -124 -628 -692 -932 -904 -400 -336 0
-96 -124 -628 -820 -932 -904 -400 -208 0
-96 -220 -244 -436 -932 -808 -784 -592 0
-96 -220 -244 -692 -932 -808 -784 -336 0
-96 -220 -468 -436 -932 -808 -560 -592 0
-96 -220 -468 -916 -932 -808 -560 -112 0
-96 -220 -724 -692 -932 -808 -304 -336 0
-96 -220 -724 -916 -932 -808 -304 -112 0
-96 -348 -372 -436 -932 -680 -656 -592 0
-96 -348 -372 -820 -932 -680 -656 -208 0
-96 -348 -468 -436 -932 -680 -560 -592 0
-96 -348 -468 -916 -932 -680 -560 -112 0
-96 -348 -852 -820 -932 -680 -176 -208 0
-96 -348 -852 -916 -932 -680 -176 -112 0
-96 -604 -628 -692 -932 -424 -400 -336 0
-96 -604 -628 -820 -932 -424 -400 -208 0
-96 -604 -724 -692 -932 -424 -304 -336 0
-96 -604 -724 -916 -932 -424 -304 -112 0
-96 -604 -852 -820 -932 -424 -176 -208 0
-96 -604 -852 -916 -932 -424 -176 -112 0
-112 -124 -244 -436 -916 -904 -784 -592 0
-112 -124 -244 -692 -916 -904 -784 -336 0
-112 -124 -372 -436 -916 -904 -656 -592 0
-112 -124 -372 -820 -916 -904 -656 -208 0
-112 -124 -628 -692 -916 -904 -400 -336 0
-112 -124 -628 -820 -916 -904 -400 -208 0
-112 -236 -244 -436 -916 -792 -784 -592 0
-112 -236 -244 -692 -916 -792 -784 -336 0
-112 -236 -484 -932 -916 -792 -544 -96 0
-112 -236 -740 -692 -916 -792 -288 -336 0
-112 -236 -740 -932 -916 -792 -288 -96 0
-112 -364 -372 -436 -916 -664 -656 -592 0
-112 -364 -372 -820 -916 -664 -656 -208 0
-112 -364 -484 -436 -916 -664 -544 -592 0
-112 -364 -484 -932 -916 -664 -544 -96 0
-112 -364 -868 -932 -916 -664 -160 -96 0
-112 -620 -628 -692 -916 -408 -400 -336 0
-112 -620 -628 -820 -916 -408 -400 -208 0
-112 -620 -740 -692 -916 -408 -288 -336 0
-112 -620 -740 -932 -916 -408 -288 -96 0
-112 -620 -868 -820 -916 -408 -160 -208 0
-112 -620 -868 -932 -916 -408 -160 -96 0
-208 -220 -244 -436 -820 -808 -784 -592 0
-208 -220 -244 -692 -820 -808 -784 -336 0
-208 -220 -468 -436 -820 -808 -560 -592 0
-208 -220 -468 -916 -820 -808 -560 -112 0
-208 -220 -724 -692 -820 -808 -304 -336 0
-208 -220 -724 -916 -820 -808 -304 -112 0
-208 -236 -244 -436 -820 -792 -784 -592 0
-208 -236 -244 -692 -820 -792 -784 -336 0
-208 -236 -484 -436 -820 -792 -544 -592 0
-208 -236 -484 -932 -820 -792 -544 -96 0
-208 -236 -740 -692 -820 -792 -288 -336 0
-208 -236 -740 -932 -820 -792 -288 -96 0
-208 -460 -468 -436 -820 -568 -560 -592 0
-208 -460 -468 -916 -820 -568 -560 -112 0
-208 -460 -484 -436 -820 -568 -544 -592 0
-208 -460 -484 -932 -820 -568 -544 -96 0
-208 -460 -964 -916 -820 -568 -64 -112 0
-208 -460 -964 -932 -820 -568 -64 -96 0
-208 -716 -724 -692 -820 -312 -304 -336 0
-208 -716 -724 -916 -820 -312 -304 -112 0
-208 -716 -740 -692 -820 -312 -288 -336 0
-208 -716 -740 -932 -820 -312 -288 -96 0
-208 -716 -964 -916 -820 -312 -64 -112 0
-208 -716 -964 -932 -820 -312 -64 -96 0
-336 -348 -372 -436 -692 -680 -656 -592 0
-336 -348 -372 -820 -692 -680 -656 -208 0
-336 -348 -468 -436 -692 -680 -560 -592 0
-336 -348 -468 -916 -692 -680 -560 -112 0
-336 -348 -852 -820 -692 -680 -176 -208 0
-336 -348 -852 -916 -692 -680 -176 -112 0
-336 -364 -372 -436 -692 -664 -656 -592 0
-336 -364 -372 -820 -692 -664 -656 -208 0
-336 -364 -484 -436 -692 -664 -544 -592 0
-336 -364 -484 -932 -692 -664 -544 -96 0
-336 -364 -868 -820 -692 -664 -160 -208 0
-336 -364 -868 -932 -692 -664 -160 -96 0
-336 -460 -468 -436 -692 -568 -560 -592 0
-336 -460 -468 -916 -692 -568 -560 -112 0
-336 -460 -484 -436 -692 -568 -544 -592 0
-336 -460 -964 -916 -692 -568 -64 -112 0
-336 -460 -964 -932 -692 -568 -64 -96 0
-336 -844 -852 -820 -692 -184 -176 -208 0
-336 -844 -852 -916 -692 -184 -176 -112 0
-336 -844 -868 -820 -692 -184 -160 -208 0
-336 -844 -868 -932 -692 -184 -160 -96 0
-336 -844 -964 -916 -692 -184 -64 -112 0
-336 -844 -964 -932 -692 -184 -64 -96 0
-592 -604 -628 -692 -436 -424 -400 -336 0
-592 -604 -628 -820 -436 -424 -400 -208 0
-592 -604 -724 -692 -436 -424 -304 -336 0
-592 -604 -724 -916 -436 -424 -304 -112 0
-592 -604 -852 -820 -436 -424 -176 -208 0
-592 -604 -852 -916 -436 -424 -176 -112 0
-592 -620 -628 -692 -436 -408 -400 -336 0
-592 -620 -628 -820 -436 -408 -400 -208 0
-592 -620 -740 -692 -436 -408 -288 -336 0
-592 -620 -740 -932 -436 -408 -288 -96 0
-592 -620 -868 -932 -436 -408 -160 -96 0
-592 -716 -724 -692 -436 -312 -304 -336 0
-592 -716 -740 -692 -436 -312 -288 -336 0
-592 -716 -740 -932 -436 -312 -288 -96 0
-592 -716 -964 -916 -436 -312 -64 -112 0
-592 -716 -964 -932 -436 -312 -64 -96 0
-592 -844 -852 -820 -436 -184 -176 -208 0
-592 -844 -868 -820 -436 -184 -160 -208 0
-592 -844 -964 -916 -436 -184 -64 -112 0
-592 -844 -964 -932 -436 -184 -64 -96 0
-160 -188 -244 -372 -868 -840 -784 -656 0
-160 -188 -244 -628 -868 -840 -784 -400 0
-160 -188 -436 -372 -868 -840 -592 -656 0
-160 -188 -436 -820 -868 -840 -592 -208 0
-160 -188 -692 -628 -868 -840 -336 -400 0
-160 -188 -692 -820 -868 -840 -336 -208 0
-160 -220 -244 -628 -868 -808 -784 -400 0
-160 -220 -468 -372 -868 -808 -560 -656 0
-160 -220 -468 -852 -868 -808 -560 -176 0
-160 -220 -724 -628 -868 -808 -304 -400 0
-160 -220 -724 -852 -868 -808 -304 -176 0
-160 -412 -436 -372 -868 -616 -592 -656 0
-160 -412 -436 -820 -868 -616 -592 -208 0
-160 -412 -468 -852 -868 -616 -560 -176 0
-160 -412 -916 -820 -868 -616 -112 -208 0
-160 -412 -916 -852 -868 -616 -112 -176 0
-160 -668 -724 -628 -868 -360 -304 -400 0
-160 -668 -724 -852 -868 -360 -304 -176 0
-160 -668 -916 -820 -868 -360 -112 -208 0
-160 -668 -916 -852 -868 -360 -112 -176 0
-176 -188 -244 -372 -852 -840 -784 -656 0
-176 -188 -244 -628 -852 -840 -784 -400 0
-176 -188 -436 -372 -852 -840 -592 -656 0
-176 -188 -436 -820 -852 -840 -592 -208 0
-176 -188 -692 -628 -852 -840 -336 -400 0
-176 -188 -692 -820 -852 -840 -336 -208 0
-176 -236 -244 -372 -852 -792 -784 -656 0
-176 -236 -244 -628 -852 -792 -784 -400 0
-176 -236 -484 -372 -852 -792 -544 -656 0
-176 -236 -484 -868 -852 -792 -544 -160 0
-176 -236 -740 -628 -852 -792 -288 -400 0
-176 -236 -740 -868 -852 -792 -288 -160 0
-176 -428 -436 -820 -852 -600 -592 -208 0
-176 -428 -484 -868 -852 -600 -544 -160 0
-176 -428 -932 -820 -852 -600 -96 -208 0
-176 -428 -932 -868 -852 -600 -96 -160 0
-176 -684 -692 -628 -852 -344 -336 -400 0
-176 -684 -692 -820 -852 -344 -336 -208 0
-176 -684 -740 -868 -852 -344 -288 -160 0
-176 -684 -932 -868 -852 -344 -96 -160 0
-208 -220 -244 -372 -820 -808 -784 -656 0
-208 -220 -244 -628 -820 -808 -784 -400 0
-208 -220 -468 -372 -820 -808 -560 -656 0
-208 -220 -468 -852 -820 -808 -560 -176 0
-208 -220 -724 -628 -820 -808 -304 -400 0
-208 -220 -724 -852 -820 -808 -304 -176 0
-208 -236 -244 -372 -820 -792 -784 -656 0
-208 -236 -244 -628 -820 -792 -784 -400 0
-208 -236 -484 -868 -820 -792 -544 -160 0
-208 -236 -740 -628 -820 -792 -288 -400 0
-208 -236 -740 -868 -820 -792 -288 -160 0
-208 -460 -468 -372 -820 -568 -560 -656 0
-208 -460 -468 -852 -820 -568 -560 -176 0
-208 -460 -484 -868 -820 -568 -544 -160 0
-208 -460 -964 -852 -820 -568 -64 -176 0
-208 -460 -964 -868 -820 -568 -64 -160 0
-208 -716 -724 -628 -820 -312 -304 -400 0
-208 -716 -724 -852 -820 -312 -304 -176 0
-208 -716 -740 -628 -820 -312 -288 -400 0
-208 -716 -740 -868 -820 -312 -288 -160 0
-208 -716 -964 -852 -820 -312 -64 -176 0
-208 -716 -964 -868 -820 -312 -64 -160 0
-400 -412 -436 -372 -628 -616 -592 -656 0
-400 -412 -436 -820 -628 -616 -592 -208 0
-400 -412 -468 -372 -628 -616 -560 -656 0
-400 -412 -468 -852 -628 -616 -560 -176 0
-400 -412 -916 -820 -628 -616 -112 -208 0
-400 -412 -916 -852 -628 -616 -112 -176 0
-400 -428 -436 -372 -628 -600 -592 -656 0
-400 -428 -436 -820 -628 -600 -592 -208 0
-400 -428 -484 -372 -628 -600 -544 -656 0
-400 -428 -484 -868 -628 -600 -544 -160 0
-400 -428 -932 -820 -628 -600 -96 -208 0
-400 -428 -932 -868 -628 -600 -96 -160 0
-400 -460 -468 -372 -628 -568 -560 -656 0
-400 -460 -468 -852 -628 -568 -560 -176 0
-400 -460 -484 -372 -628 -568 -544 -656 0
-400 -460 -484 -868 -628 -568 -544 -160 0
-400 -460 -964 -852 -628 -568 -64 -176 0
-400 -908 -916 -820 -628 -120 -112 -208 0
-400 -908 -916 -852 -628 -120 -112 -176 0
-400 -908 -932 -820 -628 -120 -96 -208 0
-400 -908 -932 -868 -628 -120 -96 -160 0
-400 -908 -964 -852 -628 -120 -64 -176 0
-400 -908 -964 -868 -628 -120 -64 -160 0
-656 -668 -692 -628 -372 -360 -336 -400 0
-656 -668 -692 -820 -372 -360 -336 -208 0
-656 -668 -724 -628 -372 -360 -304 -400 0
-656 -668 -724 -852 -372 -360 -304 -176 0
-656 -668 -916 -820 -372 -360 -112 -208 0
-656 -668 -916 -852 -372 -360 -112 -176 0
-656 -684 -692 -628 -372 -344 -336 -400 0
-656 -684 -692 -820 -372 -344 -336 -208 0
-656 -684 -740 -628 -372 -344 -288 -400 0
-656 -684 -740 -868 -372 -344 -288 -160 0
-656 -684 -932 -820 -372 -344 -96 -208 0
-656 -684 -932 -868 -372 -344 -96 -160 0
-656 -716 -724 -628 -372 -312 -304 -400 0
-656 -716 -724 -852 -372 -312 -304 -176 0
-656 -716 -740 -628 -372 -312 -288 -400 0
-656 -716 -740 -868 -372 -312 -288 -160 0
-656 -716 -964 -852 -372 -312 -64 -176 0
-656 -716 -964 -868 -372 -312 -64 -160 0
-656 -908 -916 -820 -372 -120 -112 -208 0
-656 -908 -916 -852 -372 -120 -112 -176 0
-656 -908 -932 -820 -372 -120 -96 -208 0
-656 -908 -932 -868 -372 -120 -96 -160 0
-656 -908 -964 -852 -372 -120 -64 -176 0
-656 -908 -964 -868 -372 -120 -64 -160 0
-288 -316 -372 -244 -740 -712 -656 -784 0
-288 -316 -372 -628 -740 -712 -656 -400 0
-288 -316 -436 -244 -740 -712 -592 -784 0
-288 -316 -436 -692 -740 -712 -592 -336 0
-288 -316 -820 -628 -740 -712 -208 -400 0
-288 -316 -820 -692 -740 -712 -208 -336 0
-288 -348 -372 -244 -740 -680 -656 -784 0
-288 -348 -468 -244 -740 -680 -560 -784 0
-288 -348 -468 -724 -740 -680 -560 -304 0
-288 -348 -852 -628 -740 -680 -176 -400 0
-288 -348 -852 -724 -740 -680 -176 -304 0
-288 -412 -436 -692 -740 -616 -592 -336 0
-288 -412 -468 -724 -740 -616 -560 -304 0
-288 -412 -916 -692 -740 -616 -112 -336 0
-288 -412 -916 -724 -740 -616 -112 -304 0
-288 -796 -820 -628 -740 -232 -208 -400 0
-288 -796 -820 -692 -740 -232 -208 -336 0
-288 -796 -852 -628 -740 -232 -176 -400 0
-288 -796 -852 -724 -740 -232 -176 -304 0
-288 -796 -916 -692 -740 -232 -112 -336 0
-288 -796 -916 -724 -740 -232 -112 -304 0
-304 -316 -372 -244 -724 -712 -656 -784 0
-304 -316 -372 -628 -724 -712 -656 -400 0
-304 -316 -436 -244 -724 -712 -592 -784 0
-304 -316 -436 -692 -724 -712 -592 -336 0
-304 -316 -820 -628 -724 -712 -208 -400 0
-304 -316 -820 -692 -724 -712 -208 -336 0
-304 -364 -372 -244 -724 -664 -656 -784 0
-304 -364 -372 -628 -724 -664 -656 -400 0
-304 -364 -484 -244 -724 -664 -544 -784 0
-304 -364 -484 -740 -724 -664 -544 -288 0
-304 -364 -868 -740 -724 -664 -160 -288 0
-304 -428 -436 -244 -724 -600 -592 -784 0
-304 -428 -436 -692 -724 -600 -592 -336 0
-304 -428 -484 -740 -724 -600 -544 -288 0
-304 -428 -932 -692 -724 -600 -96 -336 0
-304 -428 -932 -740 -724 -600 -96 -288 0
-304 -812 -820 -628 -724 -216 -208 -400 0
-304 -812 -820 -692 -724 -216 -208 -336 0
-304 -812 -868 -628 -724 -216 -160 -400 0
-304 -812 -868 -740 -724 -216 -160 -288 0
-304 -812 -932 -692 -724 -216 -96 -336 0
-304 -812 -932 -740 -724 -216 -96 -288 0
-336 -348 -372 -244 -692 -680 -656 -784 0
-336 -348 -372 -628 -692 -680 -656 -400 0
-336 -348 -468 -244 -692 -680 -560 -784 0
-336 -348 -468 -724 -692 -680 -560 -304 0
-336 -348 -852 -628 -692 -680 -176 -400 0
-336 -348 -852 -724 -692 -680 -176 -304 0
-336 -364 -372 -244 -692 -664 -656 -784 0
-336 -364 -372 -628 -692 -664 -656 -400 0
-336 -364 -484 -740 -692 -664 -544 -288 0
-336 -364 -868 -628 -692 -664 -160 -400 0
-336 -364 -868 -740 -692 -664 -160 -288 0
-336 -460 -468 -244 -692 -568 -560 -784 0
-336 -460 -468 -724 -692 -568 -560 -304 0
-336 -460 -964 -724 -692 -568 -64 -304 0
-336 -460 -964 -740 -692 -568 -64 -288 0
-336 -844 -852 -628 -692 -184 -176 -400 0
-336 -844 -852 -724 -692 -184 -176 -304 0
-336 -844 -964 -724 -692 -184 -64 -304 0
-336 -844 -964 -740 -692 -184 -64 -288 0
-400 -412 -436 -244 -628 -616 -592 -784 0
-400 -412 -436 -692 -628 -616 -592 -336 0
-400 -412 -468 -244 -628 -616 -560 -784 0
-400 -412 -468 -724 -628 -616 -560 -304 0
-400 -412 -916 -692 -628 -616 -112 -336 0
-400 -428 -436 -244 -628 -600 -592 -784 0
-400 -428 -436 -692 -628 -600 -592 -336 0
-400 -428 -484 -244 -628 -600 -544 -784 0
-400 -428 -484 -740 -628 -600 -544 -288 0
-400 -428 -932 -692 -628 -600 -96 -336 0
-400 -428 -932 -740 -628 -600 -96 -288 0
-400 -460 -468 -244 -628 -568 -560 -784 0
-400 -460 -468 -724 -628 -568 -560 -304 0
-400 -460 -484 -244 -628 -568 -544 -784 0
-400 -460 -484 -740 -628 -568 -544 -288 0
-400 -460 -964 -724 -628 -568 -64 -304 0
-400 -460 -964 -740 -628 -568 -64 -288 0
-400 -908 -916 -692 -628 -120 -112 -336 0
-400 -908 -916 -724 -628 -120 -112 -304 0
-400 -908 -932 -692 -628 -120 -96 -336 0
-400 -908 -932 -740 -628 -120 -96 -288 0
-400 -908 -964 -724 -628 -120 -64 -304 0
-400 -908 -964 -740 -628 -120 -64 -288 0
-784 -796 -820 -628 -244 -232 -208 -400 0
-784 -796 -852 -628 -244 -232 -176 -400 0
-784 -796 -852 -724 -244 -232 -176 -304 0
-784 -796 -916 -692 -244 -232 -112 -336 0
-784 -796 -916 -724 -244 -232 -112 -304 0
-784 -812 -820 -628 -244 -216 -208 -400 0
-784 -812 -820 -692 -244 -216 -208 -336 0
-784 -812 -868 -628 -244 -216 -160 -400 0
-784 -812 -868 -740 -244 -216 -160 -288 0
-784 -812 -932 -692 -244 -216 -96 -336 0
-784 -812 -932 -740 -244 -216 -96 -288 0
-784 -844 -852 -628 -244 -184 -176 -400 0
-784 -844 -852 -724 -244 -184 -176 -304 0
-784 -844 -868 -628 -244 -184 -160 -400 0
-784 -844 -868 -740 -244 -184 -160 -288 0
-784 -844 -964 -724 -244 -184 -64 -304 0
-784 -844 -964 -740 -244 -184 -64 -288 0
-784 -908 -916 -692 -244 -120 -112 -336 0
-784 -908 -916 -724 -244 -120 -112 -304 0
-784 -908 -932 -692 -244 -120 -96 -336 0
-784 -908 -932 -740 -244 -120 -96 -288 0
-784 -908 -964 -724 -244 -120 -64 -304 0
-784 -908 -964 -740 -244 -120 -64 -288 0
-544 -572 -628 -244 -484 -456 -400 -784 0
-544 -572 -628 -372 -484 -456 -400 -656 0
-544 -572 -692 -244 -484 -456 -336 -784 0
-544 -572 -692 -436 -484 -456 -336 -592 0
-544 -572 -820 -372 -484 -456 -208 -656 0
-544 -572 -820 -436 -484 -456 -208 -592 0
-544 -604 -628 -244 -484 -424 -400 -784 0
-544 -604 -628 -372 -484 -424 -400 -656 0
-544 -604 -724 -244 -484 -424 -304 -784 0
-544 -604 -724 -468 -484 -424 -304 -560 0
-544 -604 -852 -468 -484 -424 -176 -560 0
-544 -668 -692 -436 -484 -360 -336 -592 0
-544 -668 -724 -468 -484 -360 -304 -560 0
-544 -668 -916 -436 -484 -360 -112 -592 0
-544 -668 -916 -468 -484 -360 -112 -560 0
-544 -796 -820 -436 -484 -232 -208 -592 0
-544 -796 -852 -468 -484 -232 -176 -560 0
-544 -796 -916 -468 -484 -232 -112 -560 0
-560 -572 -628 -244 -468 -456 -400 -784 0
-560 -572 -628 -372 -468 -456 -400 -656 0
-560 -572 -692 -244 -468 -456 -336 -784 0
-560 -572 -820 -372 -468 -456 -208 -656 0
-560 -572 -820 -436 -468 -456 -208 -592 0
-560 -620 -628 -244 -468 -408 -400 -784 0
-560 -620 -628 -372 -468 -408 -400 -656 0
-560 -620 -740 -244 -468 -408 -288 -784 0
-560 -620 -740 -484 -468 -408 -288 -544 0
-560 -620 -868 -372 -468 -408 -160 -656 0
-560 -620 -868 -484 -468 -408 -160 -544 0
-560 -684 -692 -436 -468 -344 -336 -592 0
-560 -684 -740 -484 -468 -344 -288 -544 0
-560 -684 -932 -436 -468 -344 -96 -592 0
-560 -684 -932 -484 -468 -344 -96 -544 0
-560 -812 -820 -372 -468 -216 -208 -656 0
-560 -812 -820 -436 -468 -216 -208 -592 0
-560 -812 -868 -484 -468 -216 -160 -544 0
-560 -812 -932 -484 -468 -216 -96 -544 0
-592 -604 -628 -244 -436 -424 -400 -784 0
-592 -604 -628 -372 -436 -424 -400 -656 0
-592 -604 -724 -468 -436 -424 -304 -560 0
-592 -604 -852 -372 -436 -424 -176 -656 0
-592 -604 -852 -468 -436 -424 -176 -560 0
-592 -620 -628 -244 -436 -408 -400 -784 0
-592 -620 -628 -372 -436 -408 -400 -656 0
-592 -620 -740 -244 -436 -408 -288 -784 0
-592 -620 -740 -484 -436 -408 -288 -544 0
-592 -620 -868 -372 -436 -408 -160 -656 0
-592 -620 -868 -484 -436 -408 -160 -544 0
-592 -716 -724 -244 -436 -312 -304 -784 0
-592 -716 -724 -468 -436 -312 -304 -560 0
-592 -716 -740 -244 -436 -312 -288 -784 0
-592 -716 -740 -484 -436 -312 -288 -544 0
-592 -716 -964 -468 -436 -312 -64 -560 0
-592 -716 -964 -484 -436 -312 -64 -544 0
-592 -844 -852 -468 -436 -184 -176 -560 0
-592 -844 -868 -372 -436 -184 -160 -656 0
-592 -844 -964 -468 -436 -184 -64 -560 0
-592 -844 -964 -484 -436 -184 -64 -544 0
-656 -668 -692 -244 -372 -360 -336 -784 0
-656 -668 -692 -436 -372 -360 -336 -592 0
-656 -668 -724 -244 -372 -360 -304 -784 0
-656 -668 -724 -468 -372 -360 -304 -560 0
-656 -668 -916 -436 -372 -360 -112 -592 0
-656 -668 -916 -468 -372 -360 -112 -560 0
-656 -684 -692 -244 -372 -344 -336 -784 0
-656 -684 -692 -436 -372 -344 -336 -592 0
-656 -684 -740 -244 -372 -344 -288 -784 0
-656 -684 -740 -484 -372 -344 -288 -544 0
-656 -684 -932 -436 -372 -344 -96 -592 0
-656 -684 -932 -484 -372 -344 -96 -544 0
-656 -716 -724 -244 -372 -312 -304 -784 0
-656 -716 -724 -468 -372 -312 -304 -560 0
-656 -716 -740 -244 -372 -312 -288 -784 0
-656 -716 -740 -484 -372 -312 -288 -544 0
-656 -716 -964 -468 -372 -312 -64 -560 0
-656 -716 -964 -484 -372 -312 -64 -544 0
-656 -908 -916 -436 -372 -120 -112 -592 0
-656 -908 -916 -468 -372 -120 -112 -560 0
-656 -908 -932 -436 -372 -120 -96 -592 0
-656 -908 -932 -484 -372 -120 -96 -544 0
-656 -908 -964 -468 -372 -120 -64 -560 0
-656 -908 -964 -484 -372 -120 -64 -544 0
-784 -796 -820 -372 -244 -232 -208 -656 0
-784 -796 -820 -436 -244 -232 -208 -592 0
-784 -796 -852 -372 -244 -232 -176 -656 0
-784 -796 -852 -468 -244 -232 -176 -560 0
-784 -796 -916 -436 -244 -232 -112 -592 0
-784 -796 -916 -468 -244 -232 -112 -560 0
-784 -812 -820 -372 -244 -216 -208 -656 0
-784 -812 -820 -436 -244 -216 -208 -592 0
-784 -812 -868 -372 -244 -216 -160 -656 0
-784 -812 -868 -484 -244 -216 -160 -544 0
-784 -812 -932 -436 -244 -216 -96 -592 0
-784 -812 -932 -484 -244 -216 -96 -544 0
-784 -844 -852 -372 -244 -184 -176 -656 0
-784 -844 -852 -468 -244 -184 -176 -560 0
-784 -844 -868 -372 -244 -184 -160 -656 0
-784 -844 -868 -484 -244 -184 -160 -544 0
-784 -844 -964 -468 -244 -184 -64 -560 0
-784 -844 -964 -484 -244 -184 -64 -544 0
-784 -908 -916 -436 -244 -120 -112 -592 0
-784 -908 -916 -468 -244 -120 -112 -560 0
-784 -908 -932 -436 -244 -120 -96 -592 0
-784 -908 -932 -484 -244 -120 -96 -544 0
-784 -908 -964 -468 -244 -120 -64 -560 0
-784 -908 -964 -484 -244 -120 -64 -544 0
-64 -124 -236 -484 -964 -904 -792 -544 0
-64 -124 -236 -740 -964 -904 -792 -288 0
-64 -124 -364 -484 -964 -904 -664 -544 0
-64 -124 -364 -868 -964 -904 -664 -160 0
-64 -124 -620 -740 -964 -904 -408 -288 0
-64 -124 -620 -868 -964 -904 -408 -160 0
-64 -188 -236 -484 -964 -840 -792 -544 0
-64 -188 -236 -740 -964 -840 -792 -288 0
-64 -188 -428 -484 -964 -840 -600 -544 0
-64 -188 -428 -932 -964 -840 -600 -96 0
-64 -188 -684 -932 -964 -840 -344 -96 0
-64 -316 -364 -484 -964 -712 -664 -544 0
-64 -316 -364 -868 -964 -712 -664 -160 0
-64 -316 -428 -932 -964 -712 -600 -96 0
-64 -316 -812 -868 -964 -712 -216 -160 0
-64 -316 -812 -932 -964 -712 -216 -96 0
-64 -572 -620 -740 -964 -456 -408 -288 0
-64 -572 -620 -868 -964 -456 -408 -160 0
-64 -572 -684 -932 -964 -456 -344 -96 0
-64 -572 -812 -868 -964 -456 -216 -160 0
-64 -572 -812 -932 -964 -456 -216 -96 0
-96 -124 -236 -484 -932 -904 -792 -544 0
-96 -124 -364 -484 -932 -904 -664 -544 0
-96 -124 -364 -868 -932 -904 -664 -160 0
-96 -124 -620 -740 -932 -904 -408 -288 0
-96 -124 -620 -868 -932 -904 -408 -160 0
-96 -220 -236 -484 -932 -808 -792 -544 0
-96 -220 -236 -740 -932 -808 -792 -288 0
-96 -220 -460 -484 -932 -808 -568 -544 0
-96 -220 -460 -964 -932 -808 -568 -64 0
-96 -220 -716 -740 -932 -808 -312 -288 0
-96 -220 -716 -964 -932 -808 -312 -64 0
-96 -348 -364 -484 -932 -680 -664 -544 0
-96 -348 -364 -868 -932 -680 -664 -160 0
-96 -348 -460 -484 -932 -680 -568 -544 0
-96 -348 -460 -964 -932 -680 -568 -64 0
-96 -348 -844 -868 -932 -680 -184 -160 0
-96 -348 -844 -964 -932 -680 -184 -64 0
-96 -604 -620 -740 -932 -424 -408 -288 0
-96 -604 -620 -868 -932 -424 -408 -160 0
-96 -604 -716 -964 -932 -424 -312 -64 0
-96 -604 -844 -964 -932 -424 -184 -64 0
-160 -188 -236 -484 -868 -840 -792 -544 0
-160 -188 -236 -740 -868 -840 -792 -288 0
-160 -188 -428 -484 -868 -840 -600 -544 0
-160 -188 -428 -932 -868 -840 -600 -96 0
-160 -188 -684 -740 -868 -840 -344 -288 0
-160 -188 -684 -932 -868 -840 -344 -96 0
-160 -220 -236 -484 -868 -808 -792 -544 0
-160 -220 -236 -740 -868 -808 -792 -288 0
-160 -220 -460 -484 -868 -808 -568 -544 0
-160 -220 -460 -964 -868 -808 -568 -64 0
-160 -220 -716 -740 -868 -808 -312 -288 0
-160 -220 -716 -964 -868 -808 -312 -64 0
-160 -412 -428 -484 -868 -616 -600 -544 0
-160 -412 -428 -932 -868 -616 -600 -96 0
-160 -412 -460 -484 -868 -616 -568 -544 0
-160 -412 -460 -964 -868 -616 -568 -64 0
-160 -412 -908 -932 -868 -616 -120 -96 0
-160 -412 -908 -964 -868 -616 -120 -64 0
-160 -668 -684 -740 -868 -360 -344 -288 0
-160 -668 -684 -932 -868 -360 -344 -96 0
-160 -668 -716 -740 -868 -360 -312 -288 0
-160 -668 -716 -964 -868 -360 -312 -64 0
-160 -668 -908 -932 -868 -360 -120 -96 0
-160 -668 -908 -964 -868 -360 -120 -64 0
-288 -316 -364 -484 -740 -712 -664 -544 0
-288 -316 -364 -868 -740 -712 -664 -160 0
-288 -316 -428 -484 -740 -712 -600 -544 0
-288 -316 -428 -932 -740 -712 -600 -96 0
-288 -316 -812 -868 -740 -712 -216 -160 0
-288 -316 -812 -932 -740 -712 -216 -96 0
-288 -348 -364 -484 -740 -680 -664 -544 0
-288 -348 -364 -868 -740 -680 -664 -160 0
-288 -348 -460 -484 -740 -680 -568 -544 0
-288 -348 -460 -964 -740 -680 -568 -64 0
-288 -348 -844 -868 -740 -680 -184 -160 0
-288 -348 -844 -964 -740 -680 -184 -64 0
-288 -412 -428 -484 -740 -616 -600 -544 0
-288 -412 -428 -932 -740 -616 -600 -96 0
-288 -412 -460 -484 -740 -616 -568 -544 0
-288 -412 -460 -964 -740 -616 -568 -64 0
-288 -412 -908 -932 -740 -616 -120 -96 0
-288 -412 -908 -964 -740 -616 -120 -64 0
-288 -796 -812 -868 -740 -232 -216 -160 0
-288 -796 -812 -932 -740 -232 -216 -96 0
-288 -796 -844 -868 -740 -232 -184 -160 0
-288 -796 -844 -964 -740 -232 -184 -64 0
-288 -796 -908 -932 -740 -232 -120 -96 0
-288 -796 -908 -964 -740 -232 -120 -64 0
-544 -572 -620 -740 -484 -456 -408 -288 0
-544 -572 -620 -868 -484 -456 -408 -160 0
-544 -572 -684 -740 -484 -456 -344 -288 0
-544 -572 -684 -932 -484 -456 -344 -96 0
-544 -572 -812 -868 -484 -456 -216 -160 0
-544 -572 -812 -932 -484 -456 -216 -96 0
-544 -604 -620 -740 -484 -424 -408 -288 0
-544 -604 -620 -868 -484 -424 -408 -160 0
-544 -604 -716 -740 -484 -424 -312 -288 0
-544 -604 -844 -868 -484 -424 -184 -160 0
-544 -604 -844 -964 -484 -424 -184 -64 0
-544 -668 -684 -740 -484 -360 -344 -288 0
-544 -668 -684 -932 -484 -360 -344 -96 0
-544 -668 -716 -740 -484 -360 -312 -288 0
-544 -668 -716 -964 -484 -360 -312 -64 0
-544 -668 -908 -932 -484 -360 -120 -96 0
-544 -668 -908 -964 -484 -360 -120 -64 0
-544 -796 -812 -868 -484 -232 -216 -160 0
-544 -796 -812 -932 -484 -232 -216 -96 0
-544 -796 -844 -868 -484 -232 -184 -160 0
-544 -796 -844 -964 -484 -232 -184 -64 0
-544 -796 -908 -964 -484 -232 -120 -64 0
-64 -124 -236 -460 -964 -904 -792 -568 0
-64 -124 -236 -716 -964 -904 -792 -312 0
-64 -124 -364 -460 -964 -904 -664 -568 0
-64 -124 -364 -844 -964 -904 -664 -184 0
-64 -124 -620 -716 -964 -904 -408 -312 0
-64 -124 -620 -844 -964 -904 -408 -184 0
-64 -188 -236 -460 -964 -840 -792 -568 0
-64 -188 -236 -716 -964 -840 -792 -312 0
-64 -188 -428 -460 -964 -840 -600 -568 0
-64 -188 -428 -908 -964 -840 -600 -120 0
-64 -188 -684 -716 -964 -840 -344 -312 0
-64 -188 -684 -908 -964 -840 -344 -120 0
-64 -316 -364 -460 -964 -712 -664 -568 0
-64 -316 -364 -844 -964 -712 -664 -184 0
-64 -316 -428 -460 -964 -712 -600 -568 0
-64 -316 -428 -908 -964 -712 -600 -120 0
-64 -316 -812 -844 -964 -712 -216 -184 0
-64 -316 -812 -908 -964 -712 -216 -120 0
-64 -572 -620 -716 -964 -456 -408 -312 0
-64 -572 -620 -844 -964 -456 -408 -184 0
-64 -572 -684 -716 -964 -456 -344 -312 0
-64 -572 -684 -908 -964 -456 -344 -120 0
-64 -572 -812 -844 -964 -456 -216 -184 0
-64 -572 -812 -908 -964 -456 -216 -120 0
-120 -124 -236 -460 -908 -904 -792 -568 0
-120 -124 -236 -716 -908 -904 -792 -312 0
-120 -124 -364 -460 -908 -904 -664 -568 0
-120 -124 -364 -844 -908 -904 -664 -184 0
-120 -124 -620 -716 -908 -904 -408 -312 0
-120 -124 -620 -844 -908 -904 -408 -184 0
-120 -244 -236 -460 -908 -784 -792 -568 0
-120 -244 -236 -716 -908 -784 -792 -312 0
-120 -244 -484 -460 -908 -784 -544 -568 0
-120 -244 -740 -716 -908 -784 -288 -312 0
-120 -372 -364 -460 -908 -656 -664 -568 0
-120 -372 -364 -844 -908 -656 -664 -184 0
-120 -372 -484 -460 -908 -656 -544 -568 0
-120 -372 -868 -844 -908 -656 -160 -184 0
-120 -628 -620 -716 -908 -400 -408 -312 0
-120 -628 -620 -844 -908 -400 -408 -184 0
-120 -628 -740 -716 -908 -400 -288 -312 0
-120 -628 -868 -844 -908 -400 -160 -184 0
-184 -188 -236 -460 -844 -840 -792 -568 0
-184 -188 -236 -716 -844 -840 -792 -312 0
-184 -188 -428 -460 -844 -840 -600 -568 0
-184 -188 -428 -908 -844 -840 -600 -120 0
-184 -188 -684 -716 -844 -840 -344 -312 0
-184 -188 -684 -908 -844 -840 -344 -120 0
-184 -244 -236 -460 -844 -784 -792 -568 0
-184 -244 -236 -716 -844 -784 -792 -312 0
-184 -244 -484 -460 -844 -784 -544 -568 0
-184 -244 -740 -716 -844 -784 -288 -312 0
-184 -436 -428 -460 -844 -592 -600 -568 0
-184 -436 -428 -908 -844 -592 -600 -120 0
-184 -436 -484 -460 -844 -592 -544 -568 0
-184 -436 -932 -908 -844 -592 -96 -120 0
-184 -692 -684 -716 -844 -336 -344 -312 0
-184 -692 -684 -908 -844 -336 -344 -120 0
-184 -692 -740 -716 -844 -336 -288 -312 0
-184 -692 -932 -908 -844 -336 -96 -120 0
-312 -316 -364 -460 -716 -712 -664 -568 0
-312 -316 -364 -844 -716 -712 -664 -184 0
-312 -316 -428 -460 -716 -712 -600 -568 0
-312 -316 -428 -908 -716 -712 -600 -120 0
-312 -316 -812 -844 -716 -712 -216 -184 0
-312 -316 -812 -908 -716 -712 -216 -120 0
-312 -372 -364 -460 -716 -656 -664 -568 0
-312 -372 -364 -844 -716 -656 -664 -184 0
-312 -372 -484 -460 -716 -656 -544 -568 0
-312 -372 -868 -844 -716 -656 -160 -184 0
-312 -436 -428 -460 -716 -592 -600 -568 0
-312 -436 -428 -908 -716 -592 -600 -120 0
-312 -436 -484 -460 -716 -592 -544 -568 0
-312 -436 -932 -908 -716 -592 -96 -120 0
-312 -820 -812 -844 -716 -208 -216 -184 0
-312 -820 -812 -908 -716 -208 -216 -120 0
-312 -820 -868 -844 -716 -208 -160 -184 0
-312 -820 -932 -908 -716 -208 -96 -120 0
-568 -572 -620 -716 -460 -456 -408 -312 0
-568 -572 -620 -844 -460 -456 -408 -184 0
-568 -572 -684 -716 -460 -456 -344 -312 0
-568 -572 -684 -908 -460 -456 -344 -120 0
-568 -572 -812 -844 -460 -456 -216 -184 0
-568 -572 -812 -908 -460 -456 -216 -120 0
-568 -628 -620 -716 -460 -400 -408 -312 0
-568 -628 -620 -844 -460 -400 -408 -184 0
-568 -628 -740 -716 -460 -400 -288 -312 0
-568 -628 -868 -844 -460 -400 -160 -184 0
-568 -692 -684 -716 -460 -336 -344 -312 0
-568 -692 -684 -908 -460 -336 -344 -120 0
-568 -692 -740 -716 -460 -336 -288 -312 0
-568 -692 -932 -908 -460 -336 -96 -120 0
-568 -820 -812 -844 -460 -208 -216 -184 0
-568 -820 -812 -908 -460 -208 -216 -120 0
-568 -820 -868 -844 -460 -208 -160 -184 0
-568 -820 -932 -908 -460 -208 -96 -120 0
-96 -124 -236 -428 -932 -904 -792 -600 0
-96 -124 -236 -684 -932 -904 -792 -344 0
-96 -124 -364 -428 -932 -904 -664 -600 0
-96 -124 -364 -812 -932 -904 -664 -216 0
-96 -124 -620 -684 -932 -904 -408 -344 0
-96 -124 -620 -812 -932 -904 -408 -216 0
-96 -220 -236 -428 -932 -808 -792 -600 0
-96 -220 -236 -684 -932 -808 -792 -344 0
-96 -220 -460 -428 -932 -808 -568 -600 0
-96 -220 -460 -908 -932 -808 -568 -120 0
-96 -220 -716 -684 -932 -808 -312 -344 0
-96 -220 -716 -908 -932 -808 -312 -120 0
-96 -348 -364 -428 -932 -680 -664 -600 0
-96 -348 -364 -812 -932 -680 -664 -216 0
-96 -348 -460 -428 -932 -680 -568 -600 0
-96 -348 -460 -908 -932 -680 -568 -120 0
-96 -348 -844 -812 -932 -680 -184 -216 0
-96 -348 -844 -908 -932 -680 -184 -120 0
-96 -604 -620 -812 -932 -424 -408 -216 0
-96 -604 -716 -684 -932 -424 -312 -344 0
-96 -604 -716 -908 -932 -424 -312 -120 0
-96 -604 -844 -812 -932 -424 -184 -216 0
-96 -604 -844 -908 -932 -424 -184 -120 0
-120 -124 -236 -428 -908 -904 -792 -600 0
-120 -124 -236 -684 -908 -904 -792 -344 0
-120 -124 -364 -428 -908 -904 -664 -600 0
-120 -124 -364 -812 -908 -904 -664 -216 0
-120 -124 -620 -684 -908 -904 -408 -344 0
-120 -124 -620 -812 -908 -904 -408 -216 0
-120 -244 -236 -428 -908 -784 -792 -600 0
-120 -244 -236 -684 -908 -784 -792 -344 0
-120 -244 -484 -428 -908 -784 -544 -600 0
-120 -244 -740 -684 -908 -784 -288 -344 0
-120 -372 -364 -428 -908 -656 -664 -600 0
-120 -372 -364 -812 -908 -656 -664 -216 0
-120 -372 -484 -428 -908 -656 -544 -600 0
-120 -372 -868 -812 -908 -656 -160 -216 0
-120 -628 -620 -684 -908 -400 -408 -344 0
-120 -628 -620 -812 -908 -400 -408 -216 0
-120 -628 -868 -812 -908 -400 -160 -216 0
-216 -220 -236 -428 -812 -808 -792 -600 0
-216 -220 -236 -684 -812 -808 -792 -344 0
-216 -220 -460 -428 -812 -808 -568 -600 0
-216 -220 -460 -908 -812 -808 -568 -120 0
-216 -220 -716 -684 -812 -808 -312 -344 0
-216 -220 -716 -908 -812 -808 -312 -120 0
-216 -244 -236 -428 -812 -784 -792 -600 0
-216 -244 -236 -684 -812 -784 -792 -344 0
-216 -244 -484 -428 -812 -784 -544 -600 0
-216 -244 -740 -684 -812 -784 -288 -344 0
-216 -468 -460 -428 -812 -560 -568 -600 0
-216 -468 -484 -428 -812 -560 -544 -600 0
-216 -468 -964 -908 -812 -560 -64 -120 0
-216 -724 -716 -684 -812 -304 -312 -344 0
-216 -724 -716 -908 -812 -304 -312 -120 0
-216 -724 -740 -684 -812 -304 -288 -344 0
-216 -724 -964 -908 -812 -304 -64 -120 0
-344 -348 -364 -428 -684 -680 -664 -600 0
-344 -348 -364 -812 -684 -680 -664 -216 0
-344 -348 -460 -428 -684 -680 -568 -600 0
-344 -348 -460 -908 -684 -680 -568 -120 0
-344 -348 -844 -812 -684 -680 -184 -216 0
-344 -348 -844 -908 -684 -680 -184 -120 0
-344 -372 -364 -428 -684 -656 -664 -600 0
-344 -372 -364 -812 -684 -656 -664 -216 0
-344 -372 -484 -428 -684 -656 -544 -600 0
-344 -372 -868 -812 -684 -656 -160 -216 0
-344 -468 -460 -428 -684 -560 -568 -600 0
-344 -468 -460 -908 -684 -560 -568 -120 0
-344 -468 -484 -428 -684 -560 -544 -600 0
-344 -468 -964 -908 -684 -560 -64 -120 0
-344 -852 -844 -908 -684 -176 -184 -120 0
-344 -852 -868 -812 -684 -176 -160 -216 0
-344 -852 -964 -908 -684 -176 -64 -120 0
-600 -604 -620 -684 -428 -424 -408 -344 0
-600 -604 -620 -812 -428 -424 -408 -216 0
-600 -604 -716 -684 -428 -424 -312 -344 0
-600 -604 -716 -908 -428 -424 -312 -120 0
-600 -604 -844 -908 -428 -424 -184 -120 0
-600 -628 -620 -684 -428 -400 -408 -344 0
-600 -628 -620 -812 -428 -400 -408 -216 0
-600 -628 -740 -684 -428 -400 -288 -344 0
-600 -628 -868 -812 -428 -400 -160 -216 0
-600 -724 -716 -684 -428 -304 -312 -344 0
-600 -724 -716 -908 -428 -304 -312 -120 0
-600 -724 -740 -684 -428 -304 -288 -344 0
-600 -724 -964 -908 -428 -304 -64 -120 0
-600 -852 -844 -812 -428 -176 -184 -216 0
-600 -852 -844 -908 -428 -176 -184 -120 0
-600 -852 -868 -812 -428 -176 -160 -216 0
-600 -852 -964 -908 -428 -176 -64 -120 0
-160 -188 -236 -364 -868 -840 -792 -664 0
-160 -188 -236 -620 -868 -840 -792 -408 0
-160 -188 -428 -364 -868 -840 -600 -664 0
-160 -188 -428 -812 -868 -840 -600 -216 0
-160 -188 -684 -620 -868 -840 -344 -408 0
-160 -188 -684 -812 -868 -840 -344 -216 0
-160 -220 -236 -364 -868 -808 -792 -664 0
-160 -220 -236 -620 -868 -808 -792 -408 0
-160 -220 -460 -364 -868 -808 -568 -664 0
-160 -220 -460 -844 -868 -808 -568 -184 0
-160 -220 -716 -620 -868 -808 -312 -408 0
-160 -220 -716 -844 -868 -808 -312 -184 0
-160 -412 -428 -364 -868 -616 -600 -664 0
-160 -412 -428 -812 -868 -616 -600 -216 0
-160 -412 -460 -364 -868 -616 -568 -664 0
-160 -412 -460 -844 -868 -616 -568 -184 0
-160 -412 -908 -812 -868 -616 -120 -216 0
-160 -412 -908 -844 -868 -616 -120 -184 0
-160 -668 -684 -620 -868 -360 -344 -408 0
-160 -668 -684 -812 -868 -360 -344 -216 0
-160 -668 -716 -620 -868 -360 -312 -408 0
-160 -668 -716 -844 -868 -360 -312 -184 0
-160 -668 -908 -812 -868 -360 -120 -216 0
-160 -668 -908 -844 -868 -360 -120 -184 0
-184 -188 -236 -364 -844 -840 -792 -664 0
-184 -188 -236 -620 -844 -840 -792 -408 0
-184 -188 -428 -812 -844 -840 -600 -216 0
-184 -188 -684 -812 -844 -840 -344 -216 0
-184 -244 -236 -364 -844 -784 -792 -664 0
-184 -244 -236 -620 -844 -784 -792 -408 0
-184 -244 -484 -364 -844 -784 -544 -664 0
-184 -436 -428 -812 -844 -592 -600 -216 0
-184 -436 -484 -364 -844 -592 -544 -664 0
-184 -436 -932 -812 -844 -592 -96 -216 0
-184 -692 -684 -620 -844 -336 -344 -408 0
-184 -692 -684 -812 -844 -336 -344 -216 0
-184 -692 -740 -620 -844 -336 -288 -408 0
-184 -692 -932 -812 -844 -336 -96 -216 0
-216 -220 -236 -364 -812 -808 -792 -664 0
-216 -220 -236 -620 -812 -808 -792 -408 0
-216 -220 -460 -364 -812 -808 -568 -664 0
-216 -220 -460 -844 -812 -808 -568 -184 0
-216 -220 -716 -620 -812 -808 -312 -408 0
-216 -220 -716 -844 -812 -808 -312 -184 0
-216 -244 -236 -364 -812 -784 -792 -664 0
-216 -244 -236 -620 -812 -784 -792 -408 0
-216 -244 -484 -364 -812 -784 -544 -664 0
-216 -244 -740 -620 -812 -784 -288 -408 0
-216 -468 -460 -364 -812 -560 -568 -664 0
-216 -468 -460 -844 -812 -560 -568 -184 0
-216 -468 -484 -364 -812 -560 -544 -664 0
-216 -468 -964 -844 -812 -560 -64 -184 0
-216 -724 -716 -620 -812 -304 -312 -408 0
-216 -724 -716 -844 -812 -304 -312 -184 0
-216 -724 -740 -620 -812 -304 -288 -408 0
-216 -724 -964 -844 -812 -304 -64 -184 0
-408 -412 -428 -364 -620 -616 -600 -664 0
-408 -412 -428 -812 -620 -616 -600 -216 0
-408 -412 -460 -364 -620 -616 -568 -664 0
-408 -412 -460 -844 -620 -616 -568 -184 0
-408 -412 -908 -812 -620 -616 -120 -216 0
-408 -412 -908 -844 -620 -616 -120 -184 0
-408 -436 -428 -812 -620 -592 -600 -216 0
-408 -436 -484 -364 -620 -592 -544 -664 0
-408 -436 -932 -812 -620 -592 -96 -216 0
-408 -468 -460 -364 -620 -560 -568 -664 0
-408 -468 -460 -844 -620 -560 -568 -184 0
-408 -468 -484 -364 -620 -560 -544 -664 0
-408 -468 -964 -844 -620 -560 -64 -184 0
-408 -916 -908 -844 -620 -112 -120 -184 0
-408 -916 -932 -812 -620 -112 -96 -216 0
-408 -916 -964 -844 -620 -112 -64 -184 0
-664 -668 -684 -620 -364 -360 -344 -408 0
-664 -668 -684 -812 -364 -360 -344 -216 0
-664 -668 -716 -620 -364 -360 -312 -408 0
-664 -668 -716 -844 -364 -360 -312 -184 0
-664 -668 -908 -844 -364 -360 -120 -184 0
-664 -692 -684 -620 -364 -336 -344 -408 0
-664 -692 -684 -812 -364 -336 -344 -216 0
-664 -692 -740 -620 -364 -336 -288 -408 0
-664 -692 -932 -812 -364 -336 -96 -216 0
-664 -724 -716 -620 -364 -304 -312 -408 0
-664 -724 -716 -844 -364 -304 -312 -184 0
-664 -724 -740 -620 -364 -304 -288 -408 0
-664 -724 -964 -844 -364 -304 -64 -184 0
-664 -916 -908 -812 -364 -112 -120 -216 0
-664 -916 -908 -844 -364 -112 -120 -184 0
-664 -916 -932 -812 -364 -112 -96 -216 0
-664 -916 -964 -844 -364 -112 -64 -184 0
-288 -316 -364 -236 -740 -712 -664 -792 0
-288 -316 -364 -620 -740 -712 -664 -408 0
-288 -316 -428 -236 -740 -712 -600 -792 0
-288 -316 -428 -684 -740 -712 -600 -344 0
-288 -316 -812 -684 -740 -712 -216 -344 0
-288 -348 -364 -236 -740 -680 -664 -792 0
-288 -348 -364 -620 -740 -680 -664 -408 0
-288 -348 -460 -236 -740 -680 -568 -792 0
-288 -348 -460 -716 -740 -680 -568 -312 0
-288 -348 -844 -620 -740 -680 -184 -408 0
-288 -348 -844 -716 -740 -680 -184 -312 0
-288 -412 -428 -236 -740 -616 -600 -792 0
-288 -412 -428 -684 -740 -616 -600 -344 0
-288 -412 -460 -236 -740 -616 -568 -792 0
-288 -412 -460 -716 -740 -616 -568 -312 0
-288 -412 -908 -684 -740 -616 -120 -344 0
-288 -412 -908 -716 -740 -616 -120 -312 0
-288 -796 -812 -684 -740 -232 -216 -344 0
-288 -796 -844 -620 -740 -232 -184 -408 0
-288 -796 -844 -716 -740 -232 -184 -312 0
-288 -796 -908 -684 -740 -232 -120 -344 0
-312 -316 -364 -236 -716 -712 -664 -792 0
-312 -316 -364 -620 -716 -712 -664 -408 0
-312 -316 -428 -236 -716 -712 -600 -792 0
-312 -316 -428 -684 -716 -712 -600 -344 0
-312 -316 -812 -620 -716 -712 -216 -408 0
-312 -316 -812 -684 -716 -712 -216 -344 0
-312 -372 -364 -236 -716 -656 -664 -792 0
-312 -372 -364 -620 -716 -656 -664 -408 0
-312 -372 -484 -236 -716 -656 -544 -792 0
-312 -372 -868 -620 -716 -656 -160 -408 0
-312 -436 -428 -684 -716 -592 -600 -344 0
-312 -436 -484 -236 -716 -592 -544 -792 0
-312 -436 -932 -684 -716 -592 -96 -344 0
-312 -820 -812 -620 -716 -208 -216 -408 0
-312 -820 -812 -684 -716 -208 -216 -344 0
-312 -820 -868 -620 -716 -208 -160 -408 0
-312 -820 -932 -684 -716 -208 -96 -344 0
-344 -348 -364 -236 -684 -680 -664 -792 0
-344 -348 -364 -620 -684 -680 -664 -408 0
-344 -348 -460 -236 -684 -680 -568 -792 0
-344 -348 -460 -716 -684 -680 -568 -312 0
-344 -348 -844 -716 -684 -680 -184 -312 0
-344 -372 -364 -236 -684 -656 -664 -792 0
-344 -372 -364 -620 -684 -656 -664 -408 0
-344 -372 -484 -236 -684 -656 -544 -792 0
-344 -372 -868 -620 -684 -656 -160 -408 0
-344 -468 -460 -716 -684 -560 -568 -312 0
-344 -468 -484 -236 -684 -560 -544 -792 0
-344 -468 -964 -716 -684 -560 -64 -312 0
-344 -852 -844 -716 -684 -176 -184 -312 0
-344 -852 -868 -620 -684 -176 -160 -408 0
-344 -852 -964 -716 -684 -176 -64 -312 0
-408 -412 -428 -236 -620 -616 -600 -792 0
-408 -412 -428 -684 -620 -616 -600 -344 0
-408 -412 -460 -236 -620 -616 -568 -792 0
-408 -412 -460 -716 -620 -616 -568 -312 0
-408 -412 -908 -684 -620 -616 -120 -344 0
-408 -412 -908 -716 -620 -616 -120 -312 0
-408 -436 -428 -236 -620 -592 -600 -792 0
-408 -436 -428 -684 -620 -592 -600 -344 0
-408 -436 -484 -236 -620 -592 -544 -792 0
-408 -436 -932 -684 -620 -592 -96 -344 0
-408 -468 -460 -236 -620 -560 -568 -792 0
-408 -468 -460 -716 -620 -560 -568 -312 0
-408 -468 -484 -236 -620 -560 -544 -792 0
-408 -468 -964 -716 -620 -560 -64 -312 0
-408 -916 -908 -684 -620 -112 -120 -344 0
-408 -916 -908 -716 -620 -112 -120 -312 0
-408 -916 -932 -684 -620 -112 -96 -344 0
-408 -916 -964 -716 -620 -112 -64 -312 0
-792 -796 -812 -620 -236 -232 -216 -408 0
-792 -796 -812 -684 -236 -232 -216 -344 0
-792 -796 -844 -620 -236 -232 -184 -408 0
-792 -796 -844 -716 -236 -232 -184 -312 0
-792 -796 -908 -716 -236 -232 -120 -312 0
-792 -820 -812 -620 -236 -208 -216 -408 0
-792 -820 -812 -684 -236 -208 -216 -344 0
-792 -820 -868 -620 -236 -208 -160 -408 0
-792 -820 -932 -684 -236 -208 -96 -344 0
-792 -852 -844 -620 -236 -176 -184 -408 0
-792 -852 -868 -620 -236 -176 -160 -408 0
-792 -852 -964 -716 -236 -176 -64 -312 0
-792 -916 -908 -684 -236 -112 -120 -344 0
-792 -916 -908 -716 -236 -112 -120 -312 0
-792 -916 -932 -684 -236 -112 -96 -344 0
-792 -916 -964 -716 -236 -112 -64 -312 0
-544 -572 -620 -364 -484 -456 -408 -664 0
-544 -572 -684 -428 -484 -456 -344 -600 0
-544 -572 -812 -364 -484 -456 -216 -664 0
-544 -572 -812 -428 -484 -456 -216 -600 0
-544 -604 -620 -236 -484 -424 -408 -792 0
-544 -604 -716 -236 -484 -424 -312 -792 0
-544 -604 -716 -460 -484 -424 -312 -568 0
-544 -604 -844 -364 -484 -424 -184 -664 0
-544 -604 -844 -460 -484 -424 -184 -568 0
-544 -668 -684 -236 -484 -360 -344 -792 0
-544 -668 -684 -428 -484 -360 -344 -600 0
-544 -668 -716 -236 -484 -360 -312 -792 0
-544 -668 -716 -460 -484 -360 -312 -568 0
-544 -668 -908 -428 -484 -360 -120 -600 0
-544 -668 -908 -460 -484 -360 -120 -568 0
-544 -796 -812 -364 -484 -232 -216 -664 0
-544 -796 -812 -428 -484 -232 -216 -600 0
-544 -796 -844 -364 -484 -232 -184 -664 0
-544 -796 -844 -460 -484 -232 -184 -568 0
-544 -796 -908 -460 -484 -232 -120 -568 0
-568 -572 -620 -236 -460 -456 -408 -792 0
-568 -572 -684 -236 -460 -456 -344 -792 0
-568 -572 -812 -428 -460 -456 -216 -600 0
-568 -628 -620 -236 -460 -400 -408 -792 0
-568 -628 -740 -236 -460 -400 -288 -792 0
-568 -628 -868 -364 -460 -400 -160 -664 0
-568 -692 -684 -236 -460 -336 -344 -792 0
-568 -692 -684 -428 -460 -336 -344 -600 0
-568 -692 -740 -236 -460 -336 -288 -792 0
-568 -692 -932 -428 -460 -336 -96 -600 0
-568 -820 -812 -364 -460 -208 -216 -664 0
-568 -820 -812 -428 -460 -208 -216 -600 0
-568 -820 -868 -364 -460 -208 -160 -664 0
-568 -820 -932 -428 -460 -208 -96 -600 0
-600 -604 -620 -236 -428 -424 -408 -792 0
-600 -604 -716 -236 -428 -424 -312 -792 0
-600 -604 -716 -460 -428 -424 -312 -568 0
-600 -604 -844 -460 -428 -424 -184 -568 0
-600 -628 -620 -236 -428 -400 -408 -792 0
-600 -628 -620 -364 -428 -400 -408 -664 0
-600 -628 -740 -236 -428 -400 -288 -792 0
-600 -628 -868 -364 -428 -400 -160 -664 0
-600 -724 -716 -460 -428 -304 -312 -568 0
-600 -724 -740 -236 -428 -304 -288 -792 0
-600 -724 -964 -460 -428 -304 -64 -568 0
-600 -852 -844 -460 -428 -176 -184 -568 0
-600 -852 -868 -364 -428 -176 -160 -664 0
-600 -852 -964 -460 -428 -176 -64 -568 0
-664 -668 -684 -236 -364 -360 -344 -792 0
-664 -668 -684 -428 -364 -360 -344 -600 0
-664 -668 -716 -236 -364 -360 -312 -792 0
-664 -668 -716 -460 -364 -360 -312 -568 0
-664 -668 -908 -428 -364 -360 -120 -600 0
-664 -692 -684 -236 -364 -336 -344 -792 0
-664 -692 -684 -428 -364 -336 -344 -600 0
-664 -692 -740 -236 -364 -336 -288 -792 0
-664 -692 -932 -428 -364 -336 -96 -600 0
-664 -724 -716 -236 -364 -304 -312 -792 0
-664 -724 -716 -460 -364 -304 -312 -568 0
-664 -724 -740 -236 -364 -304 -288 -792 0
-664 -724 -964 -460 -364 -304 -64 -568 0
-664 -916 -908 -428 -364 -112 -120 -600 0
-664 -916 -908 -460 -364 -112 -120 -568 0
-664 -916 -932 -428 -364 -112 -96 -600 0
-664 -916 -964 -460 -364 -112 -64 -568 0
-792 -796 -812 -364 -236 -232 -216 -664 0
-792 -796 -812 -428 -236 -232 -216 -600 0
-792 -796 -844 -460 -236 -232 -184 -568 0
-792 -796 -908 -428 -236 -232 -120 -600 0
-792 -796 -908 -460 -236 -232 -120 -568 0
-792 -820 -812 -364 -236 -208 -216 -664 0
-792 -820 -812 -428 -236 -208 -216 -600 0
-792 -820 -932 -428 -236 -208 -96 -600 0
-792 -852 -844 -364 -236 -176 -184 -664 0
-792 -852 -844 -460 -236 -176 -184 -568 0
-792 -852 -868 -364 -236 -176 -160 -664 0
-792 -852 -964 -460 -236 -176 -64 -568 0
-792 -916 -908 -428 -236 -112 -120 -600 0
-792 -916 -908 -460 -236 -112 -120 -568 0
-792 -916 -932 -428 -236 -112 -96 -600 0
-792 -916 -964 -460 -236 -112 -64 -568 0
-64 -124 -220 -468 -964 -904 -808 -560 0
-64 -124 -220 -724 -964 -904 -808 -304 0
-64 -124 -348 -468 -964 -904 -680 -560 0
-64 -124 -348 -852 -964 -904 -680 -176 0
-64 -124 -604 -724 -964 -904 -424 -304 0
-64 -124 -604 -852 -964 -904 -424 -176 0
-64 -188 -220 -468 -964 -840 -808 -560 0
-64 -188 -220 -724 -964 -840 -808 -304 0
-64 -188 -412 -468 -964 -840 -616 -560 0
-64 -188 -412 -916 -964 -840 -616 -112 0
-64 -188 -668 -724 -964 -840 -360 -304 0
-64 -188 -668 -916 -964 -840 -360 -112 0
-64 -316 -348 -468 -964 -712 -680 -560 0
-64 -316 -348 -852 -964 -712 -680 -176 0
-64 -316 -412 -468 -964 -712 -616 -560 0
-64 -316 -412 -916 -964 -712 -616 -112 0
-64 -316 -796 -852 -964 -712 -232 -176 0
-64 -316 -796 -916 -964 -712 -232 -112 0
-64 -572 -604 -724 -964 -456 -424 -304 0
-64 -572 -668 -724 -964 -456 -360 -304 0
-64 -572 -668 -916 -964 -456 -360 -112 0
-64 -572 -796 -916 -964 -456 -232 -112 0
-112 -124 -220 -468 -916 -904 -808 -560 0
-112 -124 -220 -724 -916 -904 -808 -304 0
-112 -124 -348 -468 -916 -904 -680 -560 0
-112 -124 -348 -852 -916 -904 -680 -176 0
-112 -124 -604 -724 -916 -904 -424 -304 0
-112 -124 -604 -852 -916 -904 -424 -176 0
-112 -236 -220 -468 -916 -792 -808 -560 0
-112 -236 -220 -724 -916 -792 -808 -304 0
-112 -236 -460 -468 -916 -792 -568 -560 0
-112 -364 -348 -468 -916 -664 -680 -560 0
-112 -364 -348 -852 -916 -664 -680 -176 0
-112 -364 -460 -468 -916 -664 -568 -560 0
-112 -364 -844 -852 -916 -664 -184 -176 0
-112 -620 -604 -724 -916 -408 -424 -304 0
-176 -188 -220 -468 -852 -840 -808 -560 0
-176 -188 -220 -724 -852 -840 -808 -304 0
-176 -188 -412 -468 -852 -840 -616 -560 0
-176 -188 -412 -916 -852 -840 -616 -112 0
-176 -188 -668 -724 -852 -840 -360 -304 0
-176 -188 -668 -916 -852 -840 -360 -112 0
-176 -236 -220 -468 -852 -792 -808 -560 0
-176 -236 -220 -724 -852 -792 -808 -304 0
-176 -236 -460 -468 -852 -792 -568 -560 0
-176 -236 -716 -724 -852 -792 -312 -304 0
-176 -428 -412 -468 -852 -600 -616 -560 0
-176 -428 -412 -916 -852 -600 -616 -112 0
-176 -428 -460 -468 -852 -600 -568 -560 0
-176 -428 -908 -916 -852 -600 -120 -112 0
-176 -684 -668 -724 -852 -344 -360 -304 0
-176 -684 -668 -916 -852 -344 -360 -112 0
-176 -684 -716 -724 -852 -344 -312 -304 0
-176 -684 -908 -916 -852 -344 -120 -112 0
-304 -316 -348 -468 -724 -712 -680 -560 0
-304 -316 -412 -468 -724 -712 -616 -560 0
-304 -316 -796 -852 -724 -712 -232 -176 0
-304 -316 -796 -916 -724 -712 -232 -112 0
-304 -364 -348 -468 -724 -664 -680 -560 0
-304 -364 -348 -852 -724 -664 -680 -176 0
-304 -364 -460 -468 -724 -664 -568 -560 0
-304 -364 -844 -852 -724 -664 -184 -176 0
-304 -428 -412 -468 -724 -600 -616 -560 0
-304 -428 -412 -916 -724 -600 -616 -112 0
-304 -428 -460 -468 -724 -600 -568 -560 0
-304 -428 -908 -916 -724 -600 -120 -112 0
-304 -812 -796 -852 -724 -216 -232 -176 0
-304 -812 -796 -916 -724 -216 -232 -112 0
-304 -812 -844 -852 -724 -216 -184 -176 0
-304 -812 -908 -916 -724 -216 -120 -112 0
-560 -572 -604 -724 -468 -456 -424 -304 0
-560 -572 -604 -852 -468 -456 -424 -176 0
-560 -572 -668 -724 -468 -456 -360 -304 0
-560 -572 -668 -916 -468 -456 -360 -112 0
-560 -572 -796 -852 -468 -456 -232 -176 0
-560 -572 -796 -916 -468 -456 -232 -112 0
-560 -620 -604 -724 -468 -408 -424 -304 0
-560 -620 -604 -852 -468 -408 -424 -176 0
-560 -620 -716 -724 -468 -408 -312 -304 0
-560 -620 -844 -852 -468 -408 -184 -176 0
-560 -684 -668 -724 -468 -344 -360 -304 0
-560 -684 -668 -916 -468 -344 -360 -112 0
-560 -684 -716 -724 -468 -344 -312 -304 0
-560 -684 -908 -916 -468 -344 -120 -112 0
-560 -812 -796 -852 -468 -216 -232 -176 0
-560 -812 -796 -916 -468 -216 -232 -112 0
-560 -812 -844 -852 -468 -216 -184 -176 0
-560 -812 -908 -916 -468 -216 -120 -112 0
-64 -124 -220 -460 -964 -904 -808 -568 0
-64 -124 -220 -716 -964 -904 -808 -312 0
-64 -124 -348 -460 -964 -904 -680 -568 0
-64 -124 -348 -844 -964 -904 -680 -184 0
-64 -124 -604 -716 -964 -904 -424 -312 0
-64 -124 -604 -844 -964 -904 -424 -184 0
-64 -188 -220 -460 -964 -840 -808 -568 0
-64 -188 -220 -716 -964 -840 -808 -312 0
-64 -188 -412 -460 -964 -840 -616 -568 0
-64 -188 -412 -908 -964 -840 -616 -120 0
-64 -188 -668 -716 -964 -840 -360 -312 0
-64 -188 -668 -908 -964 -840 -360 -120 0
-64 -316 -348 -460 -964 -712 -680 -568 0
-64 -316 -348 -844 -964 -712 -680 -184 0
-64 -316 -412 -460 -964 -712 -616 -568 0
-64 -316 -412 -908 -964 -712 -616 -120 0
-64 -316 -796 -844 -964 -712 -232 -184 0
-64 -316 -796 -908 -964 -712 -232 -120 0
-64 -572 -604 -716 -964 -456 -424 -312 0
-64 -572 -604 -844 -964 -456 -424 -184 0
-64 -572 -668 -716 -964 -456 -360 -312 0
-64 -572 -668 -908 -964 -456 -360 -120 0
-64 -572 -796 -844 -964 -456 -232 -184 0
-64 -572 -796 -908 -964 -456 -232 -120 0
-120 -124 -220 -460 -908 -904 -808 -568 0
-120 -124 -220 -716 -908 -904 -808 -312 0
-120 -124 -348 -460 -908 -904 -680 -568 0
-120 -124 -348 -844 -908 -904 -680 -184 0
-120 -124 -604 -716 -908 -904 -424 -312 0
-120 -124 -604 -844 -908 -904 -424 -184 0
-120 -244 -220 -460 -908 -784 -808 -568 0
-120 -244 -220 -716 -908 -784 -808 -312 0
-120 -244 -468 -460 -908 -784 -560 -568 0
-120 -244 -724 -716 -908 -784 -304 -312 0
-120 -372 -348 -460 -908 -656 -680 -568 0
-120 -372 -348 -844 -908 -656 -680 -184 0
-120 -372 -468 -460 -908 -656 -560 -568 0
-120 -372 -852 -844 -908 -656 -176 -184 0
-120 -628 -604 -716 -908 -400 -424 -312 0
-120 -628 -604 -844 -908 -400 -424 -184 0
-120 -628 -724 -716 -908 -400 -304 -312 0
-120 -628 -852 -844 -908 -400 -176 -184 0
-184 -188 -220 -460 -844 -840 -808 -568 0
-184 -188 -220 -716 -844 -840 -808 -312 0
-184 -188 -412 -460 -844 -840 -616 -568 0
-184 -188 -412 -908 -844 -840 -616 -120 0
-184 -188 -668 -716 -844 -840 -360 -312 0
-184 -188 -668 -908 -844 -840 -360 -120 0
-184 -244 -220 -460 -844 -784 -808 -568 0
-184 -244 -220 -716 -844 -784 -808 -312 0
-184 -244 -468 -460 -844 -784 -560 -568 0
-184 -244 -724 -716 -844 -784 -304 -312 0
-184 -436 -412 -460 -844 -592 -616 -568 0
-184 -436 -412 -908 -844 -592 -616 -120 0
-184 -436 -468 -460 -844 -592 -560 -568 0
-184 -436 -916 -908 -844 -592 -112 -120 0
-184 -692 -668 -716 -844 -336 -360 -312 0
-184 -692 -668 -908 -844 -336 -360 -120 0
-184 -692 -724 -716 -844 -336 -304 -312 0
-184 -692 -916 -908 -844 -336 -112 -120 0
-312 -316 -348 -460 -716 -712 -680 -568 0
-312 -316 -348 -844 -716 -712 -680 -184 0
-312 -316 -412 -460 -716 -712 -616 -568 0
-312 -316 -412 -908 -716 -712 -616 -120 0
-312 -316 -796 -844 -716 -712 -232 -184 0
-312 -316 -796 -908 -716 -712 -232 -120 0
-312 -372 -348 -460 -716 -656 -680 -568 0
-312 -372 -348 -844 -716 -656 -680 -184 0
-312 -372 -468 -460 -716 -656 -560 -568 0
-312 -372 -852 -844 -716 -656 -176 -184 0
-312 -436 -412 -460 -716 -592 -616 -568 0
-312 -436 -412 -908 -716 -592 -616 -120 0
-312 -436 -468 -460 -716 -592 -560 -568 0
-312 -436 -916 -908 -716 -592 -112 -120 0
-312 -820 -796 -844 -716 -208 -232 -184 0
-312 -820 -796 -908 -716 -208 -232 -120 0
-312 -820 -852 -844 -716 -208 -176 -184 0
-312 -820 -916 -908 -716 -208 -112 -120 0
-568 -572 -604 -716 -460 -456 -424 -312 0
-568 -572 -604 -844 -460 -456 -424 -184 0
-568 -572 -668 -716 -460 -456 -360 -312 0
-568 -572 -668 -908 -460 -456 -360 -120 0
-568 -572 -796 -844 -460 -456 -232 -184 0
-568 -572 -796 -908 -460 -456 -232 -120 0
-568 -628 -604 -716 -460 -400 -424 -312 0
-568 -628 -604 -844 -460 -400 -424 -184 0
-568 -628 -724 -716 -460 -400 -304 -312 0
-568 -628 -852 -844 -460 -400 -176 -184 0
-568 -692 -668 -716 -460 -336 -360 -312 0
-568 -692 -668 -908 -460 -336 -360 -120 0
-568 -692 -724 -716 -460 -336 -304 -312 0
-568 -692 -916 -908 -460 -336 -112 -120 0
-568 -820 -796 -844 -460 -208 -232 -184 0
-568 -820 -796 -908 -460 -208 -232 -120 0
-568 -820 -852 -844 -460 -208 -176 -184 0
-568 -820 -916 -908 -460 -208 -112 -120 0
-112 -124 -220 -412 -916 -904 -808 -616 0
-112 -124 -220 -668 -916 -904 -808 -360 0
-112 -124 -348 -412 -916 -904 -680 -616 0
-112 -124 -348 -796 -916 -904 -680 -232 0
-112 -124 -604 -668 -916 -904 -424 -360 0
-112 -124 -604 -796 -916 -904 -424 -232 0
-112 -236 -220 -668 -916 -792 -808 -360 0
-112 -236 -460 -412 -916 -792 -568 -616 0
-112 -236 -716 -668 -916 -792 -312 -360 0
-112 -364 -348 -412 -916 -664 -680 -616 0
-112 -364 -348 -796 -916 -664 -680 -232 0
-112 -364 -460 -412 -916 -664 -568 -616 0
-112 -364 -844 -796 -916 -664 -184 -232 0
-112 -620 -604 -668 -916 -408 -424 -360 0
-112 -620 -604 -796 -916 -408 -424 -232 0
-112 -620 -716 -668 -916 -408 -312 -360 0
-112 -620 -844 -796 -916 -408 -184 -232 0
-120 -124 -220 -412 -908 -904 -808 -616 0
-120 -124 -220 -668 -908 -904 -808 -360 0
-120 -124 -348 -412 -908 -904 -680 -616 0
-120 -124 -348 -796 -908 -904 -680 -232 0
-120 -124 -604 -668 -908 -904 -424 -360 0
-120 -124 -604 -796 -908 -904 -424 -232 0
-120 -244 -220 -412 -908 -784 -808 -616 0
-120 -244 -220 -668 -908 -784 -808 -360 0
-120 -244 -468 -412 -908 -784 -560 -616 0
-120 -244 -724 -668 -908 -784 -304 -360 0
-120 -372 -348 -412 -908 -656 -680 -616 0
-120 -372 -348 -796 -908 -656 -680 -232 0
-120 -372 -852 -796 -908 -656 -176 -232 0
-120 -628 -604 -668 -908 -400 -424 -360 0
-120 -628 -604 -796 -908 -400 -424 -232 0
-120 -628 -724 -668 -908 -400 -304 -360 0
-120 -628 -852 -796 -908 -400 -176 -232 0
-232 -236 -220 -412 -796 -792 -808 -616 0
-232 -236 -220 -668 -796 -792 -808 -360 0
-232 -236 -460 -412 -796 -792 -568 -616 0
-232 -236 -716 -668 -796 -792 -312 -360 0
-232 -244 -220 -412 -796 -784 -808 -616 0
-232 -244 -468 -412 -796 -784 -560 -616 0
-232 -244 -724 -668 -796 -784 -304 -360 0
-232 -484 -460 -412 -796 -544 -568 -616 0
-232 -484 -468 -412 -796 -544 -560 -616 0
-232 -740 -716 -668 -796 -288 -312 -360 0
-232 -740 -724 -668 -796 -288 -304 -360 0
-360 -364 -348 -412 -668 -664 -680 -616 0
-360 -364 -348 -796 -668 -664 -680 -232 0
-360 -364 -460 -412 -668 -664 -568 -616 0
-360 -364 -844 -796 -668 -664 -184 -232 0
-360 -372 -348 -412 -668 -656 -680 -616 0
-360 -372 -468 -412 -668 -656 -560 -616 0
-360 -372 -852 -796 -668 -656 -176 -232 0
-360 -484 -468 -412 -668 -544 -560 -616 0
-360 -868 -844 -796 -668 -160 -184 -232 0
-360 -868 -852 -796 -668 -160 -176 -232 0
-616 -620 -604 -668 -412 -408 -424 -360 0
-616 -620 -604 -796 -412 -408 -424 -232 0
-616 -620 -716 -668 -412 -408 -312 -360 0
-616 -620 -844 -796 -412 -408 -184 -232 0
-616 -628 -604 -668 -412 -400 -424 -360 0
-616 -628 -724 -668 -412 -400 -304 -360 0
-616 -628 -852 -796 -412 -400 -176 -232 0
-616 -740 -716 -668 -412 -288 -312 -360 0
-616 -740 -724 -668 -412 -288 -304 -360 0
-616 -868 -844 -796 -412 -160 -184 -232 0
-616 -868 -852 -796 -412 -160 -176 -232 0
-176 -188 -220 -604 -852 -840 -808 -424 0
-176 -188 -412 -348 -852 -840 -616 -680 0
-176 -188 -412 -796 -852 -840 -616 -232 0
-176 -188 -668 -604 -852 -840 -360 -424 0
-176 -188 -668 -796 -852 -840 -360 -232 0
-176 -236 -220 -348 -852 -792 -808 -680 0
-176 -236 -220 -604 -852 -792 -808 -424 0
-176 -236 -460 -348 -852 -792 -568 -680 0
-176 -236 -716 -604 -852 -792 -312 -424 0
-176 -428 -412 -348 -852 -600 -616 -680 0
-176 -428 -412 -796 -852 -600 -616 -232 0
-176 -428 -460 -348 -852 -600 -568 -680 0
-176 -428 -908 -796 -852 -600 -120 -232 0
-176 -684 -668 -604 -852 -344 -360 -424 0
-176 -684 -668 -796 -852 -344 -360 -232 0
-176 -684 -716 -604 -852 -344 -312 -424 0
-176 -684 -908 -796 -852 -344 -120 -232 0
-184 -188 -220 -348 -844 -840 -808 -680 0
-184 -188 -220 -604 -844 -840 -808 -424 0
-184 -188 -412 -348 -844 -840 -616 -680 0
-184 -188 -412 -796 -844 -840 -616 -232 0
-184 -188 -668 -604 -844 -840 -360 -424 0
-184 -244 -220 -348 -844 -784 -808 -680 0
-184 -244 -220 -604 -844 -784 -808 -424 0
-184 -244 -468 -348 -844 -784 -560 -680 0
-184 -244 -724 -604 -844 -784 -304 -424 0
-184 -436 -412 -348 -844 -592 -616 -680 0
-184 -436 -412 -796 -844 -592 -616 -232 0
-184 -436 -468 -348 -844 -592 -560 -680 0
-184 -436 -916 -796 -844 -592 -112 -232 0
-184 -692 -668 -796 -844 -336 -360 -232 0
-184 -692 -724 -604 -844 -336 -304 -424 0
-184 -692 -916 -796 -844 -336 -112 -232 0
-232 -236 -220 -348 -796 -792 -808 -680 0
-232 -236 -220 -604 -796 -792 -808 -424 0
-232 -236 -460 -348 -796 -792 -568 -680 0
-232 -236 -716 -604 -796 -792 -312 -424 0
-232 -244 -220 -348 -796 -784 -808 -680 0
-232 -244 -220 -604 -796 -784 -808 -424 0
-232 -244 -468 -348 -796 -784 -560 -680 0
-232 -244 -724 -604 -796 -784 -304 -424 0
-232 -484 -460 -348 -796 -544 -568 -680 0
-232 -484 -468 -348 -796 -544 -560 -680 0
-232 -740 -716 -604 -796 -288 -312 -424 0
-232 -740 -724 -604 -796 -288 -304 -424 0
-424 -428 -412 -348 -604 -600 -616 -680 0
-424 -428 -412 -796 -604 -600 -616 -232 0
-424 -428 -908 -796 -604 -600 -120 -232 0
-424 -436 -412 -348 -604 -592 -616 -680 0
-424 -436 -468 -348 -604 -592 -560 -680 0
-424 -484 -460 -348 -604 -544 -568 -680 0
-424 -484 -468 -348 -604 -544 -560 -680 0
-424 -932 -916 -796 -604 -96 -112 -232 0
-680 -684 -668 -604 -348 -344 -360 -424 0
-680 -684 -668 -796 -348 -344 -360 -232 0
-680 -684 -716 -604 -348 -344 -312 -424 0
-680 -684 -908 -796 -348 -344 -120 -232 0
-680 -692 -668 -604 -348 -336 -360 -424 0
-680 -692 -724 -604 -348 -336 -304 -424 0
-680 -692 -916 -796 -348 -336 -112 -232 0
-680 -740 -724 -604 -348 -288 -304 -424 0
-680 -932 -908 -796 -348 -96 -120 -232 0
-680 -932 -916 -796 -348 -96 -112 -232 0
-304 -316 -348 -220 -724 -712 -680 -808 0
-304 -316 -348 -604 -724 -712 -680 -424 0
-304 -316 -412 -220 -724 -712 -616 -808 0
-304 -316 -412 -668 -724 -712 -616 -360 0
-304 -316 -796 -604 -724 -712 -232 -424 0
-304 -316 -796 -668 -724 -712 -232 -360 0
-304 -364 -348 -220 -724 -664 -680 -808 0
-304 -364 -348 -604 -724 -664 -680 -424 0
-304 -364 -460 -220 -724 -664 -568 -808 0
-304 -364 -844 -604 -724 -664 -184 -424 0
-304 -428 -412 -220 -724 -600 -616 -808 0
-304 -428 -412 -668 -724 -600 -616 -360 0
-304 -428 -460 -220 -724 -600 -568 -808 0
-304 -428 -908 -668 -724 -600 -120 -360 0
-304 -812 -796 -604 -724 -216 -232 -424 0
-304 -812 -796 -668 -724 -216 -232 -360 0
-304 -812 -844 -604 -724 -216 -184 -424 0
-304 -812 -908 -668 -724 -216 -120 -360 0
-312 -316 -348 -220 -716 -712 -680 -808 0
-312 -316 -348 -604 -716 -712 -680 -424 0
-312 -316 -412 -220 -716 -712 -616 -808 0
-312 -316 -412 -668 -716 -712 -616 -360 0
-312 -316 -796 -668 -716 -712 -232 -360 0
-312 -372 -348 -220 -716 -656 -680 -808 0
-312 -372 -348 -604 -716 -656 -680 -424 0
-312 -372 -468 -220 -716 -656 -560 -808 0
-312 -372 -852 -604 -716 -656 -176 -424 0
-312 -436 -412 -220 -716 -592 -616 -808 0
-312 -436 -916 -668 -716 -592 -112 -360 0
-312 -820 -796 -604 -716 -208 -232 -424 0
-312 -820 -796 -668 -716 -208 -232 -360 0
-312 -820 -852 -604 -716 -208 -176 -424 0
-312 -820 -916 -668 -716 -208 -112 -360 0
-360 -364 -348 -220 -668 -664 -680 -808 0
-360 -364 -348 -604 -668 -664 -680 -424 0
-360 -364 -460 -220 -668 -664 -568 -808 0
-360 -364 -844 -604 -668 -664 -184 -424 0
-360 -372 -348 -220 -668 -656 -680 -808 0
-360 -372 -348 -604 -668 -656 -680 -424 0
-360 -372 -468 -220 -668 -656 -560 -808 0
-360 -372 -852 -604 -668 -656 -176 -424 0
-360 -484 -460 -220 -668 -544 -568 -808 0
-360 -868 -844 -604 -668 -160 -184 -424 0
-360 -868 -852 -604 -668 -160 -176 -424 0
-424 -428 -412 -220 -604 -600 -616 -808 0
-424 -428 -412 -668 -604 -600 -616 -360 0
-424 -428 -460 -220 -604 -600 -568 -808 0
-424 -428 -908 -668 -604 -600 -120 -360 0
-424 -436 -412 -220 -604 -592 -616 -808 0
-424 -436 -412 -668 -604 -592 -616 -360 0
-424 -436 -468 -220 -604 -592 -560 -808 0
-424 -436 -916 -668 -604 -592 -112 -360 0
-424 -484 -460 -220 -604 -544 -568 -808 0
-424 -484 -468 -220 -604 -544 -560 -808 0
-424 -932 -908 -668 -604 -96 -120 -360 0
-424 -932 -916 -668 -604 -96 -112 -360 0
-808 -812 -796 -604 -220 -216 -232 -424 0
-808 -812 -796 -668 -220 -216 -232 -360 0
-808 -812 -844 -604 -220 -216 -184 -424 0
-808 -820 -796 -604 -220 -208 -232 -424 0
-808 -820 -796 -668 -220 -208 -232 -360 0
-808 -820 -852 -604 -220 -208 -176 -424 0
-808 -820 -916 -668 -220 -208 -112 -360 0
-808 -868 -844 -604 -220 -160 -184 -424 0
-808 -868 -852 -604 -220 -160 -176 -424 0
-808 -932 -908 -668 -220 -96 -120 -360 0
-808 -932 -916 -668 -220 -96 -112 -360 0
-560 -572 -604 -220 -468 -456 -424 -808 0
-560 -572 -604 -348 -468 -456 -424 -680 0
-560 -572 -668 -220 -468 -456 -360 -808 0
-560 -572 -668 -412 -468 -456 -360 -616 0
-560 -572 -796 -348 -468 -456 -232 -680 0
-560 -572 -796 -412 -468 -456 -232 -616 0
-560 -620 -604 -220 -468 -408 -424 -808 0
-560 -620 -604 -348 -468 -408 -424 -680 0
-560 -620 -716 -220 -468 -408 -312 -808 0
-560 -620 -844 -348 -468 -408 -184 -680 0
-560 -684 -668 -220 -468 -344 -360 -808 0
-560 -684 -668 -412 -468 -344 -360 -616 0
-560 -684 -716 -220 -468 -344 -312 -808 0
-560 -812 -796 -348 -468 -216 -232 -680 0
-560 -812 -796 -412 -468 -216 -232 -616 0
-560 -812 -844 -348 -468 -216 -184 -680 0
-560 -812 -908 -412 -468 -216 -120 -616 0
-568 -572 -604 -220 -460 -456 -424 -808 0
-568 -572 -604 -348 -460 -456 -424 -680 0
-568 -572 -668 -220 -460 -456 -360 -808 0
-568 -572 -668 -412 -460 -456 -360 -616 0
-568 -572 -796 -348 -460 -456 -232 -680 0
-568 -572 -796 -412 -460 -456 -232 -616 0
-568 -628 -604 -220 -460 -400 -424 -808 0
-568 -628 -604 -348 -460 -400 -424 -680 0
-568 -628 -724 -220 -460 -400 -304 -808 0
-568 -628 -852 -348 -460 -400 -176 -680 0
-568 -692 -668 -220 -460 -336 -360 -808 0
-568 -692 -668 -412 -460 -336 -360 -616 0
-568 -692 -724 -220 -460 -336 -304 -808 0
-568 -692 -916 -412 -460 -336 -112 -616 0
-568 -820 -796 -348 -460 -208 -232 -680 0
-568 -820 -796 -412 -460 -208 -232 -616 0
-568 -820 -852 -348 -460 -208 -176 -680 0
-568 -820 -916 -412 -460 -208 -112 -616 0
-616 -620 -604 -220 -412 -408 -424 -808 0
-616 -620 -604 -348 -412 -408 -424 -680 0
-616 -620 -844 -348 -412 -408 -184 -680 0
-616 -628 -604 -220 -412 -400 -424 -808 0
-616 -628 -724 -220 -412 -400 -304 -808 0
-616 -628 -852 -348 -412 -400 -176 -680 0
-616 -740 -716 -220 -412 -288 -312 -808 0
-616 -740 -724 -220 -412 -288 -304 -808 0
-616 -868 -852 -348 -412 -160 -176 -680 0
-680 -684 -668 -220 -348 -344 -360 -808 0
-680 -684 -668 -412 -348 -344 -360 -616 0
-680 -684 -716 -220 -348 -344 -312 -808 0
-680 -684 -908 -412 -348 -344 -120 -616 0
-680 -692 -668 -220 -348 -336 -360 -808 0
-680 -692 -668 -412 -348 -336 -360 -616 0
-680 -692 -724 -220 -348 -336 -304 -808 0
-680 -692 -916 -412 -348 -336 -112 -616 0
-680 -740 -724 -220 -348 -288 -304 -808 0
-680 -932 -908 -412 -348 -96 -120 -616 0
-680 -932 -916 -412 -348 -96 -112 -616 0
-808 -812 -796 -412 -220 -216 -232 -616 0
-808 -812 -844 -348 -220 -216 -184 -680 0
-808 -812 -908 -412 -220 -216 -120 -616 0
-808 -820 -796 -348 -220 -208 -232 -680 0
-808 -820 -796 -412 -220 -208 -232 -616 0
-808 -820 -852 -348 -220 -208 -176 -680 0
-808 -820 -916 -412 -220 -208 -112 -616 0
-808 -868 -852 -348 -220 -160 -176 -680 0
-808 -932 -908 -412 -220 -96 -120 -616 0
-808 -932 -916 -412 -220 -96 -112 -616 0
-96 -124 -188 -436 -932 -904 -840 -592 0
-96 -124 -188 -692 -932 -904 -840 -336 0
-96 -124 -316 -436 -932 -904 -712 -592 0
-96 -124 -316 -820 -932 -904 -712 -208 0
-96 -124 -572 -692 -932 -904 -456 -336 0
-96 -124 -572 -820 -932 -904 -456 -208 0
-96 -220 -188 -436 -932 -808 -840 -592 0
-96 -220 -188 -692 -932 -808 -840 -336 0
-96 -220 -668 -692 -932 -808 -360 -336 0
-96 -348 -316 -436 -932 -680 -712 -592 0
-96 -348 -316 -820 -932 -680 -712 -208 0
-96 -348 -412 -436 -932 -680 -616 -592 0
-96 -348 -796 -820 -932 -680 -232 -208 0
-96 -604 -572 -820 -932 -424 -456 -208 0
-96 -604 -668 -692 -932 -424 -360 -336 0
-96 -604 -796 -820 -932 -424 -232 -208 0
-112 -124 -188 -436 -916 -904 -840 -592 0
-112 -124 -188 -692 -916 -904 -840 -336 0
-112 -124 -316 -436 -916 -904 -712 -592 0
-112 -124 -316 -820 -916 -904 -712 -208 0
-112 -124 -572 -692 -916 -904 -456 -336 0
-112 -124 -572 -820 -916 -904 -456 -208 0
-112 -236 -188 -436 -916 -792 -840 -592 0
-112 -236 -188 -692 -916 -792 -840 -336 0
-112 -236 -428 -436 -916 -792 -600 -592 0
-112 -236 -684 -692 -916 -792 -344 -336 0
-112 -364 -316 -436 -916 -664 -712 -592 0
-112 -364 -316 -820 -916 -664 -712 -208 0
-112 -364 -428 -436 -916 -664 -600 -592 0
-112 -620 -572 -692 -916 -408 -456 -336 0
-112 -620 -812 -820 -916 -408 -216 -208 0
-208 -220 -188 -436 -820 -808 -840 -592 0
-208 -220 -188 -692 -820 -808 -840 -336 0
-208 -220 -412 -436 -820 -808 -616 -592 0
-208 -220 -668 -692 -820 -808 -360 -336 0
-208 -236 -188 -436 -820 -792 -840 -592 0
-208 -236 -188 -692 -820 -792 -840 -336 0
-208 -236 -428 -436 -820 -792 -600 -592 0
-208 -236 -684 -692 -820 -792 -344 -336 0
-208 -460 -412 -436 -820 -568 -616 -592 0
-208 -460 -428 -436 -820 -568 -600 -592 0
-208 -716 -668 -692 -820 -312 -360 -336 0
-208 -716 -684 -692 -820 -312 -344 -336 0
-336 -348 -316 -436 -692 -680 -712 -592 0
-336 -348 -316 -820 -692 -680 -712 -208 0
-336 -348 -412 -436 -692 -680 -616 -592 0
-336 -348 -796 -820 -692 -680 -232 -208 0
-336 -364 -316 -436 -692 -664 -712 -592 0
-336 -364 -316 -820 -692 -664 -712 -208 0
-336 -364 -428 -436 -692 -664 -600 -592 0
-336 -364 -812 -820 -692 -664 -216 -208 0
-336 -460 -412 -436 -692 -568 -616 -592 0
-336 -460 -428 -436 -692 -568 -600 -592 0
-336 -844 -796 -820 -692 -184 -232 -208 0
-336 -844 -812 -820 -692 -184 -216 -208 0
-592 -604 -572 -692 -436 -424 -456 -336 0
-592 -604 -572 -820 -436 -424 -456 -208 0
-592 -604 -668 -692 -436 -424 -360 -336 0
-592 -604 -796 -820 -436 -424 -232 -208 0
-592 -620 -572 -692 -436 -408 -456 -336 0
-592 -620 -572 -820 -436 -408 -456 -208 0
-592 -620 -684 -692 -436 -408 -344 -336 0
-592 -620 -812 -820 -436 -408 -216 -208 0
-592 -716 -668 -692 -436 -312 -360 -336 0
-592 -716 -684 -692 -436 -312 -344 -336 0
-592 -844 -796 -820 -436 -184 -232 -208 0
-592 -844 -812 -820 -436 -184 -216 -208 0
-96 -124 -188 -428 -932 -904 -840 -600 0
-96 -124 -188 -684 -932 -904 -840 -344 0
-96 -124 -316 -428 -932 -904 -712 -600 0
-96 -124 -316 -812 -932 -904 -712 -216 0
-96 -124 -572 -684 -932 -904 -456 -344 0
-96 -124 -572 -812 -932 -904 -456 -216 0
-96 -220 -188 -428 -932 -808 -840 -600 0
-96 -220 -188 -684 -932 -808 -840 -344 0
-96 -220 -412 -428 -932 -808 -616 -600 0
-96 -220 -668 -684 -932 -808 -360 -344 0
-96 -348 -316 -428 -932 -680 -712 -600 0
-96 -348 -316 -812 -932 -680 -712 -216 0
-96 -348 -412 -428 -932 -680 -616 -600 0
-96 -348 -796 -812 -932 -680 -232 -216 0
-96 -604 -572 -684 -932 -424 -456 -344 0
-96 -604 -572 -812 -932 -424 -456 -216 0
-96 -604 -668 -684 -932 -424 -360 -344 0
-96 -604 -796 -812 -932 -424 -232 -216 0
-120 -124 -188 -428 -908 -904 -840 -600 0
-120 -124 -188 -684 -908 -904 -840 -344 0
-120 -124 -316 -428 -908 -904 -712 -600 0
-120 -124 -316 -812 -908 -904 -712 -216 0
-120 -124 -572 -684 -908 -904 -456 -344 0
-120 -124 -572 -812 -908 -904 -456 -216 0
-120 -244 -188 -428 -908 -784 -840 -600 0
-120 -244 -188 -684 -908 -784 -840 -344 0
-120 -244 -436 -428 -908 -784 -592 -600 0
-120 -244 -692 -684 -908 -784 -336 -344 0
-120 -372 -316 -428 -908 -656 -712 -600 0
-120 -372 -316 -812 -908 -656 -712 -216 0
-120 -372 -436 -428 -908 -656 -592 -600 0
-120 -372 -820 -812 -908 -656 -208 -216 0
-120 -628 -572 -684 -908 -400 -456 -344 0
-120 -628 -572 -812 -908 -400 -456 -216 0
-120 -628 -820 -812 -908 -400 -208 -216 0
-216 -220 -188 -428 -812 -808 -840 -600 0
-216 -220 -188 -684 -812 -808 -840 -344 0
-216 -220 -412 -428 -812 -808 -616 -600 0
-216 -220 -668 -684 -812 -808 -360 -344 0
-216 -244 -188 -428 -812 -784 -840 -600 0
-216 -244 -188 -684 -812 -784 -840 -344 0
-216 -244 -436 -428 -812 -784 -592 -600 0
-216 -468 -412 -428 -812 -560 -616 -600 0
-216 -468 -436 -428 -812 -560 -592 -600 0
-216 -724 -668 -684 -812 -304 -360 -344 0
-216 -724 -692 -684 -812 -304 -336 -344 0
-344 -348 -316 -428 -684 -680 -712 -600 0
-344 -348 -412 -428 -684 -680 -616 -600 0
-344 -348 -796 -812 -684 -680 -232 -216 0
-344 -372 -316 -428 -684 -656 -712 -600 0
-344 -372 -316 -812 -684 -656 -712 -216 0
-344 -372 -436 -428 -684 -656 -592 -600 0
-344 -372 -820 -812 -684 -656 -208 -216 0
-344 -468 -412 -428 -684 -560 -616 -600 0
-344 -468 -436 -428 -684 -560 -592 -600 0
-344 -852 -796 -812 -684 -176 -232 -216 0
-600 -604 -572 -812 -428 -424 -456 -216 0
-600 -604 -668 -684 -428 -424 -360 -344 0
-600 -628 -572 -684 -428 -400 -456 -344 0
-600 -628 -572 -812 -428 -400 -456 -216 0
-600 -628 -692 -684 -428 -400 -336 -344 0
-600 -628 -820 -812 -428 -400 -208 -216 0
-600 -724 -668 -684 -428 -304 -360 -344 0
-600 -724 -692 -684 -428 -304 -336 -344 0
-600 -852 -796 -812 -428 -176 -232 -216 0
-600 -852 -820 -812 -428 -176 -208 -216 0
-112 -124 -188 -412 -916 -904 -840 -616 0
-112 -124 -188 -668 -916 -904 -840 -360 0
-112 -124 -316 -412 -916 -904 -712 -616 0
-112 -124 -316 -796 -916 -904 -712 -232 0
-112 -124 -572 -668 -916 -904 -456 -360 0
-112 -124 -572 -796 -916 -904 -456 -232 0
-112 -236 -188 -412 -916 -792 -840 -616 0
-112 -236 -188 -668 -916 -792 -840 -360 0
-112 -236 -428 -412 -916 -792 -600 -616 0
-112 -236 -684 -668 -916 -792 -344 -360 0
-112 -364 -316 -412 -916 -664 -712 -616 0
-112 -364 -316 -796 -916 -664 -712 -232 0
-112 -364 -428 -412 -916 -664 -600 -616 0
-112 -364 -812 -796 -916 -664 -216 -232 0
-112 -620 -572 -668 -916 -408 -456 -360 0
-112 -620 -572 -796 -916 -408 -456 -232 0
-112 -620 -684 -668 -916 -408 -344 -360 0
-112 -620 -812 -796 -916 -408 -216 -232 0
-120 -124 -188 -412 -908 -904 -840 -616 0
-120 -124 -188 -668 -908 -904 -840 -360 0
-120 -124 -316 -412 -908 -904 -712 -616 0
-120 -124 -316 -796 -908 -904 -712 -232 0
-120 -124 -572 -668 -908 -904 -456 -360 0
-120 -124 -572 -796 -908 -904 -456 -232 0
-120 -244 -188 -412 -908 -784 -840 -616 0
-120 -244 -188 -668 -908 -784 -840 -360 0
-120 -244 -436 -412 -908 -784 -592 -616 0
-120 -244 -692 -668 -908 -784 -336 -360 0
-120 -372 -316 -412 -908 -656 -712 -616 0
-120 -372 -316 -796 -908 -656 -712 -232 0
-120 -372 -436 -412 -908 -656 -592 -616 0
-120 -372 -820 -796 -908 -656 -208 -232 0
-120 -628 -572 -668 -908 -400 -456 -360 0
-120 -628 -572 -796 -908 -400 -456 -232 0
-120 -628 -692 -668 -908 -400 -336 -360 0
-120 -628 -820 -796 -908 -400 -208 -232 0
-232 -236 -188 -412 -796 -792 -840 -616 0
-232 -236 -188 -668 -796 -792 -840 -360 0
-232 -236 -428 -412 -796 -792 -600 -616 0
-232 -236 -684 -668 -796 -792 -344 -360 0
-232 -244 -188 -412 -796 -784 -840 -616 0
-232 -244 -188 -668 -796 -784 -840 -360 0
-232 -244 -436 -412 -796 -784 -592 -616 0
-232 -244 -692 -668 -796 -784 -336 -360 0
-232 -484 -428 -412 -796 -544 -600 -616 0
-232 -740 -684 -668 -796 -288 -344 -360 0
-232 -740 -692 -668 -796 -288 -336 -360 0
-360 -364 -316 -412 -668 -664 -712 -616 0
-360 -364 -428 -412 -668 -664 -600 -616 0
-360 -364 -812 -796 -668 -664 -216 -232 0
-360 -372 -316 -412 -668 -656 -712 -616 0
-360 -372 -316 -796 -668 -656 -712 -232 0
-360 -372 -436 -412 -668 -656 -592 -616 0
-360 -372 -820 -796 -668 -656 -208 -232 0
-360 -484 -428 -412 -668 -544 -600 -616 0
-360 -868 -812 -796 -668 -160 -216 -232 0
-360 -868 -820 -796 -668 -160 -208 -232 0
-616 -620 -572 -668 -412 -408 -456 -360 0
-616 -620 -572 -796 -412 -408 -456 -232 0
-616 -620 -684 -668 -412 -408 -344 -360 0
-616 -628 -572 -668 -412 -400 -456 -360 0
-616 -628 -572 -796 -412 -400 -456 -232 0
-616 -628 -692 -668 -412 -400 -336 -360 0
-616 -628 -820 -796 -412 -400 -208 -232 0
-616 -740 -684 -668 -412 -288 -344 -360 0
-616 -868 -812 -796 -412 -160 -216 -232 0
-616 -868 -820 -796 -412 -160 -208 -232 0
-208 -220 -188 -316 -820 -808 -840 -712 0
-208 -220 -188 -572 -820 -808 -840 -456 0
-208 -220 -412 -316 -820 -808 -616 -712 0
-208 -220 -668 -572 -820 -808 -360 -456 0
-208 -236 -188 -316 -820 -792 -840 -712 0
-208 -236 -188 -572 -820 -792 -840 -456 0
-208 -236 -428 -316 -820 -792 -600 -712 0
-208 -236 -684 -572 -820 -792 -344 -456 0
-208 -460 -412 -316 -820 -568 -616 -712 0
-208 -460 -428 -316 -820 -568 -600 -712 0
-208 -716 -668 -572 -820 -312 -360 -456 0
-208 -716 -684 -572 -820 -312 -344 -456 0
-216 -220 -188 -316 -812 -808 -840 -712 0
-216 -220 -188 -572 -812 -808 -840 -456 0
-216 -220 -412 -316 -812 -808 -616 -712 0
-216 -220 -668 -572 -812 -808 -360 -456 0
-216 -244 -188 -316 -812 -784 -840 -712 0
-216 -244 -188 -572 -812 -784 -840 -456 0
-216 -244 -436 -316 -812 -784 -592 -712 0
-216 -244 -692 -572 -812 -784 -336 -456 0
-216 -468 -412 -316 -812 -560 -616 -712 0
-216 -468 -436 -316 -812 -560 -592 -712 0
-216 -724 -692 -572 -812 -304 -336 -456 0
-232 -236 -188 -316 -796 -792 -840 -712 0
-232 -236 -188 -572 -796 -792 -840 -456 0
-232 -236 -428 -316 -796 -792 -600 -712 0
-232 -244 -188 -316 -796 -784 -840 -712 0
-232 -244 -188 -572 -796 -784 -840 -456 0
-232 -244 -436 -316 -796 -784 -592 -712 0
-232 -244 -692 -572 -796 -784 -336 -456 0
-232 -484 -436 -316 -796 -544 -592 -712 0
-232 -740 -692 -572 -796 -288 -336 -456 0
-456 -460 -412 -316 -572 -568 -616 -712 0
-456 -460 -428 -316 -572 -568 -600 -712 0
-456 -468 -412 -316 -572 -560 -616 -712 0
-456 -468 -436 -316 -572 -560 -592 -712 0
-456 -484 -428 -316 -572 -544 -600 -712 0
-456 -484 -436 -316 -572 -544 -592 -712 0
-712 -716 -668 -572 -316 -312 -360 -456 0
-712 -716 -684 -572 -316 -312 -344 -456 0
-712 -724 -668 -572 -316 -304 -360 -456 0
-712 -724 -692 -572 -316 -304 -336 -456 0
-712 -740 -684 -572 -316 -288 -344 -456 0
-712 -740 -692 -572 -316 -288 -336 -456 0
-336 -348 -316 -188 -692 -680 -712 -840 0
-336 -348 -316 -572 -692 -680 -712 -456 0
-336 -348 -796 -572 -692 -680 -232 -456 0
-336 -364 -316 -188 -692 -664 -712 -840 0
-336 -364 -316 -572 -692 -664 -712 -456 0
-336 -364 -428 -188 -692 -664 -600 -840 0
-336 -364 -812 -572 -692 -664 -216 -456 0
-336 -460 -412 -188 -692 -568 -616 -840 0
-336 -460 -428 -188 -692 -568 -600 -840 0
-336 -844 -796 -572 -692 -184 -232 -456 0
-336 -844 -812 -572 -692 -184 -216 -456 0
-344 -348 -316 -188 -684 -680 -712 -840 0
-344 -348 -316 -572 -684 -680 -712 -456 0
-344 -372 -316 -188 -684 -656 -712 -840 0
-344 -372 -316 -572 -684 -656 -712 -456 0
-344 -372 -436 -188 -684 -656 -592 -840 0
-344 -372 -820 -572 -684 -656 -208 -456 0
-344 -468 -412 -188 -684 -560 -616 -840 0
-344 -468 -436 -188 -684 -560 -592 -840 0
-360 -364 -316 -188 -668 -664 -712 -840 0
-360 -364 -316 -572 -668 -664 -712 -456 0
-360 -364 -428 -188 -668 -664 -600 -840 0
-360 -372 -316 -188 -668 -656 -712 -840 0
-360 -372 -316 -572 -668 -656 -712 -456 0
-360 -372 -436 -188 -668 -656 -592 -840 0
-360 -372 -820 -572 -668 -656 -208 -456 0
-360 -484 -428 -188 -668 -544 -600 -840 0
-360 -484 -436 -188 -668 -544 -592 -840 0
-456 -460 -412 -188 -572 -568 -616 -840 0
-456 -460 -428 -188 -572 -568 -600 -840 0
-456 -468 -412 -188 -572 -560 -616 -840 0
-456 -468 -436 -188 -572 -560 -592 -840 0
-456 -484 -436 -188 -572 -544 -592 -840 0
-840 -844 -796 -572 -188 -184 -232 -456 0
-840 -844 -812 -572 -188 -184 -216 -456 0
-840 -852 -796 -572 -188 -176 -232 -456 0
-840 -852 -820 -572 -188 -176 -208 -456 0
-840 -868 -812 -572 -188 -160 -216 -456 0
-840 -868 -820 -572 -188 -160 -208 -456 0
-592 -604 -572 -188 -436 -424 -456 -840 0
-592 -604 -572 -316 -436 -424 -456 -712 0
-592 -604 -668 -188 -436 -424 -360 -840 0
-592 -620 -572 -188 -436 -408 -456 -840 0
-592 -620 -572 -316 -436 -408 -456 -712 0
-592 -620 -812 -316 -436 -408 -216 -712 0
-592 -716 -668 -188 -436 -312 -360 -840 0
-592 -716 -684 -188 -436 -312 -344 -840 0
-592 -844 -796 -316 -436 -184 -232 -712 0
-592 -844 -812 -316 -436 -184 -216 -712 0
-600 -604 -572 -316 -428 -424 -456 -712 0
-600 -628 -572 -188 -428 -400 -456 -840 0
-600 -628 -572 -316 -428 -400 -456 -712 0
-600 -628 -692 -188 -428 -400 -336 -840 0
-600 -628 -820 -316 -428 -400 -208 -712 0
-600 -724 -668 -188 -428 -304 -360 -840 0
-600 -852 -796 -316 -428 -176 -232 -712 0
-600 -852 -820 -316 -428 -176 -208 -712 0
-616 -620 -572 -188 -412 -408 -456 -840 0
-616 -620 -572 -316 -412 -408 -456 -712 0
-616 -620 -684 -188 -412 -408 -344 -840 0
-616 -620 -812 -316 -412 -408 -216 -712 0
-616 -628 -572 -188 -412 -400 -456 -840 0
-616 -628 -572 -316 -412 -400 -456 -712 0
-616 -628 -692 -188 -412 -400 -336 -840 0
-616 -628 -820 -316 -412 -400 -208 -712 0
-616 -740 -692 -188 -412 -288 -336 -840 0
-616 -868 -812 -316 -412 -160 -216 -712 0
-616 -868 -820 -316 -412 -160 -208 -712 0
-712 -716 -668 -188 -316 -312 -360 -840 0
-712 -716 -684 -188 -316 -312 -344 -840 0
-712 -724 -668 -188 -316 -304 -360 -840 0
-712 -724 -692 -188 -316 -304 -336 -840 0
-712 -740 -684 -188 -316 -288 -344 -840 0
-712 -740 -692 -188 -316 -288 -336 -840 0
-840 -844 -796 -316 -188 -184 -232 -712 0
-840 -844 -812 -316 -188 -184 -216 -712 0
-840 -852 -796 -316 -188 -176 -232 -712 0
-840 -852 -820 -316 -188 -176 -208 -712 0
-840 -868 -812 -316 -188 -160 -216 -712 0
-840 -868 -820 -316 -188 -160 -208 -712 0
-160 -188 -124 -372 -868 -840 -904 -656 0
-160 -188 -124 -628 -868 -840 -904 -400 0
-160 -188 -316 -372 -868 -840 -712 -656 0
-160 -188 -572 -628 -868 -840 -456 -400 0
-160 -220 -124 -372 -868 -808 -904 -656 0
-160 -220 -124 -628 -868 -808 -904 -400 0
-160 -220 -348 -372 -868 -808 -680 -656 0
-160 -220 -604 -628 -868 -808 -424 -400 0
-160 -412 -316 -372 -868 -616 -712 -656 0
-160 -412 -348 -372 -868 -616 -680 -656 0
-160 -668 -572 -628 -868 -360 -456 -400 0
-176 -188 -124 -372 -852 -840 -904 -656 0
-176 -188 -124 -628 -852 -840 -904 -400 0
-176 -188 -316 -372 -852 -840 -712 -656 0
-176 -188 -572 -628 -852 -840 -456 -400 0
-176 -236 -124 -372 -852 -792 -904 -656 0
-176 -236 -124 -628 -852 -792 -904 -400 0
-176 -236 -364 -372 -852 -792 -664 -656 0
-176 -236 -620 -628 -852 -792 -408 -400 0
-176 -428 -316 -372 -852 -600 -712 -656 0
-176 -684 -572 -628 -852 -344 -456 -400 0
-176 -684 -620 -628 -852 -344 -408 -400 0
-208 -220 -124 -372 -820 -808 -904 -656 0
-208 -220 -124 -628 -820 -808 -904 -400 0
-208 -220 -348 -372 -820 -808 -680 -656 0
-208 -220 -604 -628 -820 -808 -424 -400 0
-208 -236 -124 -372 -820 -792 -904 -656 0
-208 -236 -124 -628 -820 -792 -904 -400 0
-208 -236 -364 -372 -820 -792 -664 -656 0
-208 -236 -620 -628 -820 -792 -408 -400 0
-208 -460 -348 -372 -820 -568 -680 -656 0
-208 -460 -364 -372 -820 -568 -664 -656 0
-208 -716 -604 -628 -820 -312 -424 -400 0
-208 -716 -620 -628 -820 -312 -408 -400 0
-400 -412 -316 -372 -628 -616 -712 -656 0
-400 -412 -348 -372 -628 -616 -680 -656 0
-400 -428 -316 -372 -628 -600 -712 -656 0
-400 -428 -364 -372 -628 -600 -664 -656 0
-400 -460 -348 -372 -628 -568 -680 -656 0
-400 -460 -364 -372 -628 -568 -664 -656 0
-656 -668 -572 -628 -372 -360 -456 -400 0
-656 -668 -604 -628 -372 -360 -424 -400 0
-656 -684 -572 -628 -372 -344 -456 -400 0
-656 -684 -620 -628 -372 -344 -408 -400 0
-656 -716 -604 -628 -372 -312 -424 -400 0
-656 -716 -620 -628 -372 -312 -408 -400 0
-160 -188 -124 -620 -868 -840 -904 -408 0
-160 -188 -316 -364 -868 -840 -712 -664 0
-160 -188 -572 -620 -868 -840 -456 -408 0
-160 -220 -124 -364 -868 -808 -904 -664 0
-160 -220 -348 -364 -868 -808 -680 -664 0
-160 -220 -604 -620 -868 -808 -424 -408 0
-160 -412 -316 -364 -868 -616 -712 -664 0
-160 -412 -348 -364 -868 -616 -680 -664 0
-160 -668 -572 -620 -868 -360 -456 -408 0
-160 -668 -604 -620 -868 -360 -424 -408 0
-184 -188 -124 -364 -844 -840 -904 -664 0
-184 -188 -124 -620 -844 -840 -904 -408 0
-184 -188 -316 -364 -844 -840 -712 -664 0
-184 -188 -572 -620 -844 -840 -456 -408 0
-184 -244 -124 -364 -844 -784 -904 -664 0
-184 -244 -124 -620 -844 -784 -904 -408 0
-184 -244 -372 -364 -844 -784 -656 -664 0
-184 -244 -628 -620 -844 -784 -400 -408 0
-184 -436 -316 -364 -844 -592 -712 -664 0
-184 -692 -572 -620 -844 -336 -456 -408 0
-216 -220 -124 -364 -812 -808 -904 -664 0
-216 -220 -124 -620 -812 -808 -904 -408 0
-216 -220 -348 -364 -812 -808 -680 -664 0
-216 -220 -604 -620 -812 -808 -424 -408 0
-216 -244 -124 -620 -812 -784 -904 -408 0
-216 -244 -372 -364 -812 -784 -656 -664 0
-216 -244 -628 -620 -812 -784 -400 -408 0
-216 -468 -348 -364 -812 -560 -680 -664 0
-216 -724 -604 -620 -812 -304 -424 -408 0
-408 -412 -316 -364 -620 -616 -712 -664 0
-408 -412 -348 -364 -620 -616 -680 -664 0
-408 -436 -316 -364 -620 -592 -712 -664 0
-408 -436 -372 -364 -620 -592 -656 -664 0
-408 -468 -348 -364 -620 -560 -680 -664 0
-664 -668 -572 -620 -364 -360 -456 -408 0
-664 -692 -572 -620 -364 -336 -456 -408 0
-664 -692 -628 -620 -364 -336 -400 -408 0
-664 -724 -604 -620 -364 -304 -424 -408 0
-176 -188 -124 -604 -852 -840 -904 -424 0
-176 -188 -316 -348 -852 -840 -712 -680 0
-176 -188 -572 -604 -852 -840 -456 -424 0
-176 -236 -124 -348 -852 -792 -904 -680 0
-176 -236 -124 -604 -852 -792 -904 -424 0
-176 -236 -364 -348 -852 -792 -664 -680 0
-176 -236 -620 -604 -852 -792 -408 -424 0
-176 -428 -316 -348 -852 -600 -712 -680 0
-184 -188 -124 -604 -844 -840 -904 -424 0
-184 -188 -316 -348 -844 -840 -712 -680 0
-184 -188 -572 -604 -844 -840 -456 -424 0
-184 -244 -124 -348 -844 -784 -904 -680 0
-184 -244 -124 -604 -844 -784 -904 -424 0
-184 -244 -372 -348 -844 -784 -656 -680 0
-184 -244 -628 -604 -844 -784 -400 -424 0
-184 -436 -316 -348 -844 -592 -712 -680 0
-184 -436 -372 -348 -844 -592 -656 -680 0
-184 -692 -572 -604 -844 -336 -456 -424 0
-184 -692 -628 -604 -844 -336 -400 -424 0
-232 -236 -124 -348 -796 -792 -904 -680 0
-232 -236 -124 -604 -796 -792 -904 -424 0
-232 -236 -364 -348 -796 -792 -664 -680 0
-232 -236 -620 -604 -796 -792 -408 -424 0
-232 -244 -124 -348 -796 -784 -904 -680 0
-232 -244 -124 -604 -796 -784 -904 -424 0
-232 -244 -372 -348 -796 -784 -656 -680 0
-232 -244 -628 -604 -796 -784 -400 -424 0
-232 -484 -364 -348 -796 -544 -664 -680 0
-232 -484 -372 -348 -796 -544 -656 -680 0
-232 -740 -620 -604 -796 -288 -408 -424 0
-424 -428 -364 -348 -604 -600 -664 -680 0
-424 -436 -316 -348 -604 -592 -712 -680 0
-424 -436 -372 -348 -604 -592 -656 -680 0
-424 -484 -364 -348 -604 -544 -664 -680 0
-424 -484 -372 -348 -604 -544 -656 -680 0
-680 -684 -620 -604 -348 -344 -408 -424 0
-680 -692 -572 -604 -348 -336 -456 -424 0
-680 -692 -628 -604 -348 -336 -400 -424 0
-680 -740 -620 -604 -348 -288 -408 -424 0
-680 -740 -628 -604 -348 -288 -400 -424 0
-208 -220 -124 -316 -820 -808 -904 -712 0
-208 -220 -124 -572 -820 -808 -904 -456 0
-208 -220 -348 -316 -820 -808 -680 -712 0
-208 -220 -604 -572 -820 -808 -424 -456 0
-208 -236 -124 -316 -820 -792 -904 -712 0
-208 -236 -124 -572 -820 -792 -904 -456 0
-208 -236 -620 -572 -820 -792 -408 -456 0
-208 -460 -348 -316 -820 -568 -680 -712 0
-208 -460 -364 -316 -820 -568 -664 -712 0
-208 -716 -604 -572 -820 -312 -424 -456 0
-208 -716 -620 -572 -820 -312 -408 -456 0
-216 -220 -124 -316 -812 -808 -904 -712 0
-216 -220 -124 -572 -812 -808 -904 -456 0
-216 -220 -348 -316 -812 -808 -680 -712 0
-216 -220 -604 -572 -812 -808 -424 -456 0
-216 -244 -124 -316 -812 -784 -904 -712 0
-216 -244 -124 -572 -812 -784 -904 -456 0
-216 -244 -372 -316 -812 -784 -656 -712 0
-216 -244 -628 -572 -812 -784 -400 -456 0
-216 -468 -348 -316 -812 -560 -680 -712 0
-216 -468 -372 -316 -812 -560 -656 -712 0
-216 -724 -604 -572 -812 -304 -424 -456 0
-216 -724 -628 -572 -812 -304 -400 -456 0
-232 -236 -124 -316 -796 -792 -904 -712 0
-232 -236 -124 -572 -796 -792 -904 -456 0
-232 -236 -364 -316 -796 -792 -664 -712 0
-232 -236 -620 -572 -796 -792 -408 -456 0
-232 -244 -124 -316 -796 -784 -904 -712 0
-232 -244 -124 -572 -796 -784 -904 -456 0
-232 -244 -372 -316 -796 -784 -656 -712 0
-232 -244 -628 -572 -796 -784 -400 -456 0
-232 -484 -364 -316 -796 -544 -664 -712 0
-232 -484 -372 -316 -796 -544 -656 -712 0
-232 -740 -620 -572 -796 -288 -408 -456 0
-232 -740 -628 -572 -796 -288 -400 -456 0
-456 -460 -348 -316 -572 -568 -680 -712 0
-456 -460 -364 -316 -572 -568 -664 -712 0
-456 -468 -348 -316 -572 -560 -680 -712 0
-456 -468 -372 -316 -572 -560 -656 -712 0
-456 -484 -364 -316 -572 -544 -664 -712 0
-456 -484 -372 -316 -572 -544 -656 -712 0
-712 -716 -604 -572 -316 -312 -424 -456 0
-712 -716 -620 -572 -316 -312 -408 -456 0
-712 -724 -604 -572 -316 -304 -424 -456 0
-712 -724 -628 -572 -316 -304 -400 -456 0
-712 -740 -628 -572 -316 -288 -400 -456 0
-400 -412 -316 -124 -628 -616 -712 -904 0
-400 -412 -348 -124 -628 -616 -680 -904 0
-400 -428 -316 -124 -628 -600 -712 -904 0
-400 -428 -364 -124 -628 -600 -664 -904 0
-400 -460 -348 -124 -628 -568 -680 -904 0
-400 -460 -364 -124 -628 -568 -664 -904 0
-408 -412 -316 -124 -620 -616 -712 -904 0
-408 -436 -372 -124 -620 -592 -656 -904 0
-408 -468 -348 -124 -620 -560 -680 -904 0
-424 -428 -316 -124 -604 -600 -712 -904 0
-424 -436 -316 -124 -604 -592 -712 -904 0
-424 -436 -372 -124 -604 -592 -656 -904 0
-424 -484 -364 -124 -604 -544 -664 -904 0
-456 -460 -348 -124 -572 -568 -680 -904 0
-456 -460 -364 -124 -572 -568 -664 -904 0
-456 -468 -348 -124 -572 -560 -680 -904 0
-456 -468 -372 -124 -572 -560 -656 -904 0
-456 -484 -364 -124 -572 -544 -664 -904 0
-456 -484 -372 -124 -572 -544 -656 -904 0
-656 -668 -572 -124 -372 -360 -456 -904 0
-656 -668 -604 -124 -372 -360 -424 -904 0
-656 -684 -620 -124 -372 -344 -408 -904 0
-656 -716 -604 -124 -372 -312 -424 -904 0
-656 -716 -620 -124 -372 -312 -408 -904 0
-664 -668 -604 -124 -364 -360 -424 -904 0
-664 -692 -572 -124 -364 -336 -456 -904 0
-664 -692 -628 -124 -364 -336 -400 -904 0
-664 -724 -604 -124 -364 -304 -424 -904 0
-664 -724 -628 -124 -364 -304 -400 -904 0
-680 -684 -620 -124 -348 -344 -408 -904 0
-680 -692 -572 -124 -348 -336 -456 -904 0
-680 -692 -628 -124 -348 -336 -400 -904 0
-680 -740 -620 -124 -348 -288 -408 -904 0
-680 -740 -628 -124 -348 -288 -400 -904 0
-712 -716 -604 -124 -316 -312 -424 -904 0
-712 -716 -620 -124 -316 -312 -408 -904 0
-712 -724 -604 -124 -316 -304 -424 -904 0
-712 -724 -628 -124 -316 -304 -400 -904 0
-712 -740 -620 -124 -316 -288 -408 -904 0
-712 -740 -628 -124 -316 -288 -400 -904 0
-288 -316 -124 -244 -740 -712 -904 -784 0
-288 -316 -188 -244 -740 -712 -840 -784 0
-288 -348 -124 -244 -740 -680 -904 -784 0
-288 -348 -220 -244 -740 -680 -808 -784 0
-304 -316 -124 -244 -724 -712 -904 -784 0
-304 -316 -188 -244 -724 -712 -840 -784 0
-304 -364 -124 -244 -724 -664 -904 -784 0
-304 -364 -236 -244 -724 -664 -792 -784 0
-336 -348 -124 -244 -692 -680 -904 -784 0
-336 -348 -220 -244 -692 -680 -808 -784 0
-336 -364 -124 -244 -692 -664 -904 -784 0
-336 -364 -236 -244 -692 -664 -792 -784 0
-336 -460 -220 -244 -692 -568 -808 -784 0
-336 -460 -236 -244 -692 -568 -792 -784 0
-400 -412 -188 -244 -628 -616 -840 -784 0
-400 -412 -220 -244 -628 -616 -808 -784 0
-400 -428 -188 -244 -628 -600 -840 -784 0
-400 -428 -236 -244 -628 -600 -792 -784 0
-400 -460 -220 -244 -628 -568 -808 -784 0
-400 -460 -236 -244 -628 -568 -792 -784 0
-288 -316 -124 -236 -740 -712 -904 -792 0
-288 -316 -188 -236 -740 -712 -840 -792 0
-288 -348 -124 -236 -740 -680 -904 -792 0
-288 -348 -220 -236 -740 -680 -808 -792 0
-288 -412 -188 -236 -740 -616 -840 -792 0
-288 -412 -220 -236 -740 -616 -808 -792 0
-312 -316 -124 -236 -716 -712 -904 -792 0
-312 -316 -188 -236 -716 -712 -840 -792 0
-312 -372 -124 -236 -716 -656 -904 -792 0
-312 -372 -244 -236 -716 -656 -784 -792 0
-312 -436 -188 -236 -716 -592 -840 -792 0
-312 -436 -244 -236 -716 -592 -784 -792 0
-344 -348 -124 -236 -684 -680 -904 -792 0
-344 -348 -220 -236 -684 -680 -808 -792 0
-344 -372 -124 -236 -684 -656 -904 -792 0
-344 -372 -244 -236 -684 -656 -784 -792 0
-344 -468 -220 -236 -684 -560 -808 -792 0
-408 -412 -188 -236 -620 -616 -840 -792 0
-408 -412 -220 -236 -620 -616 -808 -792 0
-408 -436 -188 -236 -620 -592 -840 -792 0
-408 -436 -244 -236 -620 -592 -784 -792 0
-408 -468 -220 -236 -620 -560 -808 -792 0
-408 -468 -244 -236 -620 -560 -784 -792 0
-304 -316 -124 -220 -724 -712 -904 -808 0
-304 -316 -188 -220 -724 -712 -840 -808 0
-304 -364 -124 -220 -724 -664 -904 -808 0
-304 -364 -236 -220 -724 -664 -792 -808 0
-304 -428 -188 -220 -724 -600 -840 -808 0
-304 -428 -236 -220 -724 -600 -792 -808 0
-312 -316 -124 -220 -716 -712 -904 -808 0
-312 -316 -188 -220 -716 -712 -840 -808 0
-312 -372 -124 -220 -716 -656 -904 -808 0
-312 -372 -244 -220 -716 -656 -784 -808 0
-312 -436 -188 -220 -716 -592 -840 -808 0
-312 -436 -244 -220 -716 -592 -784 -808 0
-360 -364 -124 -220 -668 -664 -904 -808 0
-360 -364 -236 -220 -668 -664 -792 -808 0
-360 -372 -124 -220 -668 -656 -904 -808 0
-360 -372 -244 -220 -668 -656 -784 -808 0
-360 -484 -236 -220 -668 -544 -792 -808 0
-360 -484 -244 -220 -668 -544 -784 -808 0
-424 -428 -188 -220 -604 -600 -840 -808 0
-424 -428 -236 -220 -604 -600 -792 -808 0
-424 -436 -188 -220 -604 -592 -840 -808 0
-424 -436 -244 -220 -604 -592 -784 -808 0
-424 -484 -236 -220 -604 -544 -792 -808 0
-424 -484 -244 -220 -604 -544 -784 -808 0
-336 -348 -124 -188 -692 -680 -904 -840 0
-336 -348 -220 -188 -692 -680 -808 -840 0
-336 -364 -124 -188 -692 -664 -904 -840 0
-336 -364 -236 -188 -692 -664 -792 -840 0
-336 -460 -220 -188 -692 -568 -808 -840 0
-336 -460 -236 -188 -692 -568 -792 -840 0
-344 -348 -124 -188 -684 -680 -904 -840 0
-344 -348 -220 -188 -684 -680 -808 -840 0
-344 -372 -124 -188 -684 -656 -904 -840 0
-344 -372 -244 -188 -684 -656 -784 -840 0
-344 -468 -220 -188 -684 -560 -808 -840 0
-360 -364 -124 -188 -668 -664 -904 -840 0
-360 -364 -236 -188 -668 -664 -792 -840 0
-360 -372 -124 -188 -668 -656 -904 -840 0
-360 -372 -244 -188 -668 -656 -784 -840 0
-360 -484 -236 -188 -668 -544 -792 -840 0
-456 -460 -220 -188 -572 -568 -808 -840 0
-456 -460 -236 -188 -572 -568 -792 -840 0
-456 -468 -220 -188 -572 -560 -808 -840 0
-456 -468 -244 -188 -572 -560 -784 -840 0
-456 -484 -236 -188 -572 -544 -792 -840 0
-456 -484 -244 -188 -572 -544 -784 -840 0
-400 -412 -188 -124 -628 -616 -840 -904 0
-400 -412 -220 -124 -628 -616 -808 -904 0
-400 -428 -188 -124 -628 -600 -840 -904 0
-400 -428 -236 -124 -628 -600 -792 -904 0
-400 -460 -220 -124 -628 -568 -808 -904 0
-400 -460 -236 -124 -628 -568 -792 -904 0
-408 -412 -188 -124 -620 -616 -840 -904 0
-408 -436 -188 -124 -620 -592 -840 -904 0
-408 -436 -244 -124 -620 -592 -784 -904 0
-408 -468 -244 -124 -620 -560 -784 -904 0
-424 -428 -236 -124 -604 -600 -792 -904 0
-424 -436 -188 -124 -604 -592 -840 -904 0
-424 -436 -244 -124 -604 -592 -784 -904 0
-424 -484 -236 -124 -604 -544 -792 -904 0
-424 -484 -244 -124 -604 -544 -784 -904 0
-456 -460 -220 -124 -572 -568 -808 -904 0
-456 -460 -236 -124 -572 -568 -792 -904 0
-456 -468 -220 -124 -572 -560 -808 -904 0
-456 -468 -244 -124 -572 -560 -784 -904 0
-456 -484 -236 -124 -572 -544 -792 -904 0
-456 -484 -244 -124 -572 -544 -784 -904 0
