p cnf 16192 9729
-6 0
-10 0
-18 0
-34 0
-66 0
-130 0
-514 0
-2050 0
-15 0
-23 0
-39 0
-71 0
-135 0
-263 0
-519 0
-1031 0
-2055 0
-27 0
-43 0
-75 0
-139 0
-267 0
-523 0
-1035 0
-2059 0
-51 0
-83 0
-147 0
-275 0
-531 0
-1043 0
-2067 0
-99 0
-163 0
-291 0
-547 0
-1059 0
-2083 0
-195 0
-323 0
-387 0
-771 0
-1283 0
-2307 0
-1539 0
-2563 0
-3075 0
-32 0
-48 0
-80 0
-144 0
-272 0
-528 0
-1040 0
-2064 0
-56 0
-88 0
-152 0
-280 0
-536 0
-1048 0
-2072 0
-104 0
-168 0
-296 0
-552 0
-1064 0
-2088 0
-200 0
-328 0
-584 0
-1096 0
-2120 0
-392 0
-648 0
-1160 0
-776 0
-1288 0
-2312 0
-1544 0
-2568 0
-3080 0
-60 0
-92 0
-156 0
-284 0
-540 0
-1052 0
-2076 0
-108 0
-172 0
-300 0
-556 0
-1068 0
-2092 0
-204 0
-332 0
-588 0
-2124 0
-396 0
-652 0
-1164 0
-2188 0
-780 0
-1292 0
-2316 0
-1548 0
-2572 0
-3084 0
-116 0
-180 0
-308 0
-564 0
-1076 0
-2100 0
-212 0
-340 0
-596 0
-1108 0
-2132 0
-404 0
-660 0
-1172 0
-2196 0
-788 0
-1300 0
-2324 0
-1556 0
-2580 0
-3092 0
-228 0
-356 0
-612 0
-1124 0
-2148 0
-420 0
-676 0
-1188 0
-2212 0
-804 0
-1316 0
-2340 0
-1572 0
-2596 0
-3108 0
-452 0
-836 0
-3140 0
-900 0
-1796 0
-2820 0
-3588 0
-14 5 0
-326 70 262 6 -5 0
-582 70 518 6 -5 0
-2118 70 2054 6 -5 0
-646 134 518 6 -5 0
-1158 134 1030 6 -5 0
-2310 262 2054 6 -5 0
-2566 518 2054 6 -5 0
-3078 1030 2054 6 -5 0
-14 9 0
-202 74 138 10 -9 0
-330 74 266 10 -9 0
-586 74 522 10 -9 0
-2122 74 2058 10 -9 0
-394 138 266 10 -9 0
-1162 138 1034 10 -9 0
-2314 266 2058 10 -9 0
-2570 522 2058 10 -9 0
-22 17 0
-210 82 146 18 -17 0
-338 82 274 18 -17 0
-2130 82 2066 18 -17 0
-658 146 530 18 -17 0
-1170 146 1042 18 -17 0
-2322 274 2066 18 -17 0
-1554 530 1042 18 -17 0
-3090 1042 2066 18 -17 0
-38 33 0
-226 98 162 34 -33 0
-354 98 290 34 -33 0
-2146 98 2082 34 -33 0
-1186 162 1058 34 -33 0
-2338 290 2082 34 -33 0
-78 70 74 66 -65 0
-102 70 98 66 -65 0
-90 74 82 66 -65 0
-106 74 98 66 -65 0
-194 65 0
-142 134 138 130 -129 0
-150 134 146 130 -129 0
-154 138 146 130 -129 0
-170 138 162 130 -129 0
-178 146 162 130 -129 0
-194 129 0
-550 518 546 514 -513 0
-578 513 0
-2070 2054 2066 2050 -2049 0
-2086 2054 2082 2050 -2049 0
-2074 2058 2066 2050 -2049 0
-2090 2058 2082 2050 -2049 0
-2306 2049 0
-31 14 0
-14 78 0
-207 79 143 15 -14 0
-335 79 271 15 -14 0
-591 79 527 15 -14 0
-2127 79 2063 15 -14 0
-14 142 0
-399 143 271 15 -14 0
-655 143 527 15 -14 0
-1167 143 1039 15 -14 0
-14 270 0
-1295 271 1039 15 -14 0
-2319 271 2063 15 -14 0
-14 526 0
-1551 527 1039 15 -14 0
-2575 527 2063 15 -14 0
-14 1038 0
-3087 1039 2063 15 -14 0
-14 2062 0
-31 22 0
-22 86 0
-215 87 151 23 -22 0
-343 87 279 23 -22 0
-599 87 535 23 -22 0
-2135 87 2071 23 -22 0
-22 150 0
-407 151 279 23 -22 0
-663 151 535 23 -22 0
-1175 151 1047 23 -22 0
-1303 279 1047 23 -22 0
-2327 279 2071 23 -22 0
-1559 535 1047 23 -22 0
-2583 535 2071 23 -22 0
-22 1046 0
-3095 1047 2071 23 -22 0
-22 2070 0
-47 38 0
-38 102 0
-231 103 167 39 -38 0
-359 103 295 39 -38 0
-615 103 551 39 -38 0
-1127 103 1063 39 -38 0
-2151 103 2087 39 -38 0
-423 167 295 39 -38 0
-679 167 551 39 -38 0
-1191 167 1063 39 -38 0
-2215 167 2087 39 -38 0
-807 295 551 39 -38 0
-1319 295 1063 39 -38 0
-2343 295 2087 39 -38 0
-38 550 0
-1575 551 1063 39 -38 0
-2599 551 2087 39 -38 0
-38 1062 0
-3111 1063 2087 39 -38 0
-38 2086 0
-79 70 0
-95 79 87 71 -70 0
-111 79 103 71 -70 0
-207 79 199 71 -70 0
-335 79 327 71 -70 0
-1103 79 1095 71 -70 0
-87 70 0
-119 87 103 71 -70 0
-215 87 199 71 -70 0
-103 70 0
-231 103 199 71 -70 0
-359 103 327 71 -70 0
-199 70 0
-711 199 583 71 -70 0
-327 70 0
-583 70 0
-2119 70 0
-143 134 0
-159 143 151 135 -134 0
-175 143 167 135 -134 0
-207 143 199 135 -134 0
-655 143 647 135 -134 0
-151 134 0
-183 151 167 135 -134 0
-215 151 199 135 -134 0
-663 151 647 135 -134 0
-2199 151 2183 135 -134 0
-167 134 0
-231 167 199 135 -134 0
-423 167 391 135 -134 0
-679 167 647 135 -134 0
-199 134 0
-455 199 391 135 -134 0
-711 199 647 135 -134 0
-391 134 0
-903 391 647 135 -134 0
-1415 391 1159 135 -134 0
-647 134 0
-271 262 0
-303 271 295 263 -262 0
-335 271 327 263 -262 0
-399 271 391 263 -262 0
-1295 271 1287 263 -262 0
-279 262 0
-311 279 295 263 -262 0
-407 279 391 263 -262 0
-295 262 0
-359 295 327 263 -262 0
-423 295 391 263 -262 0
-327 262 0
-455 327 391 263 -262 0
-839 327 775 263 -262 0
-391 262 0
-903 391 775 263 -262 0
-1415 391 1287 263 -262 0
-775 262 0
-1799 775 1287 263 -262 0
-2823 775 2311 263 -262 0
-1287 262 0
-2311 262 0
-527 518 0
-559 527 551 519 -518 0
-655 527 647 519 -518 0
-783 527 775 519 -518 0
-1551 527 1543 519 -518 0
-2575 527 2567 519 -518 0
-535 518 0
-567 535 551 519 -518 0
-791 535 775 519 -518 0
-1559 535 1543 519 -518 0
-551 518 0
-1575 551 1543 519 -518 0
-583 518 0
-711 583 647 519 -518 0
-839 583 775 519 -518 0
-1607 583 1543 519 -518 0
-647 518 0
-1671 647 1543 519 -518 0
-775 518 0
-1799 775 1543 519 -518 0
-2823 775 2567 519 -518 0
-1543 518 0
-2567 518 0
-1039 1030 0
-1055 1039 1047 1031 -1030 0
-1071 1039 1063 1031 -1030 0
-3087 1039 3079 1031 -1030 0
-1047 1030 0
-3095 1047 3079 1031 -1030 0
-1063 1030 0
-1671 1159 1543 1031 -1030 0
-1287 1030 0
-3335 1287 3079 1031 -1030 0
-3591 1543 3079 1031 -1030 0
-3079 1030 0
-2063 2054 0
-2079 2063 2071 2055 -2054 0
-2095 2063 2087 2055 -2054 0
-2127 2063 2119 2055 -2054 0
-3087 2063 3079 2055 -2054 0
-2071 2054 0
-2103 2071 2087 2055 -2054 0
-2135 2071 2119 2055 -2054 0
-2087 2054 0
-2151 2087 2119 2055 -2054 0
-3111 2087 3079 2055 -2054 0
-2119 2054 0
-2631 2119 2567 2055 -2054 0
-2311 2054 0
-3335 2311 3079 2055 -2054 0
-2567 2054 0
-3591 2567 3079 2055 -2054 0
-3079 2054 0
-31 26 0
-26 90 0
-219 91 155 27 -26 0
-347 91 283 27 -26 0
-603 91 539 27 -26 0
-2139 91 2075 27 -26 0
-26 154 0
-411 155 283 27 -26 0
-667 155 539 27 -26 0
-1179 155 1051 27 -26 0
-1307 283 1051 27 -26 0
-2331 283 2075 27 -26 0
-26 538 0
-1563 539 1051 27 -26 0
-2587 539 2075 27 -26 0
-26 1050 0
-3099 1051 2075 27 -26 0
-26 2074 0
-47 42 0
-42 106 0
-235 107 171 43 -42 0
-363 107 299 43 -42 0
-619 107 555 43 -42 0
-2155 107 2091 43 -42 0
-42 170 0
-427 171 299 43 -42 0
-683 171 555 43 -42 0
-1195 171 1067 43 -42 0
-1323 299 1067 43 -42 0
-42 554 0
-1579 555 1067 43 -42 0
-2603 555 2091 43 -42 0
-3115 1067 2091 43 -42 0
-42 2090 0
-79 74 0
-95 79 91 75 -74 0
-111 79 107 75 -74 0
-207 79 203 75 -74 0
-335 79 331 75 -74 0
-91 74 0
-123 91 107 75 -74 0
-219 91 203 75 -74 0
-347 91 331 75 -74 0
-107 74 0
-235 107 203 75 -74 0
-363 107 331 75 -74 0
-203 74 0
-715 203 587 75 -74 0
-331 74 0
-587 74 0
-1099 74 0
-2123 74 0
-143 138 0
-159 143 155 139 -138 0
-175 143 171 139 -138 0
-207 143 203 139 -138 0
-399 143 395 139 -138 0
-655 143 651 139 -138 0
-155 138 0
-187 155 171 139 -138 0
-219 155 203 139 -138 0
-411 155 395 139 -138 0
-667 155 651 139 -138 0
-2203 155 2187 139 -138 0
-171 138 0
-235 171 203 139 -138 0
-427 171 395 139 -138 0
-203 138 0
-459 203 395 139 -138 0
-715 203 651 139 -138 0
-395 138 0
-907 395 651 139 -138 0
-1419 395 1163 139 -138 0
-651 138 0
-271 266 0
-303 271 299 267 -266 0
-399 271 395 267 -266 0
-783 271 779 267 -266 0
-283 266 0
-299 266 0
-363 299 331 267 -266 0
-427 299 395 267 -266 0
-811 299 779 267 -266 0
-331 266 0
-843 331 779 267 -266 0
-395 266 0
-907 395 779 267 -266 0
-1419 395 1291 267 -266 0
-779 266 0
-2827 779 2315 267 -266 0
-1291 266 0
-3339 1291 2315 267 -266 0
-2315 266 0
-527 522 0
-543 527 539 523 -522 0
-559 527 555 523 -522 0
-783 527 779 523 -522 0
-2575 527 2571 523 -522 0
-539 522 0
-571 539 555 523 -522 0
-667 539 651 523 -522 0
-1563 539 1547 523 -522 0
-555 522 0
-1579 555 1547 523 -522 0
-587 522 0
-843 587 779 523 -522 0
-1611 587 1547 523 -522 0
-651 522 0
-907 651 779 523 -522 0
-1675 651 1547 523 -522 0
-779 522 0
-1803 779 1547 523 -522 0
-1547 522 0
-3595 1547 2571 523 -522 0
-2571 522 0
-1039 1034 0
-1055 1039 1051 1035 -1034 0
-1071 1039 1067 1035 -1034 0
-1295 1039 1291 1035 -1034 0
-3087 1039 3083 1035 -1034 0
-1051 1034 0
-1083 1051 1067 1035 -1034 0
-1179 1051 1163 1035 -1034 0
-1307 1051 1291 1035 -1034 0
-3099 1051 3083 1035 -1034 0
-1195 1067 1163 1035 -1034 0
-1579 1067 1547 1035 -1034 0
-3115 1067 3083 1035 -1034 0
-1163 1034 0
-1675 1163 1547 1035 -1034 0
-1291 1034 0
-1803 1291 1547 1035 -1034 0
-3339 1291 3083 1035 -1034 0
-1547 1034 0
-3595 1547 3083 1035 -1034 0
-3083 1034 0
-2063 2058 0
-2079 2063 2075 2059 -2058 0
-2095 2063 2091 2059 -2058 0
-2127 2063 2123 2059 -2058 0
-2191 2063 2187 2059 -2058 0
-2575 2063 2571 2059 -2058 0
-3087 2063 3083 2059 -2058 0
-2075 2058 0
-2107 2075 2091 2059 -2058 0
-3099 2075 3083 2059 -2058 0
-2091 2058 0
-2603 2091 2571 2059 -2058 0
-3115 2091 3083 2059 -2058 0
-2123 2058 0
-2315 2058 0
-2827 2315 2571 2059 -2058 0
-3339 2315 3083 2059 -2058 0
-2571 2058 0
-3595 2571 3083 2059 -2058 0
-3083 2058 0
-55 50 0
-50 114 0
-243 115 179 51 -50 0
-371 115 307 51 -50 0
-627 115 563 51 -50 0
-2163 115 2099 51 -50 0
-50 178 0
-691 179 563 51 -50 0
-1203 179 1075 51 -50 0
-819 307 563 51 -50 0
-1331 307 1075 51 -50 0
-2355 307 2099 51 -50 0
-2611 563 2099 51 -50 0
-50 1074 0
-3123 1075 2099 51 -50 0
-50 2098 0
-87 82 0
-95 87 91 83 -82 0
-119 87 115 83 -82 0
-91 82 0
-123 91 115 83 -82 0
-219 91 211 83 -82 0
-347 91 339 83 -82 0
-115 82 0
-243 115 211 83 -82 0
-371 115 339 83 -82 0
-211 82 0
-467 211 339 83 -82 0
-723 211 595 83 -82 0
-339 82 0
-851 339 595 83 -82 0
-595 82 0
-2131 82 0
-151 146 0
-159 151 155 147 -146 0
-183 151 179 147 -146 0
-215 151 211 147 -146 0
-2199 151 2195 147 -146 0
-155 146 0
-187 155 179 147 -146 0
-219 155 211 147 -146 0
-411 155 403 147 -146 0
-179 146 0
-243 179 211 147 -146 0
-435 179 403 147 -146 0
-691 179 659 147 -146 0
-211 146 0
-467 211 403 147 -146 0
-723 211 659 147 -146 0
-403 146 0
-1427 403 1171 147 -146 0
-659 146 0
-1683 659 1171 147 -146 0
-279 274 0
-287 279 283 275 -274 0
-311 279 307 275 -274 0
-407 279 403 275 -274 0
-283 274 0
-315 283 307 275 -274 0
-411 283 403 275 -274 0
-795 283 787 275 -274 0
-435 307 403 275 -274 0
-819 307 787 275 -274 0
-339 274 0
-467 339 403 275 -274 0
-851 339 787 275 -274 0
-403 274 0
-915 403 787 275 -274 0
-787 274 0
-1811 787 1299 275 -274 0
-2835 787 2323 275 -274 0
-1299 274 0
-535 530 0
-543 535 539 531 -530 0
-567 535 563 531 -530 0
-599 535 595 531 -530 0
-539 530 0
-571 539 563 531 -530 0
-2587 539 2579 531 -530 0
-563 530 0
-1587 563 1555 531 -530 0
-595 530 0
-851 595 787 531 -530 0
-659 530 0
-1683 659 1555 531 -530 0
-787 530 0
-1811 787 1555 531 -530 0
-2835 787 2579 531 -530 0
-1555 530 0
-2579 530 0
-1047 1042 0
-1055 1047 1051 1043 -1042 0
-3095 1047 3091 1043 -1042 0
-1051 1042 0
-1083 1051 1075 1043 -1042 0
-1563 1051 1555 1043 -1042 0
-3099 1051 3091 1043 -1042 0
-1075 1042 0
-3123 1075 3091 1043 -1042 0
-1171 1042 0
-1683 1171 1555 1043 -1042 0
-1299 1042 0
-3347 1299 3091 1043 -1042 0
-1555 1042 0
-3603 1555 3091 1043 -1042 0
-3091 1042 0
-2071 2066 0
-2079 2071 2075 2067 -2066 0
-2103 2071 2099 2067 -2066 0
-3095 2071 3091 2067 -2066 0
-2075 2066 0
-2107 2075 2099 2067 -2066 0
-2587 2075 2579 2067 -2066 0
-3099 2075 3091 2067 -2066 0
-2099 2066 0
-2611 2099 2579 2067 -2066 0
-3123 2099 3091 2067 -2066 0
-2131 2066 0
-2323 2066 0
-3347 2323 3091 2067 -2066 0
-2579 2066 0
-3091 2066 0
-103 98 0
-111 103 107 99 -98 0
-119 103 115 99 -98 0
-359 103 355 99 -98 0
-107 98 0
-123 107 115 99 -98 0
-235 107 227 99 -98 0
-363 107 355 99 -98 0
-115 98 0
-243 115 227 99 -98 0
-371 115 355 99 -98 0
-627 115 611 99 -98 0
-227 98 0
-483 227 355 99 -98 0
-739 227 611 99 -98 0
-355 98 0
-2147 98 0
-167 162 0
-175 167 171 163 -162 0
-183 167 179 163 -162 0
-231 167 227 163 -162 0
-171 162 0
-187 171 179 163 -162 0
-235 171 227 163 -162 0
-2219 171 2211 163 -162 0
-179 162 0
-243 179 227 163 -162 0
-691 179 675 163 -162 0
-227 162 0
-483 227 419 163 -162 0
-739 227 675 163 -162 0
-419 162 0
-931 419 675 163 -162 0
-1443 419 1187 163 -162 0
-675 162 0
-1699 675 1187 163 -162 0
-2723 675 2211 163 -162 0
-162 2210 0
-295 290 0
-311 295 307 291 -290 0
-423 295 419 291 -290 0
-1319 295 1315 291 -290 0
-299 290 0
-1323 299 1315 291 -290 0
-307 290 0
-435 307 419 291 -290 0
-355 290 0
-867 355 803 291 -290 0
-419 290 0
-931 419 803 291 -290 0
-803 290 0
-2851 803 2339 291 -290 0
-1315 290 0
-551 546 0
-567 551 563 547 -546 0
-1575 551 1571 547 -546 0
-571 555 563 547 -546 0
-811 555 803 547 -546 0
-1579 555 1571 547 -546 0
-691 563 675 547 -546 0
-819 563 803 547 -546 0
-1587 563 1571 547 -546 0
-611 546 0
-675 546 0
-1699 675 1571 547 -546 0
-1827 803 1571 547 -546 0
-2851 803 2595 547 -546 0
-1571 546 0
-2595 546 0
-1063 1058 0
-1071 1063 1067 1059 -1058 0
-1079 1063 1075 1059 -1058 0
-1319 1063 1315 1059 -1058 0
-1575 1063 1571 1059 -1058 0
-1067 1058 0
-1083 1067 1075 1059 -1058 0
-1323 1067 1315 1059 -1058 0
-3115 1067 3107 1059 -1058 0
-1075 1058 0
-1587 1075 1571 1059 -1058 0
-3123 1075 3107 1059 -1058 0
-1187 1058 0
-1827 1315 1571 1059 -1058 0
-3363 1315 3107 1059 -1058 0
-1571 1058 0
-3619 1571 3107 1059 -1058 0
-2087 2082 0
-2095 2087 2091 2083 -2082 0
-2103 2087 2099 2083 -2082 0
-2599 2087 2595 2083 -2082 0
-3111 2087 3107 2083 -2082 0
-2091 2082 0
-2107 2091 2099 2083 -2082 0
-3115 2091 3107 2083 -2082 0
-2099 2082 0
-3123 2099 3107 2083 -2082 0
-2147 2082 0
-2659 2147 2595 2083 -2082 0
-2339 2082 0
-3363 2339 3107 2083 -2082 0
-3619 2595 3107 2083 -2082 0
-3107 2082 0
-194 198 0
-207 199 203 195 -194 0
-215 199 211 195 -194 0
-231 199 227 195 -194 0
-194 202 0
-219 203 211 195 -194 0
-235 203 227 195 -194 0
-194 210 0
-243 211 227 195 -194 0
-194 226 0
-451 194 0
-322 326 0
-322 330 0
-363 331 355 323 -322 0
-322 338 0
-371 339 355 323 -322 0
-322 354 0
-451 322 0
-578 582 0
-578 586 0
-707 578 0
-2114 2118 0
-2114 2122 0
-2114 2130 0
-2114 2146 0
-399 391 395 387 -386 0
-407 391 403 387 -386 0
-423 391 419 387 -386 0
-386 394 0
-411 395 403 387 -386 0
-427 395 419 387 -386 0
-435 403 419 387 -386 0
-386 418 0
-451 386 0
-642 646 0
-642 658 0
-707 642 0
-1154 1158 0
-1154 1162 0
-1154 1170 0
-1154 1186 0
-1411 1154 0
-783 775 779 771 -770 0
-791 775 787 771 -770 0
-807 775 803 771 -770 0
-795 779 787 771 -770 0
-811 779 803 771 -770 0
-819 787 803 771 -770 0
-835 770 0
-1295 1287 1291 1283 -1282 0
-1319 1287 1315 1283 -1282 0
-1331 1299 1315 1283 -1282 0
-1411 1282 0
-2306 2310 0
-2319 2311 2315 2307 -2306 0
-2306 2314 0
-2306 2322 0
-2306 2338 0
-2819 2306 0
-1538 1542 0
-1551 1543 1547 1539 -1538 0
-1559 1543 1555 1539 -1538 0
-1575 1543 1571 1539 -1538 0
-1607 1543 1603 1539 -1538 0
-1538 1546 0
-1563 1547 1555 1539 -1538 0
-1579 1547 1571 1539 -1538 0
-1538 1554 0
-1587 1555 1571 1539 -1538 0
-1538 1570 0
-1667 1538 0
-2562 2566 0
-2583 2567 2579 2563 -2562 0
-2562 2570 0
-2819 2562 0
-3074 3078 0
-3087 3079 3083 3075 -3074 0
-3095 3079 3091 3075 -3074 0
-3111 3079 3107 3075 -3074 0
-3099 3083 3091 3075 -3074 0
-3115 3083 3107 3075 -3074 0
-3074 3090 0
-3123 3091 3107 3075 -3074 0
-3074 3106 0
-3331 3074 0
-64 31 0
-31 95 0
-224 96 160 32 -31 0
-352 96 288 32 -31 0
-608 96 544 32 -31 0
-1120 96 1056 32 -31 0
-2144 96 2080 32 -31 0
-31 159 0
-416 160 288 32 -31 0
-672 160 544 32 -31 0
-1184 160 1056 32 -31 0
-31 287 0
-800 288 544 32 -31 0
-1312 288 1056 32 -31 0
-2336 288 2080 32 -31 0
-31 543 0
-1568 544 1056 32 -31 0
-2592 544 2080 32 -31 0
-31 1055 0
-3104 1056 2080 32 -31 0
-31 2079 0
-64 47 0
-47 111 0
-240 112 176 48 -47 0
-368 112 304 48 -47 0
-624 112 560 48 -47 0
-1136 112 1072 48 -47 0
-2160 112 2096 48 -47 0
-47 175 0
-432 176 304 48 -47 0
-688 176 560 48 -47 0
-1200 176 1072 48 -47 0
-47 303 0
-816 304 560 48 -47 0
-1328 304 1072 48 -47 0
-2352 304 2096 48 -47 0
-47 559 0
-1584 560 1072 48 -47 0
-2608 560 2096 48 -47 0
-47 1071 0
-3120 1072 2096 48 -47 0
-47 2095 0
-96 79 0
-128 96 112 80 -79 0
-224 96 208 80 -79 0
-352 96 336 80 -79 0
-112 79 0
-240 112 208 80 -79 0
-368 112 336 80 -79 0
-1136 112 1104 80 -79 0
-2160 112 2128 80 -79 0
-79 207 0
-208 79 0
-463 207 335 79 -78 0
-464 208 336 80 -79 0
-719 207 591 79 -78 0
-720 208 592 80 -79 0
-1232 208 1104 80 -79 0
-2256 208 2128 80 -79 0
-79 335 0
-336 79 0
-79 591 0
-592 79 0
-79 1103 0
-1104 79 0
-3152 1104 2128 80 -79 0
-79 2127 0
-2128 79 0
-160 143 0
-192 160 176 144 -143 0
-224 160 208 144 -143 0
-416 160 400 144 -143 0
-176 143 0
-240 176 208 144 -143 0
-432 176 400 144 -143 0
-688 176 656 144 -143 0
-1200 176 1168 144 -143 0
-143 207 0
-208 143 0
-464 208 400 144 -143 0
-720 208 656 144 -143 0
-2256 208 2192 144 -143 0
-143 399 0
-400 143 0
-912 400 656 144 -143 0
-1424 400 1168 144 -143 0
-143 655 0
-656 143 0
-1168 143 0
-143 2191 0
-288 271 0
-320 288 304 272 -271 0
-352 288 336 272 -271 0
-416 288 400 272 -271 0
-800 288 784 272 -271 0
-304 271 0
-432 304 400 272 -271 0
-816 304 784 272 -271 0
-271 335 0
-336 271 0
-464 336 400 272 -271 0
-848 336 784 272 -271 0
-271 399 0
-400 271 0
-912 400 784 272 -271 0
-1424 400 1296 272 -271 0
-271 783 0
-784 271 0
-1808 784 1296 272 -271 0
-2832 784 2320 272 -271 0
-271 1295 0
-1296 271 0
-3343 1295 2319 271 -270 0
-271 2319 0
-2320 271 0
-544 527 0
-576 544 560 528 -527 0
-672 544 656 528 -527 0
-800 544 784 528 -527 0
-1568 544 1552 528 -527 0
-2592 544 2576 528 -527 0
-560 527 0
-624 560 592 528 -527 0
-688 560 656 528 -527 0
-816 560 784 528 -527 0
-1584 560 1552 528 -527 0
-2608 560 2576 528 -527 0
-592 527 0
-720 592 656 528 -527 0
-848 592 784 528 -527 0
-527 655 0
-656 527 0
-912 656 784 528 -527 0
-1680 656 1552 528 -527 0
-527 783 0
-784 527 0
-1808 784 1552 528 -527 0
-2832 784 2576 528 -527 0
-527 1551 0
-1552 527 0
-3600 1552 2576 528 -527 0
-527 2575 0
-2576 527 0
-1056 1039 0
-1088 1056 1072 1040 -1039 0
-1312 1056 1296 1040 -1039 0
-1568 1056 1552 1040 -1039 0
-3104 1056 3088 1040 -1039 0
-1072 1039 0
-1328 1072 1296 1040 -1039 0
-1584 1072 1552 1040 -1039 0
-3120 1072 3088 1040 -1039 0
-1039 1103 0
-1104 1039 0
-1616 1104 1552 1040 -1039 0
-1168 1039 0
-1424 1168 1296 1040 -1039 0
-1680 1168 1552 1040 -1039 0
-1039 1295 0
-1296 1039 0
-1808 1296 1552 1040 -1039 0
-3344 1296 3088 1040 -1039 0
-1039 1551 0
-1552 1039 0
-3600 1552 3088 1040 -1039 0
-1039 3087 0
-3088 1039 0
-2080 2063 0
-2112 2080 2096 2064 -2063 0
-2144 2080 2128 2064 -2063 0
-3104 2080 3088 2064 -2063 0
-2096 2063 0
-2160 2096 2128 2064 -2063 0
-3120 2096 3088 2064 -2063 0
-2128 2063 0
-2256 2128 2192 2064 -2063 0
-2192 2063 0
-2063 2319 0
-2320 2063 0
-3344 2320 3088 2064 -2063 0
-2063 2575 0
-2576 2063 0
-3600 2576 3088 2064 -2063 0
-2063 3087 0
-3088 2063 0
-64 55 0
-55 119 0
-248 120 184 56 -55 0
-376 120 312 56 -55 0
-632 120 568 56 -55 0
-1144 120 1080 56 -55 0
-2168 120 2104 56 -55 0
-55 183 0
-440 184 312 56 -55 0
-696 184 568 56 -55 0
-1208 184 1080 56 -55 0
-2232 184 2104 56 -55 0
-55 311 0
-824 312 568 56 -55 0
-1336 312 1080 56 -55 0
-2360 312 2104 56 -55 0
-55 567 0
-1592 568 1080 56 -55 0
-2616 568 2104 56 -55 0
-55 1079 0
-3128 1080 2104 56 -55 0
-55 2103 0
-96 87 0
-128 96 120 88 -87 0
-224 96 216 88 -87 0
-1120 96 1112 88 -87 0
-2144 96 2136 88 -87 0
-120 87 0
-248 120 216 88 -87 0
-376 120 344 88 -87 0
-87 215 0
-216 87 0
-472 216 344 88 -87 0
-1240 216 1112 88 -87 0
-344 87 0
-87 599 0
-600 87 0
-1112 87 0
-87 2135 0
-2136 87 0
-160 151 0
-192 160 184 152 -151 0
-224 160 216 152 -151 0
-416 160 408 152 -151 0
-184 151 0
-248 184 216 152 -151 0
-440 184 408 152 -151 0
-151 215 0
-216 151 0
-472 216 408 152 -151 0
-151 407 0
-408 151 0
-920 408 664 152 -151 0
-664 151 0
-1176 151 0
-2200 151 0
-288 279 0
-320 288 312 280 -279 0
-352 288 344 280 -279 0
-416 288 408 280 -279 0
-800 288 792 280 -279 0
-2336 288 2328 280 -279 0
-312 279 0
-376 312 344 280 -279 0
-440 312 408 280 -279 0
-824 312 792 280 -279 0
-1336 312 1304 280 -279 0
-344 279 0
-472 344 408 280 -279 0
-856 344 792 280 -279 0
-279 407 0
-408 279 0
-920 408 792 280 -279 0
-1432 408 1304 280 -279 0
-279 791 0
-792 279 0
-1816 792 1304 280 -279 0
-1304 279 0
-2328 279 0
-544 535 0
-576 544 568 536 -535 0
-672 544 664 536 -535 0
-1568 544 1560 536 -535 0
-2592 544 2584 536 -535 0
-568 535 0
-696 568 664 536 -535 0
-824 568 792 536 -535 0
-1592 568 1560 536 -535 0
-728 600 664 536 -535 0
-535 663 0
-664 535 0
-920 664 792 536 -535 0
-535 791 0
-792 535 0
-1816 792 1560 536 -535 0
-2840 792 2584 536 -535 0
-535 1559 0
-1560 535 0
-3608 1560 2584 536 -535 0
-535 2583 0
-2584 535 0
-1056 1047 0
-1088 1056 1080 1048 -1047 0
-1312 1056 1304 1048 -1047 0
-1568 1056 1560 1048 -1047 0
-3104 1056 3096 1048 -1047 0
-1080 1047 0
-1336 1080 1304 1048 -1047 0
-1592 1080 1560 1048 -1047 0
-3128 1080 3096 1048 -1047 0
-1112 1047 0
-1624 1112 1560 1048 -1047 0
-1176 1047 0
-1432 1176 1304 1048 -1047 0
-1688 1176 1560 1048 -1047 0
-1047 1303 0
-1304 1047 0
-1816 1304 1560 1048 -1047 0
-3352 1304 3096 1048 -1047 0
-1047 1559 0
-1560 1047 0
-3608 1560 3096 1048 -1047 0
-1047 3095 0
-3096 1047 0
-2080 2071 0
-2112 2080 2104 2072 -2071 0
-2144 2080 2136 2072 -2071 0
-2208 2080 2200 2072 -2071 0
-3104 2080 3096 2072 -2071 0
-2104 2071 0
-2168 2104 2136 2072 -2071 0
-2616 2104 2584 2072 -2071 0
-3128 2104 3096 2072 -2071 0
-2136 2071 0
-3160 2136 3096 2072 -2071 0
-2071 2199 0
-3224 2200 3096 2072 -2071 0
-2071 2327 0
-2328 2071 0
-2839 2327 2583 2071 -2070 0
-2840 2328 2584 2072 -2071 0
-3352 2328 3096 2072 -2071 0
-2071 2583 0
-2584 2071 0
-3608 2584 3096 2072 -2071 0
-2071 3095 0
-3096 2071 0
-112 103 0
-128 112 120 104 -103 0
-240 112 232 104 -103 0
-120 103 0
-248 120 232 104 -103 0
-2168 120 2152 104 -103 0
-103 231 0
-232 103 0
-488 232 360 104 -103 0
-744 232 616 104 -103 0
-103 359 0
-360 103 0
-616 103 0
-1128 103 0
-103 2151 0
-2152 103 0
-176 167 0
-192 176 184 168 -167 0
-240 176 232 168 -167 0
-432 176 424 168 -167 0
-688 176 680 168 -167 0
-184 167 0
-248 184 232 168 -167 0
-440 184 424 168 -167 0
-696 184 680 168 -167 0
-167 231 0
-232 167 0
-488 232 424 168 -167 0
-744 232 680 168 -167 0
-167 423 0
-424 167 0
-936 424 680 168 -167 0
-1448 424 1192 168 -167 0
-167 679 0
-680 167 0
-167 1191 0
-1192 167 0
-304 295 0
-320 304 312 296 -295 0
-368 304 360 296 -295 0
-432 304 424 296 -295 0
-816 304 808 296 -295 0
-1328 304 1320 296 -295 0
-312 295 0
-376 312 360 296 -295 0
-440 312 424 296 -295 0
-824 312 808 296 -295 0
-1336 312 1320 296 -295 0
-2360 312 2344 296 -295 0
-360 295 0
-488 360 424 296 -295 0
-872 360 808 296 -295 0
-295 423 0
-424 295 0
-936 424 808 296 -295 0
-1448 424 1320 296 -295 0
-295 807 0
-808 295 0
-2856 808 2344 296 -295 0
-295 1319 0
-1320 295 0
-3368 1320 2344 296 -295 0
-295 2343 0
-2344 295 0
-560 551 0
-576 560 568 552 -551 0
-816 560 808 552 -551 0
-1584 560 1576 552 -551 0
-2608 560 2600 552 -551 0
-568 551 0
-696 568 680 552 -551 0
-824 568 808 552 -551 0
-1592 568 1576 552 -551 0
-2616 568 2600 552 -551 0
-616 551 0
-744 616 680 552 -551 0
-551 679 0
-680 551 0
-936 680 808 552 -551 0
-1704 680 1576 552 -551 0
-2728 680 2600 552 -551 0
-551 807 0
-808 551 0
-1832 808 1576 552 -551 0
-2856 808 2600 552 -551 0
-551 1575 0
-1576 551 0
-3624 1576 2600 552 -551 0
-551 2599 0
-2600 551 0
-1072 1063 0
-1088 1072 1080 1064 -1063 0
-1328 1072 1320 1064 -1063 0
-1584 1072 1576 1064 -1063 0
-3120 1072 3112 1064 -1063 0
-1080 1063 0
-1144 1080 1128 1064 -1063 0
-1336 1080 1320 1064 -1063 0
-1592 1080 1576 1064 -1063 0
-3128 1080 3112 1064 -1063 0
-3175 1127 3111 1063 -1062 0
-1192 1063 0
-1448 1192 1320 1064 -1063 0
-1704 1192 1576 1064 -1063 0
-1063 1319 0
-1320 1063 0
-1832 1320 1576 1064 -1063 0
-3368 1320 3112 1064 -1063 0
-1063 1575 0
-1576 1063 0
-3624 1576 3112 1064 -1063 0
-1063 3111 0
-3112 1063 0
-2096 2087 0
-2112 2096 2104 2088 -2087 0
-2224 2096 2216 2088 -2087 0
-2352 2096 2344 2088 -2087 0
-2608 2096 2600 2088 -2087 0
-3120 2096 3112 2088 -2087 0
-2104 2087 0
-2616 2104 2600 2088 -2087 0
-3128 2104 3112 2088 -2087 0
-2087 2151 0
-2152 2087 0
-3176 2152 3112 2088 -2087 0
-2344 2087 0
-2856 2344 2600 2088 -2087 0
-3368 2344 3112 2088 -2087 0
-2087 2599 0
-2600 2087 0
-3624 2600 3112 2088 -2087 0
-2087 3111 0
-3112 2087 0
-199 207 0
-208 199 0
-223 207 215 199 -198 0
-224 208 216 200 -199 0
-239 207 231 199 -198 0
-240 208 232 200 -199 0
-464 208 456 200 -199 0
-720 208 712 200 -199 0
-199 215 0
-216 199 0
-247 215 231 199 -198 0
-248 216 232 200 -199 0
-472 216 456 200 -199 0
-199 231 0
-232 199 0
-488 232 456 200 -199 0
-456 199 0
-968 456 712 200 -199 0
-712 199 0
-1224 199 0
-327 335 0
-368 336 360 328 -327 0
-464 336 456 328 -327 0
-327 343 0
-472 344 456 328 -327 0
-327 359 0
-360 327 0
-488 360 456 328 -327 0
-456 327 0
-968 456 840 328 -327 0
-840 327 0
-1352 327 0
-583 591 0
-624 592 616 584 -583 0
-720 592 712 584 -583 0
-712 583 0
-968 712 840 584 -583 0
-840 583 0
-583 1607 0
-583 2631 0
-1128 1095 0
-1864 1352 1608 1096 -1095 0
-1095 1607 0
-2119 2127 0
-2159 2127 2151 2119 -2118 0
-2119 2135 0
-2119 2151 0
-2152 2119 0
-391 399 0
-400 391 0
-416 400 408 392 -391 0
-432 400 424 392 -391 0
-464 400 456 392 -391 0
-912 400 904 392 -391 0
-391 407 0
-408 391 0
-440 408 424 392 -391 0
-472 408 456 392 -391 0
-920 408 904 392 -391 0
-391 423 0
-424 391 0
-488 424 456 392 -391 0
-936 424 904 392 -391 0
-1448 424 1416 392 -391 0
-456 391 0
-968 456 904 392 -391 0
-904 391 0
-1928 904 1416 392 -391 0
-1416 391 0
-2440 391 0
-647 655 0
-656 647 0
-688 656 680 648 -647 0
-912 656 904 648 -647 0
-647 663 0
-696 664 680 648 -647 0
-920 664 904 648 -647 0
-647 679 0
-680 647 0
-936 680 904 648 -647 0
-2728 680 2696 648 -647 0
-712 647 0
-968 712 904 648 -647 0
-904 647 0
-1928 904 1672 648 -647 0
-1672 647 0
-1159 1167 0
-1232 1168 1224 1160 -1159 0
-1424 1168 1416 1160 -1159 0
-1159 1175 0
-1240 1176 1224 1160 -1159 0
-1159 1191 0
-1448 1192 1416 1160 -1159 0
-1416 1159 0
-1928 1416 1672 1160 -1159 0
-1672 1159 0
-1159 3207 0
-3208 1159 0
-2183 3207 0
-784 775 0
-800 784 792 776 -775 0
-816 784 808 776 -775 0
-848 784 840 776 -775 0
-912 784 904 776 -775 0
-1808 784 1800 776 -775 0
-775 791 0
-792 775 0
-824 792 808 776 -775 0
-856 792 840 776 -775 0
-920 792 904 776 -775 0
-1816 792 1800 776 -775 0
-775 807 0
-808 775 0
-936 808 904 776 -775 0
-1832 808 1800 776 -775 0
-840 775 0
-968 840 904 776 -775 0
-904 775 0
-1928 904 1800 776 -775 0
-1800 775 0
-3848 1800 2824 776 -775 0
-2824 775 0
-1287 1295 0
-1296 1287 0
-1312 1296 1304 1288 -1287 0
-1287 1303 0
-1304 1287 0
-1336 1304 1320 1288 -1287 0
-1287 1319 0
-1320 1287 0
-1832 1320 1800 1288 -1287 0
-1416 1287 0
-1928 1416 1800 1288 -1287 0
-1800 1287 0
-3848 1800 3336 1288 -1287 0
-3336 1287 0
-2311 2319 0
-2320 2311 0
-2448 2320 2440 2312 -2311 0
-2328 2311 0
-2360 2328 2344 2312 -2311 0
-2311 2343 0
-2856 2344 2824 2312 -2311 0
-2824 2311 0
-3848 2824 3336 2312 -2311 0
-3336 2311 0
-1543 1551 0
-1552 1543 0
-1568 1552 1560 1544 -1543 0
-1583 1551 1575 1543 -1542 0
-1584 1552 1576 1544 -1543 0
-1808 1552 1800 1544 -1543 0
-3600 1552 3592 1544 -1543 0
-1543 1559 0
-1560 1543 0
-1592 1560 1576 1544 -1543 0
-1816 1560 1800 1544 -1543 0
-3608 1560 3592 1544 -1543 0
-1543 1575 0
-1576 1543 0
-1832 1576 1800 1544 -1543 0
-3624 1576 3592 1544 -1543 0
-1672 1543 0
-1928 1672 1800 1544 -1543 0
-1800 1543 0
-3848 1800 3592 1544 -1543 0
-3592 1543 0
-2567 2575 0
-2576 2567 0
-2592 2576 2584 2568 -2567 0
-2608 2576 2600 2568 -2567 0
-3600 2576 3592 2568 -2567 0
-2567 2583 0
-2584 2567 0
-3608 2584 3592 2568 -2567 0
-2567 2599 0
-2696 2567 0
-3848 2824 3592 2568 -2567 0
-3592 2567 0
-3079 3087 0
-3088 3079 0
-3103 3087 3095 3079 -3078 0
-3104 3088 3096 3080 -3079 0
-3119 3087 3111 3079 -3078 0
-3120 3088 3112 3080 -3079 0
-3600 3088 3592 3080 -3079 0
-3079 3095 0
-3096 3079 0
-3128 3096 3112 3080 -3079 0
-3608 3096 3592 3080 -3079 0
-3079 3111 0
-3112 3079 0
-3240 3112 3208 3080 -3079 0
-3368 3112 3336 3080 -3079 0
-3624 3112 3592 3080 -3079 0
-3720 3208 3592 3080 -3079 0
-3336 3079 0
-3848 3336 3592 3080 -3079 0
-3592 3079 0
-64 59 0
-59 123 0
-252 124 188 60 -59 0
-380 124 316 60 -59 0
-636 124 572 60 -59 0
-2172 124 2108 60 -59 0
-59 187 0
-444 188 316 60 -59 0
-700 188 572 60 -59 0
-1212 188 1084 60 -59 0
-2236 188 2108 60 -59 0
-59 315 0
-828 316 572 60 -59 0
-1340 316 1084 60 -59 0
-2364 316 2108 60 -59 0
-59 571 0
-1596 572 1084 60 -59 0
-2620 572 2108 60 -59 0
-59 1083 0
-3132 1084 2108 60 -59 0
-59 2107 0
-96 91 0
-128 96 124 92 -91 0
-224 96 220 92 -91 0
-352 96 348 92 -91 0
-2144 96 2140 92 -91 0
-124 91 0
-252 124 220 92 -91 0
-380 124 348 92 -91 0
-91 219 0
-220 91 0
-476 220 348 92 -91 0
-731 219 603 91 -90 0
-732 220 604 92 -91 0
-91 347 0
-348 91 0
-859 347 603 91 -90 0
-91 603 0
-604 91 0
-1116 91 0
-3164 1116 2140 92 -91 0
-91 2139 0
-2140 91 0
-160 155 0
-192 160 188 156 -155 0
-224 160 220 156 -155 0
-416 160 412 156 -155 0
-188 155 0
-252 188 220 156 -155 0
-444 188 412 156 -155 0
-700 188 668 156 -155 0
-155 219 0
-220 155 0
-476 220 412 156 -155 0
-155 411 0
-412 155 0
-924 412 668 156 -155 0
-1436 412 1180 156 -155 0
-155 667 0
-668 155 0
-155 1179 0
-1180 155 0
-2204 155 0
-288 283 0
-320 288 316 284 -283 0
-352 288 348 284 -283 0
-416 288 412 284 -283 0
-800 288 796 284 -283 0
-2336 288 2332 284 -283 0
-316 283 0
-380 316 348 284 -283 0
-444 316 412 284 -283 0
-828 316 796 284 -283 0
-283 347 0
-348 283 0
-476 348 412 284 -283 0
-860 348 796 284 -283 0
-412 283 0
-924 412 796 284 -283 0
-1436 412 1308 284 -283 0
-283 795 0
-796 283 0
-1820 796 1308 284 -283 0
-2844 796 2332 284 -283 0
-283 1307 0
-1308 283 0
-283 2331 0
-2332 283 0
-544 539 0
-576 544 572 540 -539 0
-672 544 668 540 -539 0
-800 544 796 540 -539 0
-1568 544 1564 540 -539 0
-2592 544 2588 540 -539 0
-572 539 0
-700 572 668 540 -539 0
-828 572 796 540 -539 0
-1596 572 1564 540 -539 0
-2620 572 2588 540 -539 0
-539 603 0
-604 539 0
-731 603 667 539 -538 0
-732 604 668 540 -539 0
-859 603 795 539 -538 0
-860 604 796 540 -539 0
-539 667 0
-668 539 0
-923 667 795 539 -538 0
-924 668 796 540 -539 0
-1692 668 1564 540 -539 0
-539 795 0
-796 539 0
-1820 796 1564 540 -539 0
-2844 796 2588 540 -539 0
-1564 539 0
-3612 1564 2588 540 -539 0
-2588 539 0
-1056 1051 0
-1088 1056 1084 1052 -1051 0
-1312 1056 1308 1052 -1051 0
-1568 1056 1564 1052 -1051 0
-3104 1056 3100 1052 -1051 0
-1084 1051 0
-1148 1084 1116 1052 -1051 0
-1340 1084 1308 1052 -1051 0
-1596 1084 1564 1052 -1051 0
-3132 1084 3100 1052 -1051 0
-1051 1115 0
-1628 1116 1564 1052 -1051 0
-1180 1051 0
-1436 1180 1308 1052 -1051 0
-1051 1307 0
-1308 1051 0
-1820 1308 1564 1052 -1051 0
-3356 1308 3100 1052 -1051 0
-1051 1563 0
-1564 1051 0
-3611 1563 3099 1051 -1050 0
-3612 1564 3100 1052 -1051 0
-1051 3099 0
-3100 1051 0
-2080 2075 0
-2112 2080 2108 2076 -2075 0
-2592 2080 2588 2076 -2075 0
-3104 2080 3100 2076 -2075 0
-2108 2075 0
-2172 2108 2140 2076 -2075 0
-2364 2108 2332 2076 -2075 0
-3132 2108 3100 2076 -2075 0
-2075 2139 0
-2140 2075 0
-2652 2140 2588 2076 -2075 0
-3164 2140 3100 2076 -2075 0
-2075 2203 0
-3228 2204 3100 2076 -2075 0
-2332 2075 0
-3356 2332 3100 2076 -2075 0
-2075 2587 0
-2588 2075 0
-3612 2588 3100 2076 -2075 0
-2075 3099 0
-3100 2075 0
-112 107 0
-128 112 124 108 -107 0
-240 112 236 108 -107 0
-2160 112 2156 108 -107 0
-124 107 0
-252 124 236 108 -107 0
-380 124 364 108 -107 0
-107 235 0
-236 107 0
-492 236 364 108 -107 0
-748 236 620 108 -107 0
-1260 236 1132 108 -107 0
-2284 236 2156 108 -107 0
-107 363 0
-364 107 0
-876 364 620 108 -107 0
-620 107 0
-2668 620 2156 108 -107 0
-1132 107 0
-107 2155 0
-2156 107 0
-176 171 0
-192 176 188 172 -171 0
-240 176 236 172 -171 0
-432 176 428 172 -171 0
-2224 176 2220 172 -171 0
-188 171 0
-252 188 236 172 -171 0
-444 188 428 172 -171 0
-700 188 684 172 -171 0
-171 235 0
-236 171 0
-492 236 428 172 -171 0
-748 236 684 172 -171 0
-171 427 0
-428 171 0
-940 428 684 172 -171 0
-1452 428 1196 172 -171 0
-684 171 0
-171 1195 0
-1196 171 0
-2220 171 0
-304 299 0
-320 304 316 300 -299 0
-368 304 364 300 -299 0
-432 304 428 300 -299 0
-816 304 812 300 -299 0
-1328 304 1324 300 -299 0
-316 299 0
-380 316 364 300 -299 0
-444 316 428 300 -299 0
-828 316 812 300 -299 0
-1340 316 1324 300 -299 0
-299 363 0
-364 299 0
-492 364 428 300 -299 0
-876 364 812 300 -299 0
-2412 364 2348 300 -299 0
-299 427 0
-428 299 0
-940 428 812 300 -299 0
-1452 428 1324 300 -299 0
-299 811 0
-812 299 0
-1836 812 1324 300 -299 0
-2860 812 2348 300 -299 0
-299 1323 0
-1324 299 0
-2348 299 0
-560 555 0
-576 560 572 556 -555 0
-688 560 684 556 -555 0
-816 560 812 556 -555 0
-1584 560 1580 556 -555 0
-2608 560 2604 556 -555 0
-572 555 0
-700 572 684 556 -555 0
-828 572 812 556 -555 0
-1596 572 1580 556 -555 0
-2620 572 2604 556 -555 0
-876 620 812 556 -555 0
-555 683 0
-684 555 0
-940 684 812 556 -555 0
-1708 684 1580 556 -555 0
-555 811 0
-812 555 0
-1836 812 1580 556 -555 0
-2860 812 2604 556 -555 0
-555 1579 0
-1580 555 0
-3628 1580 2604 556 -555 0
-555 2603 0
-2604 555 0
-1072 1067 0
-1088 1072 1084 1068 -1067 0
-1200 1072 1196 1068 -1067 0
-1328 1072 1324 1068 -1067 0
-3120 1072 3116 1068 -1067 0
-1084 1067 0
-1340 1084 1324 1068 -1067 0
-1596 1084 1580 1068 -1067 0
-3132 1084 3116 1068 -1067 0
-1644 1132 1580 1068 -1067 0
-1196 1067 0
-1708 1196 1580 1068 -1067 0
-1067 1323 0
-1324 1067 0
-1836 1324 1580 1068 -1067 0
-3372 1324 3116 1068 -1067 0
-1067 1579 0
-1580 1067 0
-3628 1580 3116 1068 -1067 0
-3116 1067 0
-2096 2091 0
-2112 2096 2108 2092 -2091 0
-2160 2096 2156 2092 -2091 0
-2224 2096 2220 2092 -2091 0
-3120 2096 3116 2092 -2091 0
-2108 2091 0
-2172 2108 2156 2092 -2091 0
-2236 2108 2220 2092 -2091 0
-2620 2108 2604 2092 -2091 0
-3132 2108 3116 2092 -2091 0
-2091 2155 0
-2156 2091 0
-2091 2219 0
-3372 2348 3116 2092 -2091 0
-2091 2603 0
-2604 2091 0
-3628 2604 3116 2092 -2091 0
-2091 3115 0
-3116 2091 0
-203 207 0
-208 203 0
-223 207 219 203 -202 0
-224 208 220 204 -203 0
-240 208 236 204 -203 0
-464 208 460 204 -203 0
-720 208 716 204 -203 0
-203 219 0
-220 203 0
-252 220 236 204 -203 0
-476 220 460 204 -203 0
-203 235 0
-236 203 0
-492 236 460 204 -203 0
-460 203 0
-972 460 716 204 -203 0
-1484 460 1228 204 -203 0
-716 203 0
-1228 203 0
-331 335 0
-336 331 0
-352 336 348 332 -331 0
-331 347 0
-348 331 0
-476 348 460 332 -331 0
-331 363 0
-364 331 0
-492 364 460 332 -331 0
-460 331 0
-972 460 844 332 -331 0
-844 331 0
-587 591 0
-1616 592 1612 588 -587 0
-587 603 0
-587 619 0
-748 620 716 588 -587 0
-716 587 0
-972 716 844 588 -587 0
-844 587 0
-1099 1227 0
-2128 2123 0
-2140 2123 0
-2123 2155 0
-2252 2123 0
-3148 2123 0
-395 399 0
-400 395 0
-416 400 412 396 -395 0
-432 400 428 396 -395 0
-464 400 460 396 -395 0
-912 400 908 396 -395 0
-395 411 0
-412 395 0
-444 412 428 396 -395 0
-476 412 460 396 -395 0
-924 412 908 396 -395 0
-2460 412 2444 396 -395 0
-395 427 0
-428 395 0
-492 428 460 396 -395 0
-940 428 908 396 -395 0
-1452 428 1420 396 -395 0
-460 395 0
-972 460 908 396 -395 0
-908 395 0
-1932 908 1420 396 -395 0
-1420 395 0
-2444 395 0
-651 655 0
-656 651 0
-912 656 908 652 -651 0
-651 667 0
-668 651 0
-700 668 684 652 -651 0
-924 668 908 652 -651 0
-651 683 0
-684 651 0
-940 684 908 652 -651 0
-716 651 0
-972 716 908 652 -651 0
-908 651 0
-1932 908 1676 652 -651 0
-1676 651 0
-2700 651 0
-3216 1168 3212 1164 -1163 0
-1163 1179 0
-1212 1180 1196 1164 -1163 0
-1244 1180 1228 1164 -1163 0
-1436 1180 1420 1164 -1163 0
-1196 1163 0
-1452 1196 1420 1164 -1163 0
-1420 1163 0
-1932 1420 1676 1164 -1163 0
-1676 1163 0
-2208 2192 2204 2188 -2187 0
-2256 2192 2252 2188 -2187 0
-779 783 0
-784 779 0
-800 784 796 780 -779 0
-816 784 812 780 -779 0
-848 784 844 780 -779 0
-912 784 908 780 -779 0
-1808 784 1804 780 -779 0
-779 795 0
-796 779 0
-828 796 812 780 -779 0
-924 796 908 780 -779 0
-1820 796 1804 780 -779 0
-2844 796 2828 780 -779 0
-779 811 0
-812 779 0
-940 812 908 780 -779 0
-1836 812 1804 780 -779 0
-844 779 0
-972 844 908 780 -779 0
-908 779 0
-1932 908 1804 780 -779 0
-1804 779 0
-3852 1804 2828 780 -779 0
-2828 779 0
-1296 1291 0
-1328 1296 1324 1292 -1291 0
-1808 1296 1804 1292 -1291 0
-3344 1296 3340 1292 -1291 0
-1291 1307 0
-1308 1291 0
-1820 1308 1804 1292 -1291 0
-1291 1323 0
-1324 1291 0
-1420 1291 0
-1932 1420 1804 1292 -1291 0
-1804 1291 0
-3852 1804 3340 1292 -1291 0
-2315 2319 0
-2320 2315 0
-3344 2320 3340 2316 -2315 0
-2315 2331 0
-2460 2332 2444 2316 -2315 0
-2828 2315 0
-3852 2828 3340 2316 -2315 0
-3340 2315 0
-1547 1551 0
-1552 1547 0
-1568 1552 1564 1548 -1547 0
-1583 1551 1579 1547 -1546 0
-1584 1552 1580 1548 -1547 0
-1808 1552 1804 1548 -1547 0
-3600 1552 3596 1548 -1547 0
-1547 1563 0
-1564 1547 0
-1595 1563 1579 1547 -1546 0
-1596 1564 1580 1548 -1547 0
-1820 1564 1804 1548 -1547 0
-3612 1564 3596 1548 -1547 0
-1547 1579 0
-1580 1547 0
-1836 1580 1804 1548 -1547 0
-3628 1580 3596 1548 -1547 0
-1868 1612 1804 1548 -1547 0
-1676 1547 0
-1932 1676 1804 1548 -1547 0
-1804 1547 0
-3852 1804 3596 1548 -1547 0
-3596 1547 0
-2571 2575 0
-2576 2571 0
-2608 2576 2604 2572 -2571 0
-3600 2576 3596 2572 -2571 0
-2571 2587 0
-2588 2571 0
-2620 2588 2604 2572 -2571 0
-2604 2571 0
-3628 2604 3596 2572 -2571 0
-3724 2700 3596 2572 -2571 0
-2828 2571 0
-3852 2828 3596 2572 -2571 0
-3596 2571 0
-3083 3087 0
-3088 3083 0
-3104 3088 3100 3084 -3083 0
-3120 3088 3116 3084 -3083 0
-3600 3088 3596 3084 -3083 0
-3083 3099 0
-3100 3083 0
-3132 3100 3116 3084 -3083 0
-3612 3100 3596 3084 -3083 0
-3083 3115 0
-3116 3083 0
-3180 3116 3148 3084 -3083 0
-3628 3116 3596 3084 -3083 0
-3212 3083 0
-3340 3083 0
-3852 3340 3596 3084 -3083 0
-3596 3083 0
-120 115 0
-128 120 124 116 -115 0
-248 120 244 116 -115 0
-124 115 0
-252 124 244 116 -115 0
-636 124 628 116 -115 0
-2172 124 2164 116 -115 0
-115 243 0
-244 115 0
-499 243 371 115 -114 0
-500 244 372 116 -115 0
-756 244 628 116 -115 0
-115 371 0
-372 115 0
-628 115 0
-1140 115 0
-115 2163 0
-2164 115 0
-184 179 0
-192 184 188 180 -179 0
-248 184 244 180 -179 0
-440 184 436 180 -179 0
-1208 184 1204 180 -179 0
-188 179 0
-252 188 244 180 -179 0
-444 188 436 180 -179 0
-179 243 0
-244 179 0
-499 243 435 179 -178 0
-500 244 436 180 -179 0
-756 244 692 180 -179 0
-179 435 0
-436 179 0
-948 436 692 180 -179 0
-1460 436 1204 180 -179 0
-179 691 0
-692 179 0
-2740 692 2228 180 -179 0
-1204 179 0
-2228 179 0
-312 307 0
-320 312 316 308 -307 0
-376 312 372 308 -307 0
-440 312 436 308 -307 0
-824 312 820 308 -307 0
-1336 312 1332 308 -307 0
-316 307 0
-380 316 372 308 -307 0
-444 316 436 308 -307 0
-828 316 820 308 -307 0
-1340 316 1332 308 -307 0
-372 307 0
-500 372 436 308 -307 0
-884 372 820 308 -307 0
-2420 372 2356 308 -307 0
-307 435 0
-436 307 0
-948 436 820 308 -307 0
-1460 436 1332 308 -307 0
-2484 436 2356 308 -307 0
-307 819 0
-820 307 0
-1844 820 1332 308 -307 0
-2868 820 2356 308 -307 0
-307 1331 0
-1332 307 0
-3380 1332 2356 308 -307 0
-2356 307 0
-568 563 0
-576 568 572 564 -563 0
-696 568 692 564 -563 0
-824 568 820 564 -563 0
-1592 568 1588 564 -563 0
-572 563 0
-636 572 628 564 -563 0
-700 572 692 564 -563 0
-828 572 820 564 -563 0
-1596 572 1588 564 -563 0
-2620 572 2612 564 -563 0
-628 563 0
-756 628 692 564 -563 0
-884 628 820 564 -563 0
-563 691 0
-692 563 0
-948 692 820 564 -563 0
-1716 692 1588 564 -563 0
-563 819 0
-820 563 0
-1844 820 1588 564 -563 0
-2868 820 2612 564 -563 0
-563 1587 0
-1588 563 0
-3636 1588 2612 564 -563 0
-563 2611 0
-2612 563 0
-1080 1075 0
-1088 1080 1084 1076 -1075 0
-1592 1080 1588 1076 -1075 0
-3128 1080 3124 1076 -1075 0
-1084 1075 0
-1212 1084 1204 1076 -1075 0
-1340 1084 1332 1076 -1075 0
-1596 1084 1588 1076 -1075 0
-3132 1084 3124 1076 -1075 0
-1075 1139 0
-1652 1140 1588 1076 -1075 0
-1204 1075 0
-1716 1204 1588 1076 -1075 0
-1075 1331 0
-1332 1075 0
-1844 1332 1588 1076 -1075 0
-3380 1332 3124 1076 -1075 0
-1075 1587 0
-1588 1075 0
-3636 1588 3124 1076 -1075 0
-1075 3123 0
-3124 1075 0
-2104 2099 0
-2112 2104 2108 2100 -2099 0
-3128 2104 3124 2100 -2099 0
-2108 2099 0
-2172 2108 2164 2100 -2099 0
-2236 2108 2228 2100 -2099 0
-3132 2108 3124 2100 -2099 0
-2164 2099 0
-3188 2164 3124 2100 -2099 0
-2228 2099 0
-2356 2099 0
-2868 2356 2612 2100 -2099 0
-3380 2356 3124 2100 -2099 0
-2099 2611 0
-2612 2099 0
-3636 2612 3124 2100 -2099 0
-2099 3123 0
-3124 2099 0
-211 215 0
-216 211 0
-223 215 219 211 -210 0
-224 216 220 212 -211 0
-247 215 243 211 -210 0
-248 216 244 212 -211 0
-472 216 468 212 -211 0
-211 219 0
-220 211 0
-251 219 243 211 -210 0
-252 220 244 212 -211 0
-476 220 468 212 -211 0
-211 243 0
-244 211 0
-500 244 468 212 -211 0
-756 244 724 212 -211 0
-468 211 0
-980 468 724 212 -211 0
-724 211 0
-339 343 0
-344 339 0
-376 344 372 340 -339 0
-472 344 468 340 -339 0
-856 344 852 340 -339 0
-339 347 0
-348 339 0
-380 348 372 340 -339 0
-860 348 852 340 -339 0
-339 371 0
-372 339 0
-500 372 468 340 -339 0
-468 339 0
-980 468 852 340 -339 0
-852 339 0
-595 599 0
-595 603 0
-595 627 0
-628 595 0
-724 595 0
-980 724 852 596 -595 0
-852 595 0
-1620 595 0
-1120 1112 1116 1108 -1107 0
-2172 2140 2164 2132 -2131 0
-2131 2163 0
-2164 2131 0
-403 407 0
-408 403 0
-416 408 412 404 -403 0
-440 408 436 404 -403 0
-472 408 468 404 -403 0
-920 408 916 404 -403 0
-403 411 0
-412 403 0
-444 412 436 404 -403 0
-476 412 468 404 -403 0
-924 412 916 404 -403 0
-403 435 0
-436 403 0
-500 436 468 404 -403 0
-948 436 916 404 -403 0
-1460 436 1428 404 -403 0
-468 403 0
-980 468 916 404 -403 0
-916 403 0
-1940 916 1428 404 -403 0
-1428 403 0
-659 663 0
-664 659 0
-920 664 916 660 -659 0
-659 667 0
-668 659 0
-700 668 692 660 -659 0
-692 659 0
-948 692 916 660 -659 0
-724 659 0
-980 724 916 660 -659 0
-916 659 0
-1940 916 1684 660 -659 0
-1684 659 0
-1171 1179 0
-3228 1180 3220 1172 -1171 0
-1428 1171 0
-1940 1428 1684 1172 -1171 0
-1684 1171 0
-2208 2200 2204 2196 -2195 0
-787 791 0
-792 787 0
-800 792 796 788 -787 0
-824 792 820 788 -787 0
-920 792 916 788 -787 0
-1816 792 1812 788 -787 0
-787 795 0
-796 787 0
-828 796 820 788 -787 0
-860 796 852 788 -787 0
-924 796 916 788 -787 0
-1820 796 1812 788 -787 0
-2844 796 2836 788 -787 0
-787 819 0
-820 787 0
-884 820 852 788 -787 0
-948 820 916 788 -787 0
-1844 820 1812 788 -787 0
-852 787 0
-980 852 916 788 -787 0
-916 787 0
-1940 916 1812 788 -787 0
-1812 787 0
-3860 1812 2836 788 -787 0
-2836 787 0
-1304 1299 0
-1299 1307 0
-1820 1308 1812 1300 -1299 0
-1844 1332 1812 1300 -1299 0
-1428 1299 0
-1940 1428 1812 1300 -1299 0
-1812 1299 0
-3860 1812 3348 1300 -1299 0
-3348 1299 0
-3352 2328 3348 2324 -2323 0
-2836 2323 0
-3860 2836 3348 2324 -2323 0
-1555 1559 0
-1560 1555 0
-1568 1560 1564 1556 -1555 0
-1592 1560 1588 1556 -1555 0
-1816 1560 1812 1556 -1555 0
-3608 1560 3604 1556 -1555 0
-1555 1563 0
-1564 1555 0
-1596 1564 1588 1556 -1555 0
-1628 1564 1620 1556 -1555 0
-1820 1564 1812 1556 -1555 0
-3612 1564 3604 1556 -1555 0
-1555 1587 0
-1588 1555 0
-1844 1588 1812 1556 -1555 0
-3636 1588 3604 1556 -1555 0
-1684 1555 0
-1940 1684 1812 1556 -1555 0
-1812 1555 0
-3860 1812 3604 1556 -1555 0
-3604 1555 0
-2579 2583 0
-2584 2579 0
-2840 2584 2836 2580 -2579 0
-2579 2587 0
-2588 2579 0
-2620 2588 2612 2580 -2579 0
-3612 2588 3604 2580 -2579 0
-2579 2611 0
-2612 2579 0
-2644 2579 0
-2836 2579 0
-3860 2836 3604 2580 -2579 0
-3604 2579 0
-3091 3095 0
-3096 3091 0
-3104 3096 3100 3092 -3091 0
-3128 3096 3124 3092 -3091 0
-3608 3096 3604 3092 -3091 0
-3091 3099 0
-3100 3091 0
-3132 3100 3124 3092 -3091 0
-3612 3100 3604 3092 -3091 0
-3091 3123 0
-3124 3091 0
-3636 3124 3604 3092 -3091 0
-3156 3091 0
-3220 3091 0
-3348 3091 0
-3860 3348 3604 3092 -3091 0
-3604 3091 0
-227 231 0
-232 227 0
-239 231 235 227 -226 0
-240 232 236 228 -227 0
-248 232 244 228 -227 0
-488 232 484 228 -227 0
-227 235 0
-236 227 0
-252 236 244 228 -227 0
-492 236 484 228 -227 0
-227 243 0
-244 227 0
-500 244 484 228 -227 0
-484 227 0
-996 484 740 228 -227 0
-740 227 0
-355 359 0
-368 360 364 356 -355 0
-376 360 372 356 -355 0
-488 360 484 356 -355 0
-872 360 868 356 -355 0
-355 363 0
-492 364 484 356 -355 0
-355 371 0
-372 355 0
-500 372 484 356 -355 0
-484 355 0
-996 484 868 356 -355 0
-868 355 0
-611 615 0
-611 619 0
-876 620 868 612 -611 0
-611 627 0
-756 628 740 612 -611 0
-884 628 868 612 -611 0
-740 611 0
-996 740 868 612 -611 0
-868 611 0
-611 2659 0
-1136 1128 1132 1124 -1123 0
-3172 1123 0
-2147 2151 0
-2160 2152 2156 2148 -2147 0
-2168 2152 2164 2148 -2147 0
-2147 2155 0
-2171 2155 2163 2147 -2146 0
-2147 2163 0
-419 423 0
-424 419 0
-432 424 428 420 -419 0
-440 424 436 420 -419 0
-488 424 484 420 -419 0
-936 424 932 420 -419 0
-419 427 0
-428 419 0
-443 427 435 419 -418 0
-444 428 436 420 -419 0
-492 428 484 420 -419 0
-940 428 932 420 -419 0
-419 435 0
-436 419 0
-500 436 484 420 -419 0
-948 436 932 420 -419 0
-484 419 0
-996 484 932 420 -419 0
-932 419 0
-1956 932 1444 420 -419 0
-1444 419 0
-2468 419 0
-675 679 0
-680 675 0
-688 680 684 676 -675 0
-1704 680 1700 676 -675 0
-675 683 0
-940 684 932 676 -675 0
-2732 684 2724 676 -675 0
-675 691 0
-692 675 0
-948 692 932 676 -675 0
-740 675 0
-996 740 932 676 -675 0
-932 675 0
-1956 932 1700 676 -675 0
-1700 675 0
-1187 1191 0
-3240 1192 3236 1188 -1187 0
-1187 1195 0
-1196 1187 0
-1708 1196 1700 1188 -1187 0
-3244 1196 3236 1188 -1187 0
-1187 1203 0
-1444 1187 0
-1956 1444 1700 1188 -1187 0
-1700 1187 0
-2211 2215 0
-2224 2216 2220 2212 -2211 0
-2727 2215 2723 2211 -2210 0
-3244 2220 3236 2212 -2211 0
-803 807 0
-808 803 0
-816 808 812 804 -803 0
-824 808 820 804 -803 0
-936 808 932 804 -803 0
-1832 808 1828 804 -803 0
-812 803 0
-828 812 820 804 -803 0
-940 812 932 804 -803 0
-1836 812 1828 804 -803 0
-803 819 0
-820 803 0
-948 820 932 804 -803 0
-1844 820 1828 804 -803 0
-868 803 0
-996 868 932 804 -803 0
-932 803 0
-1956 932 1828 804 -803 0
-1828 803 0
-3876 1828 2852 804 -803 0
-2852 803 0
-1315 1319 0
-1320 1315 0
-1336 1320 1332 1316 -1315 0
-1384 1320 1380 1316 -1315 0
-1832 1320 1828 1316 -1315 0
-1315 1323 0
-1340 1324 1332 1316 -1315 0
-1836 1324 1828 1316 -1315 0
-1315 1331 0
-1332 1315 0
-1444 1315 0
-1956 1444 1828 1316 -1315 0
-1828 1315 0
-3876 1828 3364 1316 -1315 0
-3364 1315 0
-2339 2343 0
-2472 2344 2468 2340 -2339 0
-3368 2344 3364 2340 -2339 0
-2339 2347 0
-2339 2355 0
-2852 2339 0
-3876 2852 3364 2340 -2339 0
-3364 2339 0
-1571 1575 0
-1576 1571 0
-1583 1575 1579 1571 -1570 0
-1584 1576 1580 1572 -1571 0
-1592 1576 1588 1572 -1571 0
-1832 1576 1828 1572 -1571 0
-3624 1576 3620 1572 -1571 0
-1580 1571 0
-1596 1580 1588 1572 -1571 0
-1836 1580 1828 1572 -1571 0
-3628 1580 3620 1572 -1571 0
-1571 1587 0
-1588 1571 0
-1844 1588 1828 1572 -1571 0
-3636 1588 3620 1572 -1571 0
-1700 1571 0
-1956 1700 1828 1572 -1571 0
-1828 1571 0
-3876 1828 3620 1572 -1571 0
-3620 1571 0
-2595 2599 0
-2600 2595 0
-3624 2600 3620 2596 -2595 0
-2595 2603 0
-2604 2595 0
-2620 2604 2612 2596 -2595 0
-3628 2604 3620 2596 -2595 0
-2595 2611 0
-2612 2595 0
-2852 2595 0
-3876 2852 3620 2596 -2595 0
-3620 2595 0
-3107 3111 0
-3112 3107 0
-3119 3111 3115 3107 -3106 0
-3120 3112 3116 3108 -3107 0
-3127 3111 3123 3107 -3106 0
-3128 3112 3124 3108 -3107 0
-3624 3112 3620 3108 -3107 0
-3107 3115 0
-3116 3107 0
-3132 3116 3124 3108 -3107 0
-3628 3116 3620 3108 -3107 0
-3107 3123 0
-3124 3107 0
-3636 3124 3620 3108 -3107 0
-3106 3170 0
-3172 3107 0
-3236 3107 0
-3364 3107 0
-3876 3364 3620 3108 -3107 0
-3620 3107 0
-451 455 0
-464 456 460 452 -451 0
-472 456 468 452 -451 0
-488 456 484 452 -451 0
-451 459 0
-476 460 468 452 -451 0
-492 460 484 452 -451 0
-451 467 0
-500 468 484 452 -451 0
-451 483 0
-964 451 0
-707 711 0
-707 715 0
-707 723 0
-707 739 0
-964 707 0
-835 839 0
-872 840 868 836 -835 0
-835 843 0
-876 844 868 836 -835 0
-835 851 0
-884 852 868 836 -835 0
-835 867 0
-964 835 0
-1603 1611 0
-3188 3156 3172 3140 -3139 0
-899 903 0
-912 904 908 900 -899 0
-920 904 916 900 -899 0
-936 904 932 900 -899 0
-899 907 0
-924 908 916 900 -899 0
-940 908 932 900 -899 0
-899 915 0
-948 916 932 900 -899 0
-899 931 0
-964 899 0
-1411 1415 0
-1411 1419 0
-1411 1427 0
-1411 1443 0
-1924 1411 0
-1667 1671 0
-1667 1675 0
-1667 1683 0
-1667 1699 0
-1924 1667 0
-1795 1799 0
-1808 1800 1804 1796 -1795 0
-1816 1800 1812 1796 -1795 0
-1832 1800 1828 1796 -1795 0
-1795 1803 0
-1820 1804 1812 1796 -1795 0
-1836 1804 1828 1796 -1795 0
-1795 1811 0
-1844 1812 1828 1796 -1795 0
-1876 1812 1860 1796 -1795 0
-1795 1827 0
-1892 1828 1860 1796 -1795 0
-1924 1795 0
-2819 2823 0
-2819 2827 0
-2860 2828 2852 2820 -2819 0
-2819 2835 0
-2868 2836 2852 2820 -2819 0
-2819 2851 0
-3844 2819 0
-3331 3335 0
-3331 3339 0
-3331 3347 0
-3331 3363 0
-3844 3331 0
-3587 3591 0
-3600 3592 3596 3588 -3587 0
-3608 3592 3604 3588 -3587 0
-3624 3592 3620 3588 -3587 0
-3587 3595 0
-3612 3596 3604 3588 -3587 0
-3628 3596 3620 3588 -3587 0
-3587 3603 0
-3636 3604 3620 3588 -3587 0
-3587 3619 0
-3844 3587 0
-64 128 0
-64 192 0
-64 320 0
-64 576 0
-64 1088 0
-64 2112 0
-95 223 0
-96 224 0
-480 224 352 96 -95 0
-95 351 0
-96 352 0
-95 1119 0
-3168 1120 2144 96 -95 0
-95 2143 0
-96 2144 0
-160 224 0
-480 224 416 160 -159 0
-736 224 672 160 -159 0
-159 415 0
-160 416 0
-160 672 0
-159 1183 0
-160 2208 0
-288 352 0
-864 352 800 288 -287 0
-288 416 0
-928 416 800 288 -287 0
-287 799 0
-288 800 0
-1824 800 1312 288 -287 0
-2848 800 2336 288 -287 0
-288 1312 0
-288 2336 0
-544 800 0
-1824 800 1568 544 -543 0
-544 1568 0
-543 2591 0
-544 2592 0
-1056 1120 0
-1376 1120 1312 1056 -1055 0
-1056 1312 0
-1056 1568 0
-3616 1568 3104 1056 -1055 0
-1055 3103 0
-1056 3104 0
-2080 2144 0
-3168 2144 3104 2080 -2079 0
-2080 2208 0
-2080 2336 0
-2080 2592 0
-3616 2592 3104 2080 -2079 0
-2080 3104 0
-111 239 0
-112 240 0
-496 240 368 112 -111 0
-2288 240 2160 112 -111 0
-111 367 0
-112 368 0
-112 624 0
-111 2159 0
-112 2160 0
-176 240 0
-496 240 432 176 -175 0
-176 432 0
-944 432 688 176 -175 0
-176 688 0
-1712 688 1200 176 -175 0
-176 1200 0
-176 2224 0
-304 368 0
-496 368 432 304 -303 0
-304 432 0
-944 432 816 304 -303 0
-303 815 0
-304 816 0
-3376 1328 2352 304 -303 0
-560 688 0
-560 816 0
-2864 816 2608 560 -559 0
-559 1583 0
-560 1584 0
-560 2608 0
-1072 1136 0
-1072 1328 0
-3376 1328 3120 1072 -1071 0
-1072 1584 0
-3632 1584 3120 1072 -1071 0
-1071 3119 0
-1072 3120 0
-2096 2160 0
-2096 2224 0
-2096 2352 0
-2096 2608 0
-3632 2608 3120 2096 -2095 0
-2096 3120 0
-224 207 0
-208 224 0
-256 224 240 208 -207 0
-480 224 464 208 -207 0
-240 207 0
-208 240 0
-496 240 464 208 -207 0
-464 207 0
-208 464 0
-976 464 720 208 -207 0
-3280 1232 2256 208 -207 0
-208 2256 0
-336 352 0
-336 368 0
-464 335 0
-336 464 0
-336 848 0
-592 624 0
-720 591 0
-592 848 0
-1104 1120 0
-1248 1120 1232 1104 -1103 0
-1104 1136 0
-2128 2144 0
-2176 2144 2160 2128 -2127 0
-2128 2160 0
-2512 2256 2384 2128 -2127 0
-2128 3152 0
-400 416 0
-448 416 432 400 -399 0
-928 416 912 400 -399 0
-432 399 0
-400 432 0
-464 399 0
-400 464 0
-976 464 912 400 -399 0
-400 912 0
-1936 912 1424 400 -399 0
-656 672 0
-928 672 912 656 -655 0
-688 655 0
-656 688 0
-656 720 0
-976 720 912 656 -655 0
-912 655 0
-656 912 0
-1168 1184 0
-2192 2448 0
-2192 3216 0
-784 800 0
-832 800 816 784 -783 0
-928 800 912 784 -783 0
-784 816 0
-976 848 912 784 -783 0
-912 783 0
-784 912 0
-1936 912 1808 784 -783 0
-784 1808 0
-1296 1312 0
-1296 1328 0
-1296 1808 0
-3856 1808 3344 1296 -1295 0
-3344 2319 0
-1568 1551 0
-1552 1568 0
-1600 1568 1584 1552 -1551 0
-1824 1568 1808 1552 -1551 0
-3616 1568 3600 1552 -1551 0
-1552 1584 0
-1840 1584 1808 1552 -1551 0
-1552 1616 0
-1808 1551 0
-1552 1808 0
-3856 1808 3600 1552 -1551 0
-1552 3600 0
-2576 2592 0
-3616 2592 3600 2576 -2575 0
-2576 2608 0
-2576 2640 0
-2576 2704 0
-2832 2575 0
-3600 2575 0
-2576 3600 0
-3104 3087 0
-3088 3104 0
-3136 3104 3120 3088 -3087 0
-3120 3087 0
-3088 3120 0
-3632 3120 3600 3088 -3087 0
-3408 3152 3344 3088 -3087 0
-3088 3216 0
-3088 3344 0
-3856 3344 3600 3088 -3087 0
-3600 3087 0
-3088 3600 0
-119 247 0
-120 248 0
-504 248 376 120 -119 0
-760 248 632 120 -119 0
-120 376 0
-120 632 0
-1656 632 1144 120 -119 0
-120 1144 0
-120 2168 0
-184 248 0
-504 248 440 184 -183 0
-2296 248 2232 184 -183 0
-183 439 0
-184 440 0
-183 695 0
-184 696 0
-312 376 0
-504 376 440 312 -311 0
-312 440 0
-312 824 0
-2872 824 2360 312 -311 0
-312 1336 0
-760 632 696 568 -567 0
-568 696 0
-952 696 824 568 -567 0
-568 824 0
-2872 824 2616 568 -567 0
-568 1592 0
-568 2616 0
-1400 1144 1336 1080 -1079 0
-1720 1208 1592 1080 -1079 0
-1080 1336 0
-1848 1336 1592 1080 -1079 0
-1080 1592 0
-3640 1592 3128 1080 -1079 0
-1079 3127 0
-1080 3128 0
-2104 2168 0
-2104 2232 0
-3256 2232 3128 2104 -2103 0
-2104 2360 0
-3384 2360 3128 2104 -2103 0
-2104 2616 0
-3640 2616 3128 2104 -2103 0
-2104 3128 0
-224 215 0
-216 224 0
-256 224 248 216 -215 0
-480 224 472 216 -215 0
-248 215 0
-216 248 0
-504 248 472 216 -215 0
-472 215 0
-216 472 0
-216 728 0
-344 352 0
-376 343 0
-344 376 0
-344 472 0
-600 608 0
-728 599 0
-1112 1240 0
-2136 2144 0
-3168 2144 3160 2136 -2135 0
-416 407 0
-408 416 0
-448 416 440 408 -407 0
-440 407 0
-408 440 0
-952 440 920 408 -407 0
-472 407 0
-408 472 0
-984 472 920 408 -407 0
-920 407 0
-408 920 0
-1944 920 1432 408 -407 0
-664 672 0
-664 696 0
-984 728 920 664 -663 0
-664 920 0
-1248 1184 1240 1176 -1175 0
-1176 1208 0
-1432 1175 0
-2200 2232 0
-800 791 0
-792 800 0
-832 800 824 792 -791 0
-928 800 920 792 -791 0
-1824 800 1816 792 -791 0
-792 824 0
-1848 824 1816 792 -791 0
-792 920 0
-1944 920 1816 792 -791 0
-1816 791 0
-792 1816 0
-1304 1312 0
-3360 1312 3352 1304 -1303 0
-1304 1336 0
-1432 1303 0
-1304 1816 0
-3864 1816 3352 1304 -1303 0
-2840 2327 0
-1560 1568 0
-1600 1568 1592 1560 -1559 0
-1824 1568 1816 1560 -1559 0
-3616 1568 3608 1560 -1559 0
-1560 1592 0
-1848 1592 1816 1560 -1559 0
-1816 1559 0
-1560 1816 0
-3864 1816 3608 1560 -1559 0
-3608 1559 0
-1560 3608 0
-2584 2592 0
-2584 2616 0
-3864 2840 3608 2584 -2583 0
-2584 3608 0
-3096 3104 0
-3136 3104 3128 3096 -3095 0
-3616 3104 3608 3096 -3095 0
-3096 3128 0
-3640 3128 3608 3096 -3095 0
-3096 3352 0
-3608 3095 0
-3096 3608 0
-232 240 0
-256 240 248 232 -231 0
-496 240 488 232 -231 0
-248 231 0
-232 248 0
-504 248 488 232 -231 0
-488 231 0
-232 488 0
-1000 488 744 232 -231 0
-360 368 0
-496 368 488 360 -359 0
-360 376 0
-488 359 0
-360 488 0
-360 872 0
-360 1384 0
-616 632 0
-872 615 0
-1128 1136 0
-2160 2151 0
-2152 2160 0
-2176 2160 2168 2152 -2151 0
-3184 2160 3176 2152 -2151 0
-2152 2168 0
-2151 3175 0
-424 432 0
-448 432 440 424 -423 0
-496 432 488 424 -423 0
-944 432 936 424 -423 0
-440 423 0
-424 440 0
-952 440 936 424 -423 0
-2488 440 2472 424 -423 0
-488 423 0
-424 488 0
-1000 488 936 424 -423 0
-424 936 0
-1960 936 1448 424 -423 0
-680 688 0
-680 696 0
-952 696 936 680 -679 0
-1000 744 936 680 -679 0
-680 936 0
-1960 936 1704 680 -679 0
-1192 1200 0
-1192 1704 0
-1191 3239 0
-2216 2728 0
-808 816 0
-832 816 824 808 -807 0
-944 816 936 808 -807 0
-808 824 0
-952 824 936 808 -807 0
-1000 872 936 808 -807 0
-808 936 0
-1960 936 1832 808 -807 0
-1832 807 0
-808 1832 0
-1328 1319 0
-1320 1328 0
-1840 1328 1832 1320 -1319 0
-1320 1336 0
-1320 1832 0
-3880 1832 3368 1320 -1319 0
-2344 2352 0
-3376 2352 3368 2344 -2343 0
-2344 2360 0
-3384 2360 3368 2344 -2343 0
-2344 3368 0
-1584 1575 0
-1576 1584 0
-3632 1584 3624 1576 -1575 0
-1576 1592 0
-3640 1592 3624 1576 -1575 0
-1704 1575 0
-1576 1704 0
-1832 1575 0
-1576 1832 0
-3880 1832 3624 1576 -1575 0
-3624 1575 0
-1576 3624 0
-2608 2599 0
-2600 2608 0
-3632 2608 3624 2600 -2599 0
-2599 2727 0
-2600 3624 0
-3120 3111 0
-3112 3120 0
-3136 3120 3128 3112 -3111 0
-3632 3120 3624 3112 -3111 0
-3112 3128 0
-3640 3128 3624 3112 -3111 0
-3111 3175 0
-3112 3624 0
-455 463 0
-456 464 0
-480 464 472 456 -455 0
-496 464 488 456 -455 0
-456 472 0
-504 472 488 456 -455 0
-456 488 0
-711 719 0
-712 720 0
-712 744 0
-2248 2256 0
-840 848 0
-840 856 0
-840 872 0
-1608 1616 0
-904 912 0
-928 912 920 904 -903 0
-944 912 936 904 -903 0
-903 919 0
-904 920 0
-952 920 936 904 -903 0
-903 935 0
-904 936 0
-1416 1424 0
-1416 1432 0
-1672 1680 0
-1672 1688 0
-1672 1704 0
-3208 3224 0
-3752 3240 3720 3208 -3207 0
-1800 1808 0
-1824 1808 1816 1800 -1799 0
-1840 1808 1832 1800 -1799 0
-1800 1816 0
-1848 1816 1832 1800 -1799 0
-1800 1832 0
-1800 1864 0
-2824 2832 0
-2823 2839 0
-2824 2840 0
-2824 2856 0
-3335 3343 0
-3336 3344 0
-3376 3344 3368 3336 -3335 0
-3336 3352 0
-3336 3368 0
-3591 3599 0
-3592 3600 0
-3616 3600 3608 3592 -3591 0
-3632 3600 3624 3592 -3591 0
-3592 3608 0
-3640 3608 3624 3592 -3591 0
-3592 3624 0
-123 251 0
-124 252 0
-508 252 380 124 -123 0
-764 252 636 124 -123 0
-124 380 0
-124 1148 0
-123 2171 0
-124 2172 0
-188 252 0
-508 252 444 188 -187 0
-764 252 700 188 -187 0
-187 443 0
-188 444 0
-956 444 700 188 -187 0
-188 700 0
-188 1212 0
-188 2236 0
-316 380 0
-316 444 0
-956 444 828 316 -315 0
-1468 444 1340 316 -315 0
-316 828 0
-1852 828 1340 316 -315 0
-315 1339 0
-316 1340 0
-3388 1340 2364 316 -315 0
-316 2364 0
-572 636 0
-572 700 0
-1724 700 1596 572 -571 0
-572 828 0
-571 1595 0
-572 1596 0
-572 2620 0
-1084 1212 0
-1468 1212 1340 1084 -1083 0
-1084 1340 0
-1084 1596 0
-3644 1596 3132 1084 -1083 0
-1083 3131 0
-1084 3132 0
-2108 2172 0
-3260 2236 3132 2108 -2107 0
-2108 2620 0
-3644 2620 3132 2108 -2107 0
-2108 3132 0
-224 219 0
-220 224 0
-256 224 252 220 -219 0
-480 224 476 220 -219 0
-252 219 0
-220 252 0
-508 252 476 220 -219 0
-476 219 0
-220 476 0
-1244 219 0
-348 352 0
-348 380 0
-476 347 0
-348 476 0
-988 476 860 348 -347 0
-1372 347 0
-732 603 0
-860 603 0
-1884 860 1628 604 -603 0
-2652 603 0
-1116 1120 0
-1116 1244 0
-1884 1372 1628 1116 -1115 0
-1116 1628 0
-2140 2144 0
-2140 2172 0
-2140 2652 0
-2140 3164 0
-412 416 0
-448 416 444 412 -411 0
-412 444 0
-956 444 924 412 -411 0
-476 411 0
-412 476 0
-988 476 924 412 -411 0
-924 411 0
-412 924 0
-1948 924 1436 412 -411 0
-2460 411 0
-672 667 0
-668 672 0
-668 700 0
-988 732 924 668 -667 0
-924 667 0
-668 924 0
-1948 924 1692 668 -667 0
-1180 1184 0
-1216 1184 1212 1180 -1179 0
-1440 1184 1436 1180 -1179 0
-3232 1184 3228 1180 -1179 0
-1180 1212 0
-1436 1179 0
-2204 2460 0
-796 800 0
-832 800 828 796 -795 0
-928 800 924 796 -795 0
-796 828 0
-1852 828 1820 796 -795 0
-988 860 924 796 -795 0
-924 795 0
-796 924 0
-1948 924 1820 796 -795 0
-796 1820 0
-1308 1312 0
-3360 1312 3356 1308 -1307 0
-1308 1340 0
-1852 1340 1820 1308 -1307 0
-1436 1307 0
-1948 1436 1820 1308 -1307 0
-1820 1307 0
-1308 1820 0
-3868 1820 3356 1308 -1307 0
-2844 2331 0
-1568 1563 0
-1564 1568 0
-1600 1568 1596 1564 -1563 0
-1824 1568 1820 1564 -1563 0
-1564 1596 0
-1564 1820 0
-3868 1820 3612 1564 -1563 0
-3612 1563 0
-1564 3612 0
-2588 2592 0
-3616 2592 3612 2588 -2587 0
-2620 2587 0
-2588 2620 0
-2588 3612 0
-3104 3099 0
-3100 3104 0
-3136 3104 3132 3100 -3099 0
-3616 3104 3612 3100 -3099 0
-3132 3099 0
-3100 3132 0
-3644 3132 3612 3100 -3099 0
-3100 3356 0
-3868 3356 3612 3100 -3099 0
-3612 3099 0
-3100 3612 0
-240 235 0
-236 240 0
-256 240 252 236 -235 0
-496 240 492 236 -235 0
-252 235 0
-236 252 0
-508 252 492 236 -235 0
-492 235 0
-236 492 0
-364 368 0
-384 368 380 364 -363 0
-364 380 0
-492 363 0
-364 492 0
-876 363 0
-364 876 0
-620 624 0
-620 636 0
-876 619 0
-620 876 0
-1132 3180 0
-2156 2160 0
-2176 2160 2172 2156 -2155 0
-2156 2172 0
-2300 2172 2284 2156 -2155 0
-2540 2284 2412 2156 -2155 0
-432 427 0
-428 432 0
-448 432 444 428 -427 0
-496 432 492 428 -427 0
-444 427 0
-428 444 0
-508 444 492 428 -427 0
-492 427 0
-428 492 0
-1004 492 940 428 -427 0
-940 427 0
-428 940 0
-1964 940 1452 428 -427 0
-684 688 0
-700 683 0
-684 700 0
-956 700 940 684 -683 0
-1004 748 940 684 -683 0
-684 940 0
-1964 940 1708 684 -683 0
-684 1708 0
-1196 1200 0
-1196 1212 0
-1196 1452 0
-2224 2219 0
-2220 2236 0
-2220 3244 0
-816 811 0
-812 816 0
-832 816 828 812 -811 0
-944 816 940 812 -811 0
-1840 816 1836 812 -811 0
-812 828 0
-956 828 940 812 -811 0
-812 940 0
-1964 940 1836 812 -811 0
-812 1836 0
-1324 1328 0
-1840 1328 1836 1324 -1323 0
-1340 1323 0
-1324 1340 0
-1852 1340 1836 1324 -1323 0
-1324 1836 0
-2348 2352 0
-2348 2860 0
-2348 3372 0
-1580 1584 0
-1600 1584 1596 1580 -1579 0
-1596 1579 0
-1580 1596 0
-3644 1596 3628 1580 -1579 0
-1580 1708 0
-1580 1836 0
-3884 1836 3628 1580 -1579 0
-3628 1579 0
-1580 3628 0
-2604 2620 0
-2604 2668 0
-2860 2603 0
-2604 2860 0
-3628 2603 0
-2604 3628 0
-3120 3115 0
-3116 3120 0
-3136 3120 3132 3116 -3115 0
-3132 3115 0
-3116 3132 0
-3644 3132 3628 3116 -3115 0
-3692 3180 3628 3116 -3115 0
-3116 3244 0
-3628 3115 0
-3116 3628 0
-460 464 0
-480 464 476 460 -459 0
-496 464 492 460 -459 0
-459 475 0
-460 476 0
-508 476 492 460 -459 0
-460 492 0
-716 720 0
-715 731 0
-716 732 0
-716 748 0
-1228 1260 0
-1516 1260 1484 1228 -1227 0
-844 848 0
-843 859 0
-844 860 0
-844 876 0
-1612 1616 0
-1612 1628 0
-1612 1644 0
-908 912 0
-928 912 924 908 -907 0
-944 912 940 908 -907 0
-907 923 0
-908 924 0
-956 924 940 908 -907 0
-908 940 0
-1420 1424 0
-1420 1436 0
-1420 1452 0
-1676 1680 0
-1676 1692 0
-1676 1708 0
-3756 1708 3724 1676 -1675 0
-3212 3228 0
-1804 1808 0
-1824 1808 1820 1804 -1803 0
-1840 1808 1836 1804 -1803 0
-1804 1820 0
-1852 1820 1836 1804 -1803 0
-1803 1835 0
-1804 1836 0
-2828 2832 0
-2848 2832 2844 2828 -2827 0
-2828 2844 0
-2828 2860 0
-3340 3344 0
-3340 3356 0
-3340 3372 0
-3596 3600 0
-3616 3600 3612 3596 -3595 0
-3632 3600 3628 3596 -3595 0
-3595 3611 0
-3596 3612 0
-3644 3612 3628 3596 -3595 0
-3596 3628 0
-248 243 0
-244 248 0
-256 248 252 244 -243 0
-504 248 500 244 -243 0
-252 243 0
-244 252 0
-508 252 500 244 -243 0
-500 243 0
-244 500 0
-1012 500 756 244 -243 0
-244 756 0
-372 376 0
-384 376 380 372 -371 0
-380 371 0
-372 380 0
-500 371 0
-372 500 0
-372 884 0
-1396 371 0
-632 627 0
-628 884 0
-1908 1396 1652 1140 -1139 0
-2168 2163 0
-2164 2168 0
-2424 2168 2420 2164 -2163 0
-2164 2172 0
-2164 3188 0
-436 440 0
-448 440 444 436 -435 0
-952 440 948 436 -435 0
-436 444 0
-508 444 500 436 -435 0
-956 444 948 436 -435 0
-500 435 0
-436 500 0
-1012 500 948 436 -435 0
-948 435 0
-436 948 0
-692 696 0
-692 700 0
-692 948 0
-1972 948 1716 692 -691 0
-1204 1212 0
-2228 2232 0
-2236 2227 0
-2548 2292 2484 2228 -2227 0
-820 824 0
-832 824 828 820 -819 0
-1848 824 1844 820 -819 0
-828 819 0
-820 828 0
-956 828 948 820 -819 0
-1852 828 1844 820 -819 0
-820 884 0
-820 948 0
-1972 948 1844 820 -819 0
-1844 819 0
-820 1844 0
-1332 1336 0
-1344 1336 1340 1332 -1331 0
-1332 1340 0
-1332 1460 0
-1332 1844 0
-3892 1844 3380 1332 -1331 0
-2356 2360 0
-2356 2364 0
-2356 2868 0
-1588 1592 0
-1600 1592 1596 1588 -1587 0
-3640 1592 3636 1588 -1587 0
-1588 1596 0
-1852 1596 1844 1588 -1587 0
-3644 1596 3636 1588 -1587 0
-1716 1587 0
-1844 1587 0
-1588 1844 0
-3892 1844 3636 1588 -1587 0
-3636 1587 0
-1588 3636 0
-2612 2616 0
-2612 2620 0
-3764 2740 3636 2612 -2611 0
-2612 3636 0
-3128 3123 0
-3124 3128 0
-3640 3128 3636 3124 -3123 0
-3132 3123 0
-3124 3132 0
-3644 3132 3636 3124 -3123 0
-3124 3636 0
-468 472 0
-480 472 476 468 -467 0
-504 472 500 468 -467 0
-468 476 0
-508 476 500 468 -467 0
-467 499 0
-468 500 0
-724 728 0
-724 732 0
-852 856 0
-852 860 0
-852 884 0
-1620 1624 0
-3156 3164 0
-3156 3188 0
-916 920 0
-928 920 924 916 -915 0
-952 920 948 916 -915 0
-916 924 0
-956 924 948 916 -915 0
-915 947 0
-916 948 0
-1428 1432 0
-1428 1436 0
-1428 1460 0
-1684 1688 0
-1812 1816 0
-1824 1816 1820 1812 -1811 0
-1848 1816 1844 1812 -1811 0
-1812 1820 0
-1852 1820 1844 1812 -1811 0
-1812 1844 0
-1908 1844 1876 1812 -1811 0
-2836 2844 0
-2876 2844 2868 2836 -2835 0
-2836 2868 0
-3348 3356 0
-3348 3380 0
-3604 3608 0
-3616 3608 3612 3604 -3603 0
-3640 3608 3636 3604 -3603 0
-3604 3612 0
-3644 3612 3636 3604 -3603 0
-3604 3636 0
-3604 3668 0
-484 488 0
-496 488 492 484 -483 0
-504 488 500 484 -483 0
-484 492 0
-508 492 500 484 -483 0
-484 500 0
-740 744 0
-740 748 0
-740 756 0
-868 872 0
-868 876 0
-868 884 0
-1380 1892 0
-3171 3175 0
-3183 3175 3179 3171 -3170 0
-3180 3171 0
-932 936 0
-944 936 940 932 -931 0
-952 936 948 932 -931 0
-932 940 0
-956 940 948 932 -931 0
-932 948 0
-1444 1448 0
-1444 1452 0
-1444 1460 0
-1700 1704 0
-1700 1708 0
-1700 1716 0
-2724 2728 0
-2736 2728 2732 2724 -2723 0
-3236 3240 0
-1828 1832 0
-1840 1832 1836 1828 -1827 0
-1848 1832 1844 1828 -1827 0
-1828 1836 0
-1852 1836 1844 1828 -1827 0
-1828 1844 0
-1908 1844 1892 1828 -1827 0
-2852 2856 0
-2852 2860 0
-2852 2868 0
-3364 3368 0
-3364 3372 0
-3364 3380 0
-3620 3624 0
-3632 3624 3628 3620 -3619 0
-3640 3624 3636 3620 -3619 0
-3620 3628 0
-3644 3628 3636 3620 -3619 0
-3620 3636 0
-964 968 0
-964 972 0
-964 980 0
-964 996 0
-1860 1868 0
-1924 1928 0
-1924 1932 0
-1924 1940 0
-1924 1956 0
-3844 3848 0
-3844 3852 0
-3844 3860 0
-3844 3876 0
-128 256 0
-128 384 0
-128 2176 0
-192 448 0
-192 704 0
-192 1216 0
-320 832 0
-320 1344 0
-576 1600 0
-576 2624 0
-1088 3136 0
-224 480 0
-223 1247 0
-224 1248 0
-992 480 864 352 -351 0
-1504 1248 1376 1120 -1119 0
-416 480 0
-992 480 928 416 -415 0
-416 928 0
-1184 1248 0
-1504 1248 1440 1184 -1183 0
-1952 928 1824 800 -799 0
-800 1824 0
-3872 1824 2848 800 -799 0
-800 2848 0
-1312 1824 0
-2336 3360 0
-1568 1824 0
-1568 3616 0
-2592 3616 0
-3104 3168 0
-3104 3232 0
-3104 3360 0
-3104 3616 0
-240 496 0
-368 496 0
-2159 3183 0
-432 496 0
-432 944 0
-688 944 0
-816 944 0
-816 1840 0
-3888 1840 2864 816 -815 0
-1328 1840 0
-1584 1840 0
-1584 3632 0
-2608 3632 0
-3120 3184 0
-3120 3376 0
-3888 3376 3632 3120 -3119 0
-3120 3632 0
-464 480 0
-464 496 0
-464 2512 0
-720 736 0
-2384 3408 0
-3152 3168 0
-3152 3280 0
-912 928 0
-912 944 0
-1680 1696 0
-2704 2736 0
-1808 1824 0
-1808 1840 0
-3344 3376 0
-3600 3616 0
-3648 3616 3632 3600 -3599 0
-3600 3632 0
-248 504 0
-1016 504 760 248 -247 0
-376 504 0
-376 1400 0
-376 2424 0
-440 504 0
-1016 504 952 440 -439 0
-440 952 0
-440 2488 0
-696 952 0
-1976 952 1720 696 -695 0
-696 1720 0
-2232 2488 0
-824 952 0
-824 1848 0
-1336 1848 0
-1336 3384 0
-1592 1656 0
-1592 1848 0
-1592 3640 0
-2616 2872 0
-2616 3640 0
-3128 3640 0
-472 480 0
-472 504 0
-920 928 0
-960 928 952 920 -919 0
-920 952 0
-1816 1824 0
-2840 2872 0
-3352 3384 0
-3608 3616 0
-3608 3640 0
-488 496 0
-488 504 0
-744 760 0
-3184 3175 0
-936 944 0
-936 952 0
-1704 1712 0
-3240 3256 0
-1832 1848 0
-3368 3384 0
-3624 3632 0
-3624 3640 0
-968 976 0
-968 984 0
-968 1000 0
-1928 1936 0
-1928 1944 0
-1928 1960 0
-3848 3856 0
-3848 3864 0
-3848 3880 0
-252 508 0
-1020 508 764 252 -251 0
-252 2300 0
-380 508 0
-444 508 0
-444 956 0
-1980 956 1468 444 -443 0
-700 956 0
-1212 3260 0
-828 956 0
-828 1852 0
-828 2876 0
-1980 1468 1852 1340 -1339 0
-1340 1852 0
-3900 1852 3388 1340 -1339 0
-1596 1852 0
-1596 3644 0
-2620 3644 0
-3132 3644 0
-476 480 0
-512 480 508 476 -475 0
-476 508 0
-924 928 0
-924 956 0
-1692 1724 0
-1820 1884 0
-3612 3644 0
-492 496 0
-492 508 0
-492 1516 0
-492 2540 0
-748 764 0
-2284 2288 0
-3180 3692 0
-940 944 0
-940 956 0
-3244 3756 0
-1836 1840 0
-1856 1840 1852 1836 -1835 0
-3628 3644 0
-972 988 0
-972 1004 0
-1932 1948 0
-1932 1964 0
-3852 3868 0
-3852 3884 0
-500 504 0
-500 508 0
-500 2548 0
-2292 2296 0
-884 1908 0
-960 952 956 948 -947 0
-948 956 0
-1716 3764 0
-1844 1852 0
-1844 1908 0
-980 1012 0
-1940 1972 0
-3860 3892 0
-384 512 0
-704 960 0
-1344 1856 0
-2624 3648 0
-984 992 0
-1944 1952 0
-3864 3872 0
-1000 1016 0
-1960 1976 0
-3880 3888 0
-1004 1020 0
-1964 1980 0
-3884 3900 0
-4098 0
-4103 0
-4107 0
-4115 0
-4131 0
-4611 0
-5123 0
-6147 0
-4112 0
-4120 0
-4136 0
-4232 0
-4616 0
-5128 0
-6152 0
-4124 0
-4140 0
-4236 0
-4364 0
-4620 0
-5132 0
-6156 0
-4148 0
-4244 0
-4372 0
-4628 0
-5140 0
-6164 0
-4260 0
-4644 0
-5156 0
-6180 0
-4740 0
-4868 0
-5636 0
-6660 0
-7172 0
-6196 6195 0
-4230 134 4102 6 -5 0
-4614 518 4102 6 -5 0
-5126 1030 4102 6 -5 0
-4234 138 4106 10 -9 0
-4618 522 4106 10 -9 0
-5130 1034 4106 10 -9 0
-6154 2058 4106 10 -9 0
-4242 146 4114 18 -17 0
-4626 530 4114 18 -17 0
-5138 1042 4114 18 -17 0
-6162 2066 4114 18 -17 0
-4258 162 4130 34 -33 0
-4642 546 4130 34 -33 0
-5154 1058 4130 34 -33 0
-4110 4102 4106 4098 -4097 0
-4118 4102 4114 4098 -4097 0
-4134 4102 4130 4098 -4097 0
-4122 4106 4114 4098 -4097 0
-4138 4106 4130 4098 -4097 0
-4146 4114 4130 4098 -4097 0
-4610 4097 0
-4239 143 4111 15 -14 0
-4367 271 4111 15 -14 0
-4623 527 4111 15 -14 0
-5135 1039 4111 15 -14 0
-6159 2063 4111 15 -14 0
-14 4110 0
-4247 151 4119 23 -22 0
-4631 535 4119 23 -22 0
-5143 1047 4119 23 -22 0
-6167 2071 4119 23 -22 0
-22 4118 0
-4263 167 4135 39 -38 0
-4647 551 4135 39 -38 0
-5159 1063 4135 39 -38 0
-6183 2087 4135 39 -38 0
-38 4134 0
-4231 134 0
-4367 271 4359 263 -262 0
-4871 775 4359 263 -262 0
-262 4358 0
-4871 775 4615 519 -518 0
-5639 1543 4615 519 -518 0
-6663 2567 4615 519 -518 0
-4615 518 0
-5159 1063 5127 1031 -1030 0
-5639 1543 5127 1031 -1030 0
-7175 3079 5127 1031 -1030 0
-5127 1030 0
-6159 2063 6151 2055 -2054 0
-6167 2071 6151 2055 -2054 0
-6183 2087 6151 2055 -2054 0
-6663 2567 6151 2055 -2054 0
-7175 3079 6151 2055 -2054 0
-6151 2054 0
-4111 4102 0
-4127 4111 4119 4103 -4102 0
-4143 4111 4135 4103 -4102 0
-6159 4111 6151 4103 -4102 0
-4119 4102 0
-4151 4119 4135 4103 -4102 0
-5143 4119 5127 4103 -4102 0
-6167 4119 6151 4103 -4102 0
-4135 4102 0
-5159 4135 5127 4103 -4102 0
-6183 4135 6151 4103 -4102 0
-4231 4102 0
-4359 4102 0
-4615 4102 0
-6663 4615 6151 4103 -4102 0
-5127 4102 0
-7175 5127 6151 4103 -4102 0
-6151 4102 0
-4251 155 4123 27 -26 0
-4635 539 4123 27 -26 0
-5147 1051 4123 27 -26 0
-6171 2075 4123 27 -26 0
-26 4122 0
-4651 555 4139 43 -42 0
-5163 1067 4139 43 -42 0
-6187 2091 4139 43 -42 0
-42 4138 0
-4239 143 4235 139 -138 0
-4235 138 0
-4395 299 4363 267 -266 0
-4651 555 4619 523 -522 0
-5643 1547 4619 523 -522 0
-4619 522 0
-5643 1547 5131 1035 -1034 0
-7179 3083 5131 1035 -1034 0
-5131 1034 0
-6159 2063 6155 2059 -2058 0
-6171 2075 6155 2059 -2058 0
-6187 2091 6155 2059 -2058 0
-6667 2571 6155 2059 -2058 0
-7179 3083 6155 2059 -2058 0
-6155 2058 0
-4111 4106 0
-4127 4111 4123 4107 -4106 0
-4143 4111 4139 4107 -4106 0
-5135 4111 5131 4107 -4106 0
-6159 4111 6155 4107 -4106 0
-4123 4106 0
-4155 4123 4139 4107 -4106 0
-5147 4123 5131 4107 -4106 0
-6171 4123 6155 4107 -4106 0
-4139 4106 0
-6187 4139 6155 4107 -4106 0
-4235 4106 0
-4363 4106 0
-4619 4106 0
-5643 4619 5131 4107 -4106 0
-6667 4619 6155 4107 -4106 0
-5131 4106 0
-7179 5131 6155 4107 -4106 0
-6155 4106 0
-4275 179 4147 51 -50 0
-4659 563 4147 51 -50 0
-5171 1075 4147 51 -50 0
-6195 2099 4147 51 -50 0
-50 4146 0
-4251 155 4243 147 -146 0
-4243 146 0
-4379 283 4371 275 -274 0
-4659 563 4627 531 -530 0
-4755 659 4627 531 -530 0
-5651 1555 4627 531 -530 0
-6675 2579 4627 531 -530 0
-5651 1555 5139 1043 -1042 0
-7187 3091 5139 1043 -1042 0
-5139 1042 0
-6167 2071 6163 2067 -2066 0
-6171 2075 6163 2067 -2066 0
-6195 2099 6163 2067 -2066 0
-6675 2579 6163 2067 -2066 0
-7187 3091 6163 2067 -2066 0
-6163 2066 0
-4119 4114 0
-4127 4119 4123 4115 -4114 0
-4151 4119 4147 4115 -4114 0
-5143 4119 5139 4115 -4114 0
-6167 4119 6163 4115 -4114 0
-4123 4114 0
-4155 4123 4147 4115 -4114 0
-6171 4123 6163 4115 -4114 0
-4147 4114 0
-6195 4147 6163 4115 -4114 0
-4243 4114 0
-4627 4114 0
-5651 4627 5139 4115 -4114 0
-6675 4627 6163 4115 -4114 0
-5139 4114 0
-7187 5139 6163 4115 -4114 0
-6163 4114 0
-4259 162 0
-4647 551 4643 547 -546 0
-4651 555 4643 547 -546 0
-5667 1571 4643 547 -546 0
-4643 546 0
-5171 1075 5155 1059 -1058 0
-5667 1571 5155 1059 -1058 0
-5155 1058 0
-6183 2087 6179 2083 -2082 0
-6187 2091 6179 2083 -2082 0
-6195 2099 6179 2083 -2082 0
-6691 2595 6179 2083 -2082 0
-7203 3107 6179 2083 -2082 0
-6179 2082 0
-4135 4130 0
-4143 4135 4139 4131 -4130 0
-4151 4135 4147 4131 -4130 0
-5159 4135 5155 4131 -4130 0
-6183 4135 6179 4131 -4130 0
-4139 4130 0
-4155 4139 4147 4131 -4130 0
-5163 4139 5155 4131 -4130 0
-6187 4139 6179 4131 -4130 0
-4147 4130 0
-5171 4147 5155 4131 -4130 0
-6195 4147 6179 4131 -4130 0
-4259 4130 0
-4643 4130 0
-6691 4643 6179 4131 -4130 0
-5155 4130 0
-6179 4130 0
-4226 4230 0
-4226 4234 0
-4226 4242 0
-4226 4258 0
-4610 4614 0
-4623 4615 4619 4611 -4610 0
-4610 4618 0
-4651 4619 4643 4611 -4610 0
-4875 4619 4867 4611 -4610 0
-4610 4626 0
-4610 4642 0
-5635 4610 0
-5122 5126 0
-5135 5127 5131 5123 -5122 0
-5122 5130 0
-5122 5138 0
-5122 5154 0
-5635 5122 0
-6146 6150 0
-6159 6151 6155 6147 -6146 0
-6167 6151 6163 6147 -6146 0
-6183 6151 6179 6147 -6146 0
-6146 6154 0
-6171 6155 6163 6147 -6146 0
-6187 6155 6179 6147 -6146 0
-6146 6162 0
-6195 6163 6179 6147 -6146 0
-6659 6146 0
-4256 160 4128 32 -31 0
-4384 288 4128 32 -31 0
-4640 544 4128 32 -31 0
-5152 1056 4128 32 -31 0
-6176 2080 4128 32 -31 0
-31 4127 0
-4272 176 4144 48 -47 0
-4400 304 4144 48 -47 0
-4656 560 4144 48 -47 0
-5168 1072 4144 48 -47 0
-6192 2096 4144 48 -47 0
-47 4143 0
-4256 160 4240 144 -143 0
-4272 176 4240 144 -143 0
-4752 656 4240 144 -143 0
-143 4239 0
-4240 143 0
-4880 784 4368 272 -271 0
-4368 271 0
-4640 544 4624 528 -527 0
-4656 560 4624 528 -527 0
-5647 1551 4623 527 -526 0
-5648 1552 4624 528 -527 0
-526 4622 0
-4624 527 0
-5152 1056 5136 1040 -1039 0
-5168 1072 5136 1040 -1039 0
-5647 1551 5135 1039 -1038 0
-5648 1552 5136 1040 -1039 0
-7184 3088 5136 1040 -1039 0
-1039 5135 0
-5136 1039 0
-6176 2080 6160 2064 -2063 0
-6192 2096 6160 2064 -2063 0
-6672 2576 6160 2064 -2063 0
-7184 3088 6160 2064 -2063 0
-2063 6159 0
-6160 2063 0
-4128 4111 0
-4160 4128 4144 4112 -4111 0
-5152 4128 5136 4112 -4111 0
-6176 4128 6160 4112 -4111 0
-4144 4111 0
-5168 4144 5136 4112 -4111 0
-6192 4144 6160 4112 -4111 0
-4240 4111 0
-5264 4240 5136 4112 -4111 0
-6288 4240 6160 4112 -4111 0
-4111 4367 0
-4368 4111 0
-6416 4368 6160 4112 -4111 0
-4111 4623 0
-4624 4111 0
-6672 4624 6160 4112 -4111 0
-4111 5135 0
-5136 4111 0
-7184 5136 6160 4112 -4111 0
-4111 6159 0
-6160 4111 0
-4280 184 4152 56 -55 0
-4408 312 4152 56 -55 0
-4664 568 4152 56 -55 0
-5176 1080 4152 56 -55 0
-6200 2104 4152 56 -55 0
-55 4151 0
-4248 151 0
-4888 792 4376 280 -279 0
-4664 568 4632 536 -535 0
-4888 792 4632 536 -535 0
-5656 1560 4632 536 -535 0
-6680 2584 4632 536 -535 0
-535 4631 0
-4632 535 0
-5152 1056 5144 1048 -1047 0
-5400 1304 5144 1048 -1047 0
-5656 1560 5144 1048 -1047 0
-7192 3096 5144 1048 -1047 0
-5144 1047 0
-6176 2080 6168 2072 -2071 0
-6200 2104 6168 2072 -2071 0
-6680 2584 6168 2072 -2071 0
-7192 3096 6168 2072 -2071 0
-2071 6167 0
-6168 2071 0
-4128 4119 0
-4160 4128 4152 4120 -4119 0
-4256 4128 4248 4120 -4119 0
-4640 4128 4632 4120 -4119 0
-5152 4128 5144 4120 -4119 0
-6176 4128 6168 4120 -4119 0
-4152 4119 0
-5176 4152 5144 4120 -4119 0
-6200 4152 6168 4120 -4119 0
-4248 4119 0
-4376 4119 0
-5400 4376 5144 4120 -4119 0
-4119 4631 0
-4632 4119 0
-6680 4632 6168 4120 -4119 0
-4119 5143 0
-5144 4119 0
-7191 5143 6167 4119 -4118 0
-7192 5144 6168 4120 -4119 0
-4119 6167 0
-6168 4119 0
-4272 176 4264 168 -167 0
-4280 184 4264 168 -167 0
-4520 424 4264 168 -167 0
-4520 424 4392 296 -295 0
-4904 808 4392 296 -295 0
-295 4391 0
-5672 1576 4648 552 -551 0
-4648 551 0
-5168 1072 5160 1064 -1063 0
-5176 1080 5160 1064 -1063 0
-5672 1576 5160 1064 -1063 0
-7207 3111 5159 1063 -1062 0
-7208 3112 5160 1064 -1063 0
-5160 1063 0
-6192 2096 6184 2088 -2087 0
-6200 2104 6184 2088 -2087 0
-6696 2600 6184 2088 -2087 0
-7208 3112 6184 2088 -2087 0
-2087 6183 0
-6184 2087 0
-4144 4135 0
-4160 4144 4152 4136 -4135 0
-4272 4144 4264 4136 -4135 0
-4400 4144 4392 4136 -4135 0
-6192 4144 6184 4136 -4135 0
-4152 4135 0
-5176 4152 5160 4136 -4135 0
-6200 4152 6184 4136 -4135 0
-4135 4263 0
-4264 4135 0
-5288 4264 5160 4136 -4135 0
-6312 4264 6184 4136 -4135 0
-4648 4135 0
-5672 4648 5160 4136 -4135 0
-4135 5159 0
-5160 4135 0
-7208 5160 6184 4136 -4135 0
-4135 6183 0
-6184 4135 0
-4240 4231 0
-4272 4240 4264 4232 -4231 0
-4231 4247 0
-4231 4263 0
-4231 6279 0
-5000 904 4872 776 -775 0
-775 4871 0
-4872 775 0
-6416 2320 6408 2312 -2311 0
-4879 4367 4871 4359 -4358 0
-4872 4359 0
-5648 1552 5640 1544 -1543 0
-5896 1800 5640 1544 -1543 0
-7688 3592 5640 1544 -1543 0
-5640 1543 0
-7688 3592 6664 2568 -2567 0
-6664 2567 0
-4615 4623 0
-4656 4624 4648 4616 -4615 0
-5648 4624 5640 4616 -4615 0
-4615 4631 0
-4664 4632 4648 4616 -4615 0
-4615 4647 0
-5640 4615 0
-7688 5640 6664 4616 -4615 0
-6664 4615 0
-7184 3088 7176 3080 -3079 0
-7192 3096 7176 3080 -3079 0
-7208 3112 7176 3080 -3079 0
-7432 3336 7176 3080 -3079 0
-7688 3592 7176 3080 -3079 0
-7176 3079 0
-5127 5135 0
-5136 5127 0
-5152 5136 5144 5128 -5127 0
-5168 5136 5160 5128 -5127 0
-5648 5136 5640 5128 -5127 0
-7184 5136 7176 5128 -5127 0
-5127 5143 0
-5144 5127 0
-5656 5144 5640 5128 -5127 0
-7192 5144 7176 5128 -5127 0
-5127 5159 0
-5416 5160 5384 5128 -5127 0
-7208 5160 7176 5128 -5127 0
-7688 5640 7176 5128 -5127 0
-7176 5127 0
-6151 6159 0
-6160 6151 0
-6175 6159 6167 6151 -6150 0
-6176 6160 6168 6152 -6151 0
-6192 6160 6184 6152 -6151 0
-7184 6160 7176 6152 -6151 0
-6151 6167 0
-6168 6151 0
-6200 6168 6184 6152 -6151 0
-7192 6168 7176 6152 -6151 0
-6151 6183 0
-6184 6151 0
-6696 6184 6664 6152 -6151 0
-7208 6184 7176 6152 -6151 0
-6151 6279 0
-7304 6280 7176 6152 -6151 0
-6408 6151 0
-6664 6151 0
-7688 6664 7176 6152 -6151 0
-7176 6151 0
-4284 188 4156 60 -59 0
-4412 316 4156 60 -59 0
-4668 572 4156 60 -59 0
-5180 1084 4156 60 -59 0
-6204 2108 4156 60 -59 0
-59 4155 0
-4256 160 4252 156 -155 0
-4508 412 4252 156 -155 0
-4764 668 4252 156 -155 0
-155 4251 0
-4252 155 0
-4892 796 4380 284 -283 0
-283 4379 0
-4640 544 4636 540 -539 0
-5660 1564 4636 540 -539 0
-5152 1056 5148 1052 -1051 0
-5180 1084 5148 1052 -1051 0
-5660 1564 5148 1052 -1051 0
-7196 3100 5148 1052 -1051 0
-5148 1051 0
-6176 2080 6172 2076 -2075 0
-6204 2108 6172 2076 -2075 0
-6428 2332 6172 2076 -2075 0
-6684 2588 6172 2076 -2075 0
-7196 3100 6172 2076 -2075 0
-2075 6171 0
-6172 2075 0
-4128 4123 0
-4160 4128 4156 4124 -4123 0
-4256 4128 4252 4124 -4123 0
-4640 4128 4636 4124 -4123 0
-5152 4128 5148 4124 -4123 0
-6176 4128 6172 4124 -4123 0
-4156 4123 0
-5180 4156 5148 4124 -4123 0
-6204 4156 6172 4124 -4123 0
-4123 4251 0
-4252 4123 0
-5276 4252 5148 4124 -4123 0
-4123 4379 0
-4636 4123 0
-4123 5147 0
-5148 4123 0
-7195 5147 6171 4123 -4122 0
-7196 5148 6172 4124 -4123 0
-4123 6171 0
-6172 4123 0
-4524 428 4268 172 -171 0
-4780 684 4268 172 -171 0
-4268 171 0
-4908 812 4396 300 -299 0
-4396 299 0
-5675 1579 4651 555 -554 0
-5676 1580 4652 556 -555 0
-4652 555 0
-5168 1072 5164 1068 -1067 0
-5180 1084 5164 1068 -1067 0
-5676 1580 5164 1068 -1067 0
-7212 3116 5164 1068 -1067 0
-5164 1067 0
-6192 2096 6188 2092 -2091 0
-6204 2108 6188 2092 -2091 0
-6700 2604 6188 2092 -2091 0
-7212 3116 6188 2092 -2091 0
-2091 6187 0
-6188 2091 0
-4144 4139 0
-4160 4144 4156 4140 -4139 0
-4272 4144 4268 4140 -4139 0
-6192 4144 6188 4140 -4139 0
-4156 4139 0
-4284 4156 4268 4140 -4139 0
-4668 4156 4652 4140 -4139 0
-6204 4156 6188 4140 -4139 0
-5292 4268 5164 4140 -4139 0
-4139 4395 0
-4908 4396 4652 4140 -4139 0
-6444 4396 6188 4140 -4139 0
-4139 4651 0
-4652 4139 0
-6700 4652 6188 4140 -4139 0
-4139 5163 0
-5164 4139 0
-7212 5164 6188 4140 -4139 0
-4139 6187 0
-6188 4139 0
-4235 4239 0
-4235 4251 0
-5004 908 4876 780 -779 0
-779 4875 0
-6444 4396 6412 4364 -4363 0
-4876 4363 0
-5660 1564 5644 1548 -1547 0
-7692 3596 5644 1548 -1547 0
-5644 1547 0
-7692 3596 6668 2572 -2571 0
-6668 2571 0
-4619 4623 0
-4656 4624 4652 4620 -4619 0
-5648 4624 5644 4620 -4619 0
-4619 4635 0
-4668 4636 4652 4620 -4619 0
-4748 4619 0
-5644 4619 0
-7692 5644 6668 4620 -4619 0
-6668 4619 0
-7184 3088 7180 3084 -3083 0
-7196 3100 7180 3084 -3083 0
-7212 3116 7180 3084 -3083 0
-7692 3596 7180 3084 -3083 0
-7180 3083 0
-5131 5135 0
-5136 5131 0
-5168 5136 5164 5132 -5131 0
-7184 5136 7180 5132 -5131 0
-5131 5147 0
-5148 5131 0
-5660 5148 5644 5132 -5131 0
-7196 5148 7180 5132 -5131 0
-5131 5163 0
-7212 5164 7180 5132 -5131 0
-5644 5131 0
-7692 5644 7180 5132 -5131 0
-7180 5131 0
-6155 6159 0
-6160 6155 0
-6176 6160 6172 6156 -6155 0
-6192 6160 6188 6156 -6155 0
-7184 6160 7180 6156 -6155 0
-6155 6171 0
-6172 6155 0
-6203 6171 6187 6155 -6154 0
-6204 6172 6188 6156 -6155 0
-7196 6172 7180 6156 -6155 0
-6155 6187 0
-6188 6155 0
-7212 6188 7180 6156 -6155 0
-6668 6155 0
-7692 6668 7180 6156 -6155 0
-7180 6155 0
-4280 184 4276 180 -179 0
-4284 188 4276 180 -179 0
-179 4275 0
-4276 179 0
-4408 312 4404 308 -307 0
-4412 316 4404 308 -307 0
-4404 307 0
-5684 1588 4660 564 -563 0
-4660 563 0
-5176 1080 5172 1076 -1075 0
-5180 1084 5172 1076 -1075 0
-5684 1588 5172 1076 -1075 0
-7219 3123 5171 1075 -1074 0
-7220 3124 5172 1076 -1075 0
-1075 5171 0
-5172 1075 0
-6200 2104 6196 2100 -2099 0
-6204 2108 6196 2100 -2099 0
-6324 2228 6196 2100 -2099 0
-6708 2612 6196 2100 -2099 0
-7220 3124 6196 2100 -2099 0
-2099 6195 0
-6196 2099 0
-4152 4147 0
-4160 4152 4156 4148 -4147 0
-4280 4152 4276 4148 -4147 0
-4664 4152 4660 4148 -4147 0
-5176 4152 5172 4148 -4147 0
-6200 4152 6196 4148 -4147 0
-4156 4147 0
-4412 4156 4404 4148 -4147 0
-4668 4156 4660 4148 -4147 0
-5180 4156 5172 4148 -4147 0
-6204 4156 6196 4148 -4147 0
-4147 4275 0
-4276 4147 0
-4788 4276 4660 4148 -4147 0
-6324 4276 6196 4148 -4147 0
-4147 4659 0
-4147 5171 0
-5172 4147 0
-7220 5172 6196 4148 -4147 0
-4147 6195 0
-6196 4147 0
-5012 916 4500 404 -403 0
-4243 4247 0
-4243 4275 0
-4787 4275 4755 4243 -4242 0
-4500 4243 0
-4243 4755 0
-4756 4243 0
-4916 820 4884 788 -787 0
-5396 1299 0
-7444 5396 6420 4372 -4371 0
-4371 6419 0
-5656 1560 5652 1556 -1555 0
-5684 1588 5652 1556 -1555 0
-5908 1812 5652 1556 -1555 0
-7700 3604 5652 1556 -1555 0
-5652 1555 0
-7700 3604 6676 2580 -2579 0
-6676 2579 0
-4627 4631 0
-4632 4627 0
-4627 4635 0
-4636 4627 0
-4627 4659 0
-4660 4627 0
-5652 4627 0
-7700 5652 6676 4628 -4627 0
-6676 4627 0
-7192 3096 7188 3092 -3091 0
-7196 3100 7188 3092 -3091 0
-7220 3124 7188 3092 -3091 0
-7444 3348 7188 3092 -3091 0
-7700 3604 7188 3092 -3091 0
-7188 3091 0
-5139 5143 0
-5144 5139 0
-5152 5144 5148 5140 -5139 0
-5656 5144 5652 5140 -5139 0
-7192 5144 7188 5140 -5139 0
-5139 5147 0
-5148 5139 0
-5180 5148 5172 5140 -5139 0
-7196 5148 7188 5140 -5139 0
-5139 5171 0
-5172 5139 0
-5428 5172 5396 5140 -5139 0
-7220 5172 7188 5140 -5139 0
-5652 5139 0
-7700 5652 7188 5140 -5139 0
-7188 5139 0
-6163 6167 0
-6168 6163 0
-6176 6168 6172 6164 -6163 0
-6199 6167 6195 6163 -6162 0
-6200 6168 6196 6164 -6163 0
-6680 6168 6676 6164 -6163 0
-7192 6168 7188 6164 -6163 0
-6163 6171 0
-6172 6163 0
-6204 6172 6196 6164 -6163 0
-7196 6172 7188 6164 -6163 0
-6163 6195 0
-6196 6163 0
-7220 6196 7188 6164 -6163 0
-6676 6163 0
-7700 6676 7188 6164 -6163 0
-7188 6163 0
-5028 932 4516 420 -419 0
-5028 932 4772 676 -675 0
-675 4771 0
-4259 4263 0
-4264 4259 0
-4259 4275 0
-4276 4259 0
-4516 4259 0
-4904 808 4900 804 -803 0
-5416 1320 5412 1316 -1315 0
-5924 1828 5412 1316 -1315 0
-1315 5411 0
-6452 2356 6436 2340 -2339 0
-5684 1588 5668 1572 -1571 0
-5924 1828 5668 1572 -1571 0
-7716 3620 5668 1572 -1571 0
-5668 1571 0
-7716 3620 6692 2596 -2595 0
-6692 2595 0
-4643 4647 0
-4643 4651 0
-4643 4659 0
-4660 4643 0
-4643 4899 0
-5668 4643 0
-7716 5668 6692 4644 -4643 0
-6692 4643 0
-7208 3112 7204 3108 -3107 0
-7212 3116 7204 3108 -3107 0
-7220 3124 7204 3108 -3107 0
-7716 3620 7204 3108 -3107 0
-7204 3107 0
-5155 5159 0
-5160 5155 0
-5168 5160 5164 5156 -5155 0
-5176 5160 5172 5156 -5155 0
-7208 5160 7204 5156 -5155 0
-5155 5163 0
-5164 5155 0
-5180 5164 5172 5156 -5155 0
-7212 5164 7204 5156 -5155 0
-5155 5171 0
-5172 5155 0
-7220 5172 7204 5156 -5155 0
-5796 5284 5668 5156 -5155 0
-5412 5155 0
-5668 5155 0
-7716 5668 7204 5156 -5155 0
-7204 5155 0
-6179 6183 0
-6184 6179 0
-6192 6184 6188 6180 -6179 0
-6200 6184 6196 6180 -6179 0
-6312 6184 6308 6180 -6179 0
-7208 6184 7204 6180 -6179 0
-6179 6187 0
-6188 6179 0
-6204 6188 6196 6180 -6179 0
-6700 6188 6692 6180 -6179 0
-7212 6188 7204 6180 -6179 0
-6179 6195 0
-6196 6179 0
-6708 6196 6692 6180 -6179 0
-7220 6196 7204 6180 -6179 0
-6692 6179 0
-7716 6692 7204 6180 -6179 0
-7204 6179 0
-5004 4748 4996 4740 -4739 0
-5900 1804 5892 1796 -1795 0
-5924 1828 5892 1796 -1795 0
-1795 5891 0
-4867 4871 0
-5892 4867 0
-5635 5639 0
-5635 5643 0
-5676 5644 5668 5636 -5635 0
-5635 5651 0
-5684 5652 5668 5636 -5635 0
-5908 5652 5892 5636 -5635 0
-5635 5667 0
-7684 5635 0
-6659 6663 0
-6680 6664 6676 6660 -6659 0
-6659 6667 0
-6659 6675 0
-6659 6691 0
-7684 6659 0
-7171 7175 0
-7184 7176 7180 7172 -7171 0
-7192 7176 7188 7172 -7171 0
-7208 7176 7204 7172 -7171 0
-7432 7176 7428 7172 -7171 0
-7171 7179 0
-7196 7180 7188 7172 -7171 0
-7212 7180 7204 7172 -7171 0
-7171 7187 0
-7220 7188 7204 7172 -7171 0
-7171 7203 0
-7684 7171 0
-64 4160 0
-159 4255 0
-160 4256 0
-4896 800 4384 288 -287 0
-544 4640 0
-7200 3104 5152 1056 -1055 0
-1055 5151 0
-1056 5152 0
-6688 2592 6176 2080 -2079 0
-7200 3104 6176 2080 -2079 0
-2079 6175 0
-2080 6176 0
-4128 4256 0
-4768 4256 4640 4128 -4127 0
-4128 4384 0
-4128 4640 0
-4128 5152 0
-7200 5152 6176 4128 -4127 0
-4128 6176 0
-176 4272 0
-5680 1584 5168 1072 -1071 0
-1072 5168 0
-7216 3120 6192 2096 -2095 0
-2096 6192 0
-4144 4272 0
-4144 4656 0
-4144 5168 0
-7216 5168 6192 4144 -4143 0
-4144 6192 0
-1168 5264 0
-4240 4256 0
-4240 4272 0
-6320 4272 6288 4240 -4239 0
-6432 2336 6416 2320 -2319 0
-7440 3344 6416 2320 -2319 0
-6416 4367 0
-5648 1551 0
-1552 5648 0
-4624 4640 0
-4656 4623 0
-4752 4623 0
-4624 4752 0
-4623 4879 0
-4624 4880 0
-7696 5648 6672 4624 -4623 0
-4624 6672 0
-7200 3104 7184 3088 -3087 0
-7216 3120 7184 3088 -3087 0
-7696 3600 7184 3088 -3087 0
-7184 3087 0
-3088 7184 0
-5152 5135 0
-5136 5152 0
-7200 5152 7184 5136 -5135 0
-5136 5168 0
-7216 5168 7184 5136 -5135 0
-7696 5648 7184 5136 -5135 0
-7184 5135 0
-5136 7184 0
-6176 6159 0
-6160 6176 0
-6208 6176 6192 6160 -6159 0
-7200 6176 7184 6160 -6159 0
-6192 6159 0
-6160 6192 0
-7216 6192 7184 6160 -6159 0
-6160 6416 0
-7184 6159 0
-6160 7184 0
-184 4280 0
-1080 5176 0
-6712 2616 6200 2104 -2103 0
-7224 3128 6200 2104 -2103 0
-2103 6199 0
-2104 6200 0
-4152 4280 0
-4792 4280 4664 4152 -4151 0
-4152 4408 0
-4152 4664 0
-4152 5176 0
-7224 5176 6200 4152 -4151 0
-4152 6200 0
-4248 4256 0
-792 4888 0
-5912 1816 5400 1304 -1303 0
-4376 4888 0
-1560 5656 0
-4632 4640 0
-4672 4640 4664 4632 -4631 0
-5664 4640 5656 4632 -4631 0
-4920 4664 4888 4632 -4631 0
-4632 5656 0
-7200 3104 7192 3096 -3095 0
-7224 3128 7192 3096 -3095 0
-7704 3608 7192 3096 -3095 0
-7192 3095 0
-3096 7192 0
-5152 5143 0
-5144 5152 0
-5184 5152 5176 5144 -5143 0
-5144 5176 0
-7224 5176 7192 5144 -5143 0
-7192 5143 0
-5144 7192 0
-6168 6176 0
-6208 6176 6200 6168 -6167 0
-7200 6176 7192 6168 -6167 0
-6200 6167 0
-6168 6200 0
-7224 6200 7192 6168 -6167 0
-6168 6680 0
-7192 6167 0
-6168 7192 0
-5032 936 4520 424 -423 0
-1192 5288 0
-2216 6312 0
-4264 4272 0
-4288 4272 4280 4264 -4263 0
-4264 4280 0
-4264 4520 0
-1320 5416 0
-4392 4400 0
-4416 4400 4408 4392 -4391 0
-4392 4408 0
-7720 3624 6696 2600 -2599 0
-4672 4656 4664 4648 -4647 0
-4648 4664 0
-4648 4904 0
-7216 3120 7208 3112 -3111 0
-7224 3128 7208 3112 -3111 0
-7720 3624 7208 3112 -3111 0
-7208 3111 0
-3112 7208 0
-5168 5159 0
-5160 5168 0
-5160 5176 0
-7224 5176 7208 5160 -5159 0
-5159 5415 0
-7720 5672 7208 5160 -5159 0
-5160 7208 0
-6192 6183 0
-6184 6192 0
-6208 6192 6200 6184 -6183 0
-7216 6192 7208 6184 -6183 0
-6200 6183 0
-6184 6200 0
-7224 6200 7208 6184 -6183 0
-7208 6183 0
-6184 7208 0
-5008 912 5000 904 -903 0
-3208 7304 0
-6280 6312 0
-7336 6312 7304 6280 -6279 0
-5384 5400 0
-6408 7432 0
-5639 5647 0
-5640 5648 0
-5664 5648 5656 5640 -5639 0
-5640 5656 0
-5912 5656 5896 5640 -5639 0
-5640 5672 0
-6664 6672 0
-6664 6680 0
-6712 6680 6696 6664 -6663 0
-6664 6696 0
-7175 7183 0
-7176 7184 0
-7200 7184 7192 7176 -7175 0
-7216 7184 7208 7176 -7175 0
-7175 7191 0
-7176 7192 0
-7224 7192 7208 7176 -7175 0
-7175 7207 0
-7176 7208 0
-7464 7208 7432 7176 -7175 0
-188 4284 0
-4924 828 4668 572 -571 0
-5692 1596 4668 572 -571 0
-572 4668 0
-1083 5179 0
-1084 5180 0
-6716 2620 6204 2108 -2107 0
-7228 3132 6204 2108 -2107 0
-2107 6203 0
-2108 6204 0
-4156 4284 0
-6332 4284 6204 4156 -4155 0
-4156 4412 0
-6716 4668 6204 4156 -4155 0
-4156 5180 0
-7228 5180 6204 4156 -4155 0
-4156 6204 0
-4288 4256 4284 4252 -4251 0
-4252 4284 0
-5532 4508 5276 4252 -4251 0
-4380 4384 0
-4896 4384 4892 4380 -4379 0
-4380 4412 0
-4924 4412 4892 4380 -4379 0
-5020 4508 4892 4380 -4379 0
-7708 3612 6684 2588 -2587 0
-4668 4635 0
-4636 4668 0
-4636 4764 0
-4636 5660 0
-7228 3132 7196 3100 -3099 0
-7708 3612 7196 3100 -3099 0
-7196 3099 0
-3100 7196 0
-5152 5147 0
-5148 5152 0
-5184 5152 5180 5148 -5147 0
-5148 5180 0
-7228 5180 7196 5148 -5147 0
-7196 5147 0
-5148 7196 0
-6176 6171 0
-6172 6176 0
-6208 6176 6204 6172 -6171 0
-6304 6176 6300 6172 -6171 0
-7200 6176 7196 6172 -6171 0
-6204 6171 0
-6172 6204 0
-7228 6204 7196 6172 -6171 0
-7196 6171 0
-6172 7196 0
-428 4524 0
-4268 4272 0
-4268 4284 0
-812 4908 0
-4396 4400 0
-4396 4412 0
-5676 1579 0
-7724 3628 6700 2604 -2603 0
-2604 6700 0
-4656 4651 0
-4652 4656 0
-4912 4656 4908 4652 -4651 0
-4652 4668 0
-4924 4668 4908 4652 -4651 0
-4652 4908 0
-7724 5676 6700 4652 -4651 0
-6700 4651 0
-4652 6700 0
-7216 3120 7212 3116 -3115 0
-7228 3132 7212 3116 -3115 0
-7724 3628 7212 3116 -3115 0
-7212 3115 0
-3116 7212 0
-5168 5163 0
-5164 5168 0
-5164 5180 0
-7228 5180 7212 5164 -5163 0
-5164 5676 0
-5164 7212 0
-6188 6192 0
-6208 6192 6204 6188 -6187 0
-7216 6192 7212 6188 -6187 0
-6188 6204 0
-7228 6204 7212 6188 -6187 0
-6188 6444 0
-7724 6700 7212 6188 -6187 0
-7212 6187 0
-6188 7212 0
-5008 4752 5004 4748 -4747 0
-4748 5004 0
-6412 6416 0
-5644 5648 0
-5644 5660 0
-5643 5675 0
-5644 5676 0
-5644 5900 0
-6668 6672 0
-6668 6684 0
-6668 6700 0
-7180 7184 0
-7200 7184 7196 7180 -7179 0
-7216 7184 7212 7180 -7179 0
-7179 7195 0
-7180 7196 0
-7228 7196 7212 7180 -7179 0
-7180 7212 0
-5044 948 4788 692 -691 0
-691 4787 0
-692 4788 0
-2228 6324 0
-4276 4280 0
-4288 4280 4284 4276 -4275 0
-6328 4280 6324 4276 -4275 0
-4276 4284 0
-4788 4275 0
-4404 4916 0
-4404 5428 0
-7732 3636 6708 2612 -2611 0
-2612 6708 0
-4660 4668 0
-4660 5684 0
-7224 3128 7220 3124 -3123 0
-7228 3132 7220 3124 -3123 0
-7732 3636 7220 3124 -3123 0
-7220 3123 0
-3124 7220 0
-5176 5171 0
-5172 5176 0
-7224 5176 7220 5172 -5171 0
-5172 5180 0
-7228 5180 7220 5172 -5171 0
-5172 5428 0
-5172 5684 0
-7732 5684 7220 5172 -5171 0
-5172 7220 0
-6200 6195 0
-6196 6200 0
-6208 6200 6204 6196 -6195 0
-7224 6200 7220 6196 -6195 0
-6204 6195 0
-6196 6204 0
-7228 6204 7220 6196 -6195 0
-6196 6452 0
-7220 6195 0
-6196 7220 0
-5044 4788 5012 4756 -4755 0
-1812 5908 0
-4884 4892 0
-5396 5908 0
-6420 6428 0
-7452 6428 7444 6420 -6419 0
-5652 5656 0
-5652 5660 0
-5652 5684 0
-6676 6680 0
-6676 6684 0
-6676 6708 0
-7188 7192 0
-7200 7192 7196 7188 -7187 0
-7224 7192 7220 7188 -7187 0
-7188 7196 0
-7228 7196 7220 7188 -7187 0
-7187 7219 0
-7188 7220 0
-4772 4780 0
-6052 5028 5796 4772 -4771 0
-5284 5292 0
-6308 6324 0
-4912 4904 4908 4900 -4899 0
-4900 5028 0
-5928 5416 5924 5412 -5411 0
-6436 6444 0
-5668 5672 0
-5668 5676 0
-5668 5684 0
-6692 6696 0
-6692 6700 0
-6692 6708 0
-7204 7208 0
-7216 7208 7212 7204 -7203 0
-7224 7208 7220 7204 -7203 0
-7204 7212 0
-7228 7212 7220 7204 -7203 0
-7204 7220 0
-4996 5000 0
-4996 5004 0
-4996 5028 0
-5892 5908 0
-5940 5908 5924 5892 -5891 0
-5892 5924 0
-7428 7444 0
-7684 7688 0
-7684 7692 0
-7684 7700 0
-7684 7716 0
-192 4288 0
-320 4416 0
-576 4672 0
-1088 5184 0
-2112 6208 0
-672 4768 0
-4256 6304 0
-4384 6432 0
-1568 5664 0
-7712 3616 6688 2592 -2591 0
-3104 7200 0
-5152 5664 0
-5152 7200 0
-6176 7200 0
-816 4912 0
-3120 7216 0
-5168 7216 0
-6192 6320 0
-6192 7216 0
-4752 5008 0
-4880 4896 0
-4880 5008 0
-5648 5680 0
-7184 7200 0
-7232 7200 7216 7184 -7183 0
-7184 7216 0
-7184 7440 0
-696 4792 0
-2232 6328 0
-824 4920 0
-3128 7224 0
-5176 5688 0
-5176 7224 0
-6200 6328 0
-6200 6712 0
-6200 7224 0
-1816 5912 0
-7192 7200 0
-7192 7224 0
-5040 944 5032 936 -935 0
-7848 3752 7336 3240 -3239 0
-7976 5928 7464 5416 -5415 0
-6696 6712 0
-7208 7216 0
-7208 7224 0
-7208 7336 0
-3848 7944 0
-7688 7696 0
-7688 7704 0
-7688 7720 0
-7688 7816 0
-828 4924 0
-7740 3644 5692 1596 -1595 0
-3132 7228 0
-5180 7228 0
-6204 7228 0
-924 5020 0
-1436 5532 0
-6300 6332 0
-4892 4896 0
-7196 7200 0
-7196 7228 0
-7196 7452 0
-4908 4912 0
-4908 4924 0
-6700 6716 0
-7212 7228 0
-7692 7708 0
-7692 7724 0
-948 5044 0
-5428 5940 0
-7220 7224 0
-7232 7224 7228 7220 -7219 0
-7220 7228 0
-5908 5912 0
-7700 7732 0
-1956 6052 0
-5028 5044 0
-5184 7232 0
-4912 5040 0
-7704 7712 0
-7816 7848 0
-7944 7976 0
-7724 7740 0
-8194 0
-8199 0
-8203 0
-8211 0
-8227 0
-9219 0
-10243 0
-12291 0
-8208 0
-8216 0
-8232 0
-8456 0
-9224 0
-10248 0
-12296 0
-8220 0
-8236 0
-8460 0
-9228 0
-10252 0
-12300 0
-8244 0
-8468 0
-8724 0
-9236 0
-10260 0
-12308 0
-8484 0
-9252 0
-10276 0
-12324 0
-9732 0
-10756 0
-11268 0
-13316 0
-14340 0
-8454 262 8198 6 -5 0
-9222 1030 8198 6 -5 0
-10246 2054 8198 6 -5 0
-12294 4102 8198 6 -5 0
-8458 266 8202 10 -9 0
-9226 1034 8202 10 -9 0
-10250 2058 8202 10 -9 0
-12298 4106 8202 10 -9 0
-8466 274 8210 18 -17 0
-9234 1042 8210 18 -17 0
-12306 4114 8210 18 -17 0
-8482 290 8226 34 -33 0
-9250 1058 8226 34 -33 0
-10274 2082 8226 34 -33 0
-12322 4130 8226 34 -33 0
-8206 8198 8202 8194 -8193 0
-8214 8198 8210 8194 -8193 0
-8230 8198 8226 8194 -8193 0
-8242 8210 8226 8194 -8193 0
-9218 8193 0
-8463 271 8207 15 -14 0
-9231 1039 8207 15 -14 0
-10255 2063 8207 15 -14 0
-12303 4111 8207 15 -14 0
-14 8206 0
-9239 1047 8215 23 -22 0
-10263 2071 8215 23 -22 0
-12311 4119 8215 23 -22 0
-22 8214 0
-8487 295 8231 39 -38 0
-9255 1063 8231 39 -38 0
-10279 2087 8231 39 -38 0
-12327 4135 8231 39 -38 0
-38 8230 0
-8455 262 0
-11271 3079 9223 1031 -1030 0
-13319 5127 9223 1031 -1030 0
-9223 1030 0
-10255 2063 10247 2055 -2054 0
-10263 2071 10247 2055 -2054 0
-11271 3079 10247 2055 -2054 0
-14343 6151 10247 2055 -2054 0
-10247 2054 0
-12303 4111 12295 4103 -4102 0
-12311 4119 12295 4103 -4102 0
-12327 4135 12295 4103 -4102 0
-13319 5127 12295 4103 -4102 0
-14343 6151 12295 4103 -4102 0
-12295 4102 0
-8207 8198 0
-8223 8207 8215 8199 -8198 0
-8239 8207 8231 8199 -8198 0
-10255 8207 10247 8199 -8198 0
-12303 8207 12295 8199 -8198 0
-8215 8198 0
-8247 8215 8231 8199 -8198 0
-10263 8215 10247 8199 -8198 0
-12311 8215 12295 8199 -8198 0
-8231 8198 0
-10279 8231 10247 8199 -8198 0
-12327 8231 12295 8199 -8198 0
-8455 8198 0
-9223 8198 0
-13319 9223 12295 8199 -8198 0
-10247 8198 0
-14343 10247 12295 8199 -8198 0
-12295 8198 0
-8475 283 8219 27 -26 0
-9243 1051 8219 27 -26 0
-10267 2075 8219 27 -26 0
-12315 4123 8219 27 -26 0
-26 8218 0
-10283 2091 8235 43 -42 0
-12331 4139 8235 43 -42 0
-42 8234 0
-11275 3083 9227 1035 -1034 0
-13323 5131 9227 1035 -1034 0
-9227 1034 0
-10255 2063 10251 2059 -2058 0
-10267 2075 10251 2059 -2058 0
-11275 3083 10251 2059 -2058 0
-14347 6155 10251 2059 -2058 0
-10251 2058 0
-12303 4111 12299 4107 -4106 0
-12315 4123 12299 4107 -4106 0
-12331 4139 12299 4107 -4106 0
-13323 5131 12299 4107 -4106 0
-14347 6155 12299 4107 -4106 0
-12299 4106 0
-8207 8202 0
-8223 8207 8219 8203 -8202 0
-8239 8207 8235 8203 -8202 0
-12303 8207 12299 8203 -8202 0
-8219 8202 0
-8251 8219 8235 8203 -8202 0
-10267 8219 10251 8203 -8202 0
-12315 8219 12299 8203 -8202 0
-8235 8202 0
-10283 8235 10251 8203 -8202 0
-12331 8235 12299 8203 -8202 0
-8459 8202 0
-9227 8202 0
-13323 9227 12299 8203 -8202 0
-10251 8202 0
-14347 10251 12299 8203 -8202 0
-12299 8202 0
-8499 307 8243 51 -50 0
-9267 1075 8243 51 -50 0
-10291 2099 8243 51 -50 0
-12339 4147 8243 51 -50 0
-50 8242 0
-8499 307 8467 275 -274 0
-8467 274 0
-8979 787 8723 531 -530 0
-12819 4627 8723 531 -530 0
-11283 3091 9235 1043 -1042 0
-13331 5139 9235 1043 -1042 0
-9235 1042 0
-10263 2071 10259 2067 -2066 0
-10267 2075 10259 2067 -2066 0
-11283 3091 10259 2067 -2066 0
-14355 6163 10259 2067 -2066 0
-10259 2066 0
-12311 4119 12307 4115 -4114 0
-12315 4123 12307 4115 -4114 0
-12339 4147 12307 4115 -4114 0
-13331 5139 12307 4115 -4114 0
-14355 6163 12307 4115 -4114 0
-12307 4114 0
-8215 8210 0
-8223 8215 8219 8211 -8210 0
-8247 8215 8243 8211 -8210 0
-10263 8215 10259 8211 -8210 0
-12311 8215 12307 8211 -8210 0
-8219 8210 0
-8251 8219 8243 8211 -8210 0
-10267 8219 10259 8211 -8210 0
-12315 8219 12307 8211 -8210 0
-8243 8210 0
-10291 8243 10259 8211 -8210 0
-12339 8243 12307 8211 -8210 0
-8467 8210 0
-8723 8210 0
-9235 8210 0
-11283 9235 10259 8211 -8210 0
-13331 9235 12307 8211 -8210 0
-10259 8210 0
-14355 10259 12307 8211 -8210 0
-12307 8210 0
-8483 290 0
-9255 1063 9251 1059 -1058 0
-11299 3107 9251 1059 -1058 0
-13347 5155 9251 1059 -1058 0
-9251 1058 0
-11299 3107 10275 2083 -2082 0
-14371 6179 10275 2083 -2082 0
-10275 2082 0
-12327 4135 12323 4131 -4130 0
-12331 4139 12323 4131 -4130 0
-12339 4147 12323 4131 -4130 0
-13347 5155 12323 4131 -4130 0
-14371 6179 12323 4131 -4130 0
-12323 4130 0
-8231 8226 0
-8239 8231 8235 8227 -8226 0
-8247 8231 8243 8227 -8226 0
-10279 8231 10275 8227 -8226 0
-12327 8231 12323 8227 -8226 0
-8235 8226 0
-8251 8235 8243 8227 -8226 0
-12331 8235 12323 8227 -8226 0
-8243 8226 0
-10291 8243 10275 8227 -8226 0
-12339 8243 12323 8227 -8226 0
-8483 8226 0
-9251 8226 0
-13347 9251 12323 8227 -8226 0
-10275 8226 0
-14371 10275 12323 8227 -8226 0
-12323 8226 0
-8450 8454 0
-8450 8458 0
-8450 8466 0
-8450 8482 0
-10759 2567 10755 2563 -2562 0
-12819 4627 12803 4611 -4610 0
-9218 9222 0
-9218 9226 0
-9218 9234 0
-9218 9250 0
-9763 9251 9731 9219 -9218 0
-11267 9218 0
-10242 10246 0
-10242 10250 0
-10267 10251 10259 10243 -10242 0
-10242 10274 0
-11267 10242 0
-12290 12294 0
-12303 12295 12299 12291 -12290 0
-12311 12295 12307 12291 -12290 0
-12327 12295 12323 12291 -12290 0
-12290 12298 0
-12315 12299 12307 12291 -12290 0
-12331 12299 12323 12291 -12290 0
-12290 12306 0
-12339 12307 12323 12291 -12290 0
-12290 12322 0
-13315 12290 0
-8480 288 8224 32 -31 0
-9248 1056 8224 32 -31 0
-10272 2080 8224 32 -31 0
-12320 4128 8224 32 -31 0
-31 8223 0
-8496 304 8240 48 -47 0
-9264 1072 8240 48 -47 0
-10288 2096 8240 48 -47 0
-12336 4144 8240 48 -47 0
-47 8239 0
-8496 304 8464 272 -271 0
-8464 271 0
-8736 544 8720 528 -527 0
-8976 784 8720 528 -527 0
-9744 1552 8720 528 -527 0
-9248 1056 9232 1040 -1039 0
-13327 5135 9231 1039 -1038 0
-1039 9231 0
-9232 1039 0
-10272 2080 10256 2064 -2063 0
-10288 2096 10256 2064 -2063 0
-11280 3088 10256 2064 -2063 0
-14352 6160 10256 2064 -2063 0
-2063 10255 0
-10256 2063 0
-12320 4128 12304 4112 -4111 0
-12336 4144 12304 4112 -4111 0
-13328 5136 12304 4112 -4111 0
-14351 6159 12303 4111 -4110 0
-14352 6160 12304 4112 -4111 0
-4111 12303 0
-12304 4111 0
-8224 8207 0
-8256 8224 8240 8208 -8207 0
-10272 8224 10256 8208 -8207 0
-12320 8224 12304 8208 -8207 0
-8240 8207 0
-8496 8240 8464 8208 -8207 0
-9264 8240 9232 8208 -8207 0
-10288 8240 10256 8208 -8207 0
-12336 8240 12304 8208 -8207 0
-8207 8463 0
-9488 8464 9232 8208 -8207 0
-8720 8207 0
-8207 9231 0
-11279 9231 10255 8207 -8206 0
-13328 9232 12304 8208 -8207 0
-8207 10255 0
-10256 8207 0
-14351 10255 12303 8207 -8206 0
-14352 10256 12304 8208 -8207 0
-8207 12303 0
-12304 8207 0
-8504 312 8248 56 -55 0
-8760 568 8248 56 -55 0
-9272 1080 8248 56 -55 0
-10296 2104 8248 56 -55 0
-12344 4152 8248 56 -55 0
-55 8247 0
-9496 1304 8472 280 -279 0
-10520 2328 8472 280 -279 0
-8472 279 0
-8728 535 0
-11287 3095 9239 1047 -1046 0
-13336 5144 9240 1048 -1047 0
-9240 1047 0
-10272 2080 10264 2072 -2071 0
-10296 2104 10264 2072 -2071 0
-11288 3096 10264 2072 -2071 0
-14360 6168 10264 2072 -2071 0
-10264 2071 0
-12320 4128 12312 4120 -4119 0
-12344 4152 12312 4120 -4119 0
-13336 5144 12312 4120 -4119 0
-14360 6168 12312 4120 -4119 0
-4119 12311 0
-12312 4119 0
-8224 8215 0
-8256 8224 8248 8216 -8215 0
-10272 8224 10264 8216 -8215 0
-12320 8224 12312 8216 -8215 0
-8248 8215 0
-9272 8248 9240 8216 -8215 0
-10296 8248 10264 8216 -8215 0
-12344 8248 12312 8216 -8215 0
-8472 8215 0
-9752 8728 9240 8216 -8215 0
-8215 9239 0
-9240 8215 0
-11288 9240 10264 8216 -8215 0
-13335 9239 12311 8215 -8214 0
-13336 9240 12312 8216 -8215 0
-8215 10263 0
-10264 8215 0
-14360 10264 12312 8216 -8215 0
-8215 12311 0
-12312 8215 0
-8504 312 8488 296 -295 0
-8488 295 0
-8744 551 0
-11303 3111 9255 1063 -1062 0
-11304 3112 9256 1064 -1063 0
-9256 1063 0
-10288 2096 10280 2088 -2087 0
-10296 2104 10280 2088 -2087 0
-11303 3111 10279 2087 -2086 0
-11304 3112 10280 2088 -2087 0
-14376 6184 10280 2088 -2087 0
-2087 10279 0
-10280 2087 0
-12336 4144 12328 4136 -4135 0
-12344 4152 12328 4136 -4135 0
-13352 5160 12328 4136 -4135 0
-14376 6184 12328 4136 -4135 0
-4135 12327 0
-12328 4135 0
-8240 8231 0
-8256 8240 8248 8232 -8231 0
-9264 8240 9256 8232 -8231 0
-10288 8240 10280 8232 -8231 0
-12336 8240 12328 8232 -8231 0
-8248 8231 0
-9272 8248 9256 8232 -8231 0
-10296 8248 10280 8232 -8231 0
-12344 8248 12328 8232 -8231 0
-8231 8487 0
-8488 8231 0
-12584 8488 12328 8232 -8231 0
-12840 8744 12328 8232 -8231 0
-8231 9255 0
-9256 8231 0
-11304 9256 10280 8232 -8231 0
-13352 9256 12328 8232 -8231 0
-8231 10279 0
-10280 8231 0
-14376 10280 12328 8232 -8231 0
-8231 12327 0
-12328 8231 0
-8455 8463 0
-9736 1543 0
-10760 2567 0
-15368 7176 11272 3080 -3079 0
-11272 3079 0
-15368 7176 13320 5128 -5127 0
-13320 5127 0
-9232 9223 0
-9223 9239 0
-9223 9255 0
-11272 9223 0
-15368 11272 13320 9224 -9223 0
-13320 9223 0
-14352 6160 14344 6152 -6151 0
-14360 6168 14344 6152 -6151 0
-14376 6184 14344 6152 -6151 0
-15368 7176 14344 6152 -6151 0
-14344 6151 0
-10247 10255 0
-10256 10247 0
-10272 10256 10264 10248 -10247 0
-10288 10256 10280 10248 -10247 0
-11280 10256 11272 10248 -10247 0
-14352 10256 14344 10248 -10247 0
-10247 10263 0
-10264 10247 0
-11288 10264 11272 10248 -10247 0
-14360 10264 14344 10248 -10247 0
-10247 10279 0
-10280 10247 0
-14376 10280 14344 10248 -10247 0
-10247 10759 0
-11272 10247 0
-15368 11272 14344 10248 -10247 0
-14344 10247 0
-12295 12303 0
-12304 12295 0
-12319 12303 12311 12295 -12294 0
-12320 12304 12312 12296 -12295 0
-12335 12303 12327 12295 -12294 0
-12336 12304 12328 12296 -12295 0
-14352 12304 14344 12296 -12295 0
-12295 12311 0
-12312 12295 0
-12343 12311 12327 12295 -12294 0
-12344 12312 12328 12296 -12295 0
-14360 12312 14344 12296 -12295 0
-12295 12327 0
-12328 12295 0
-14376 12328 14344 12296 -12295 0
-13320 12295 0
-15368 13320 14344 12296 -12295 0
-14344 12295 0
-8508 316 8252 60 -59 0
-8764 572 8252 60 -59 0
-9276 1084 8252 60 -59 0
-10300 2108 8252 60 -59 0
-12348 4156 8252 60 -59 0
-59 8251 0
-8476 283 0
-8736 544 8732 540 -539 0
-9248 1056 9244 1052 -1051 0
-11292 3100 9244 1052 -1051 0
-9244 1051 0
-10272 2080 10268 2076 -2075 0
-10300 2108 10268 2076 -2075 0
-11292 3100 10268 2076 -2075 0
-14364 6172 10268 2076 -2075 0
-2075 10267 0
-10268 2075 0
-12320 4128 12316 4124 -4123 0
-12348 4156 12316 4124 -4123 0
-13339 5147 12315 4123 -4122 0
-13340 5148 12316 4124 -4123 0
-14363 6171 12315 4123 -4122 0
-14364 6172 12316 4124 -4123 0
-4123 12315 0
-12316 4123 0
-8224 8219 0
-8256 8224 8252 8220 -8219 0
-10272 8224 10268 8220 -8219 0
-12320 8224 12316 8220 -8219 0
-8252 8219 0
-10300 8252 10268 8220 -8219 0
-12348 8252 12316 8220 -8219 0
-8476 8219 0
-12572 8476 12316 8220 -8219 0
-8219 9243 0
-9244 8219 0
-13340 9244 12316 8220 -8219 0
-8219 10267 0
-10268 8219 0
-14363 10267 12315 8219 -8218 0
-14364 10268 12316 8220 -8219 0
-8219 12315 0
-12316 8219 0
-8492 299 0
-9264 1072 9260 1068 -1067 0
-9260 1067 0
-10288 2096 10284 2092 -2091 0
-10300 2108 10284 2092 -2091 0
-11308 3116 10284 2092 -2091 0
-14380 6188 10284 2092 -2091 0
-2091 10283 0
-10284 2091 0
-12336 4144 12332 4140 -4139 0
-12348 4156 12332 4140 -4139 0
-13355 5163 12331 4139 -4138 0
-13356 5164 12332 4140 -4139 0
-14380 6188 12332 4140 -4139 0
-4139 12331 0
-12332 4139 0
-8240 8235 0
-8256 8240 8252 8236 -8235 0
-10288 8240 10284 8236 -8235 0
-12336 8240 12332 8236 -8235 0
-8252 8235 0
-10300 8252 10284 8236 -8235 0
-12348 8252 12332 8236 -8235 0
-8235 8491 0
-9516 8492 9260 8236 -8235 0
-8235 8747 0
-8748 8235 0
-10795 8747 10283 8235 -8234 0
-12844 8748 12332 8236 -8235 0
-9260 8235 0
-11308 9260 10284 8236 -8235 0
-8235 10283 0
-10284 8235 0
-14380 10284 12332 8236 -8235 0
-8235 12331 0
-12332 8235 0
-9004 812 8972 780 -779 0
-9996 1804 8972 780 -779 0
-779 8971 0
-8476 8459 0
-8972 8459 0
-11292 3100 11276 3084 -3083 0
-15372 7180 11276 3084 -3083 0
-11276 3083 0
-15372 7180 13324 5132 -5131 0
-13324 5131 0
-9227 9243 0
-11276 9227 0
-15372 11276 13324 9228 -9227 0
-13324 9227 0
-14352 6160 14348 6156 -6155 0
-14364 6172 14348 6156 -6155 0
-14380 6188 14348 6156 -6155 0
-15372 7180 14348 6156 -6155 0
-14348 6155 0
-10251 10255 0
-10256 10251 0
-10272 10256 10268 10252 -10251 0
-10288 10256 10284 10252 -10251 0
-11280 10256 11276 10252 -10251 0
-14352 10256 14348 10252 -10251 0
-10251 10267 0
-10268 10251 0
-10300 10268 10284 10252 -10251 0
-14364 10268 14348 10252 -10251 0
-10284 10251 0
-11308 10284 11276 10252 -10251 0
-14380 10284 14348 10252 -10251 0
-15372 11276 14348 10252 -10251 0
-14348 10251 0
-12299 12303 0
-12304 12299 0
-12319 12303 12315 12299 -12298 0
-12320 12304 12316 12300 -12299 0
-12336 12304 12332 12300 -12299 0
-14352 12304 14348 12300 -12299 0
-12299 12315 0
-12316 12299 0
-12347 12315 12331 12299 -12298 0
-12348 12316 12332 12300 -12299 0
-14364 12316 14348 12300 -12299 0
-12299 12331 0
-12332 12299 0
-14380 12332 14348 12300 -12299 0
-13324 12299 0
-15372 13324 14348 12300 -12299 0
-14348 12299 0
-8500 307 0
-9276 1084 9268 1076 -1075 0
-11315 3123 9267 1075 -1074 0
-9268 1075 0
-10296 2104 10292 2100 -2099 0
-10300 2108 10292 2100 -2099 0
-11316 3124 10292 2100 -2099 0
-14388 6196 10292 2100 -2099 0
-2099 10291 0
-10292 2099 0
-12344 4152 12340 4148 -4147 0
-12348 4156 12340 4148 -4147 0
-13363 5171 12339 4147 -4146 0
-13364 5172 12340 4148 -4147 0
-14387 6195 12339 4147 -4146 0
-14388 6196 12340 4148 -4147 0
-4147 12339 0
-12340 4147 0
-8248 8243 0
-8256 8248 8252 8244 -8243 0
-10296 8248 10292 8244 -8243 0
-12344 8248 12340 8244 -8243 0
-8252 8243 0
-10300 8252 10292 8244 -8243 0
-12348 8252 12340 8244 -8243 0
-8500 8243 0
-8756 8243 0
-13364 9268 12340 8244 -8243 0
-8243 10291 0
-10292 8243 0
-14388 10292 12340 8244 -8243 0
-8243 12339 0
-12340 8243 0
-8467 8475 0
-8980 8467 0
-9748 1555 0
-12828 4636 12820 4628 -4627 0
-12820 4627 0
-8760 8728 8756 8724 -8723 0
-10772 8723 0
-11288 3096 11284 3092 -3091 0
-11316 3124 11284 3092 -3091 0
-11796 3604 11284 3092 -3091 0
-15380 7188 11284 3092 -3091 0
-11284 3091 0
-13336 5144 13332 5140 -5139 0
-15380 7188 13332 5140 -5139 0
-13332 5139 0
-9248 9240 9244 9236 -9235 0
-11796 9748 11284 9236 -9235 0
-15380 11284 13332 9236 -9235 0
-13332 9235 0
-14360 6168 14356 6164 -6163 0
-14364 6172 14356 6164 -6163 0
-14388 6196 14356 6164 -6163 0
-15380 7188 14356 6164 -6163 0
-14356 6163 0
-10259 10263 0
-10264 10259 0
-10272 10264 10268 10260 -10259 0
-10296 10264 10292 10260 -10259 0
-14360 10264 14356 10260 -10259 0
-10259 10267 0
-10268 10259 0
-10300 10268 10292 10260 -10259 0
-11292 10268 11284 10260 -10259 0
-14364 10268 14356 10260 -10259 0
-10259 10291 0
-10292 10259 0
-11316 10292 11284 10260 -10259 0
-14388 10292 14356 10260 -10259 0
-11284 10259 0
-15380 11284 14356 10260 -10259 0
-14356 10259 0
-12307 12311 0
-12312 12307 0
-12320 12312 12316 12308 -12307 0
-12344 12312 12340 12308 -12307 0
-12824 12312 12820 12308 -12307 0
-14360 12312 14356 12308 -12307 0
-12307 12315 0
-12316 12307 0
-12348 12316 12340 12308 -12307 0
-13340 12316 13332 12308 -12307 0
-14364 12316 14356 12308 -12307 0
-12307 12339 0
-12340 12307 0
-14388 12340 14356 12308 -12307 0
-12307 12819 0
-12820 12307 0
-13332 12307 0
-15380 13332 14356 12308 -12307 0
-14356 12307 0
-9012 820 8996 804 -803 0
-8483 8487 0
-10020 1828 9764 1572 -1571 0
-1571 9763 0
-12844 4652 12836 4644 -4643 0
-11316 3124 11300 3108 -3107 0
-15396 7204 11300 3108 -3107 0
-11300 3107 0
-13356 5164 13348 5156 -5155 0
-15396 7204 13348 5156 -5155 0
-13348 5155 0
-9256 9251 0
-13352 9256 13348 9252 -9251 0
-13356 9260 13348 9252 -9251 0
-9764 9251 0
-11300 9251 0
-15396 11300 13348 9252 -9251 0
-13348 9251 0
-14376 6184 14372 6180 -6179 0
-14380 6188 14372 6180 -6179 0
-14388 6196 14372 6180 -6179 0
-15396 7204 14372 6180 -6179 0
-14372 6179 0
-10275 10279 0
-10280 10275 0
-10288 10280 10284 10276 -10275 0
-10296 10280 10292 10276 -10275 0
-14376 10280 14372 10276 -10275 0
-10275 10283 0
-10284 10275 0
-10300 10284 10292 10276 -10275 0
-10275 10291 0
-10292 10275 0
-14388 10292 14372 10276 -10275 0
-11300 10275 0
-15396 11300 14372 10276 -10275 0
-14372 10275 0
-12323 12327 0
-12328 12323 0
-12336 12328 12332 12324 -12323 0
-12344 12328 12340 12324 -12323 0
-14376 12328 14372 12324 -12323 0
-12323 12331 0
-12332 12323 0
-12348 12332 12340 12324 -12323 0
-14380 12332 14372 12324 -12323 0
-12323 12339 0
-12340 12323 0
-14388 12340 14372 12324 -12323 0
-12323 12835 0
-12836 12323 0
-13348 12323 0
-15396 13348 14372 12324 -12323 0
-14372 12323 0
-10020 1828 9988 1796 -1795 0
-10776 10760 10772 10756 -10755 0
-12803 12807 0
-11267 11271 0
-11288 11272 11284 11268 -11267 0
-11267 11275 0
-11267 11283 0
-11267 11299 0
-15364 11267 0
-13315 13319 0
-13328 13320 13324 13316 -13315 0
-13315 13323 0
-13315 13331 0
-13315 13347 0
-15364 13315 0
-14339 14343 0
-14352 14344 14348 14340 -14339 0
-14360 14344 14356 14340 -14339 0
-14376 14344 14372 14340 -14339 0
-14339 14347 0
-14364 14348 14356 14340 -14339 0
-14380 14348 14372 14340 -14339 0
-14339 14355 0
-14388 14356 14372 14340 -14339 0
-14339 14371 0
-15364 14339 0
-64 8256 0
-8992 800 8480 288 -287 0
-2079 10271 0
-2080 10272 0
-13344 5152 12320 4128 -4127 0
-14368 6176 12320 4128 -4127 0
-4127 12319 0
-4128 12320 0
-8224 8736 0
-8224 9248 0
-11296 9248 10272 8224 -8223 0
-8224 10272 0
-14368 10272 12320 8224 -8223 0
-8224 12320 0
-304 8496 0
-1072 9264 0
-11312 3120 10288 2096 -2095 0
-14384 6192 10288 2096 -2095 0
-2095 10287 0
-2096 10288 0
-12848 4656 12336 4144 -4143 0
-14384 6192 12336 4144 -4143 0
-4143 12335 0
-4144 12336 0
-8240 8496 0
-8240 8752 0
-11312 9264 10288 8240 -8239 0
-13360 9264 12336 8240 -8239 0
-8240 10288 0
-14384 10288 12336 8240 -8239 0
-8240 12336 0
-783 8975 0
-1296 9488 0
-15376 7184 11280 3088 -3087 0
-15376 7184 13328 5136 -5135 0
-9232 9248 0
-13344 9248 13328 9232 -9231 0
-9232 9264 0
-9232 9744 0
-13328 9231 0
-9232 13328 0
-14368 6176 14352 6160 -6159 0
-14384 6192 14352 6160 -6159 0
-15376 7184 14352 6160 -6159 0
-14352 6159 0
-6160 14352 0
-10272 10255 0
-10256 10272 0
-11296 10272 11280 10256 -10255 0
-10288 10255 0
-10256 10288 0
-10256 11280 0
-15376 11280 14352 10256 -10255 0
-14352 10255 0
-10256 14352 0
-12320 12303 0
-12304 12320 0
-12352 12320 12336 12304 -12303 0
-14368 12320 14352 12304 -12303 0
-12336 12303 0
-12304 12336 0
-14384 12336 14352 12304 -12303 0
-13328 12303 0
-15376 13328 14352 12304 -12303 0
-14352 12303 0
-12304 14352 0
-11320 3128 10296 2104 -2103 0
-14392 6200 10296 2104 -2103 0
-2104 10296 0
-13368 5176 12344 4152 -4151 0
-14392 6200 12344 4152 -4151 0
-4151 12343 0
-4152 12344 0
-8248 8504 0
-8248 8760 0
-8248 9272 0
-13368 9272 12344 8248 -8247 0
-8248 10296 0
-14392 10296 12344 8248 -8247 0
-8248 12344 0
-1560 9752 0
-11296 3104 11288 3096 -3095 0
-15384 7192 11288 3096 -3095 0
-11288 3095 0
-3096 11288 0
-15384 7192 13336 5144 -5143 0
-9248 9239 0
-9240 9272 0
-9528 9272 9496 9240 -9239 0
-15384 11288 13336 9240 -9239 0
-9240 13336 0
-14368 6176 14360 6168 -6167 0
-14392 6200 14360 6168 -6167 0
-15384 7192 14360 6168 -6167 0
-14360 6167 0
-6168 14360 0
-10272 10263 0
-10264 10272 0
-10304 10272 10296 10264 -10263 0
-10264 10296 0
-14392 10296 14360 10264 -10263 0
-10264 10520 0
-10264 10776 0
-15384 11288 14360 10264 -10263 0
-10264 14360 0
-12320 12311 0
-12312 12320 0
-12352 12320 12344 12312 -12311 0
-14368 12320 14360 12312 -12311 0
-12344 12311 0
-12312 12344 0
-14392 12344 14360 12312 -12311 0
-15384 13336 14360 12312 -12311 0
-14360 12311 0
-12312 14360 0
-13096 4904 12584 4392 -4391 0
-8488 8496 0
-8488 8504 0
-12848 4656 12840 4648 -4647 0
-4648 12840 0
-8744 8760 0
-11304 3111 0
-3112 11304 0
-15400 7208 13352 5160 -5159 0
-9256 9272 0
-11304 9255 0
-9256 11304 0
-15400 11304 13352 9256 -9255 0
-9256 13352 0
-14384 6192 14376 6184 -6183 0
-14392 6200 14376 6184 -6183 0
-15400 7208 14376 6184 -6183 0
-14376 6183 0
-6184 14376 0
-10280 10288 0
-14384 10288 14376 10280 -10279 0
-10280 10296 0
-10280 11304 0
-15400 11304 14376 10280 -10279 0
-14376 10279 0
-10280 14376 0
-12336 12327 0
-12328 12336 0
-12352 12336 12344 12328 -12327 0
-14384 12336 14376 12328 -12327 0
-12344 12327 0
-12328 12344 0
-12856 12344 12840 12328 -12327 0
-14392 12344 14376 12328 -12327 0
-12328 12840 0
-14376 12327 0
-12328 14376 0
-12808 12824 0
-12856 12824 12840 12808 -12807 0
-11271 11279 0
-11271 11287 0
-11272 11288 0
-11271 11303 0
-11272 11304 0
-13319 13327 0
-13320 13328 0
-13319 13335 0
-13320 13336 0
-13320 13352 0
-14343 14351 0
-14344 14352 0
-14368 14352 14360 14344 -14343 0
-14384 14352 14376 14344 -14343 0
-14343 14359 0
-14344 14360 0
-14392 14360 14376 14344 -14343 0
-14344 14376 0
-1083 9275 0
-11324 3132 10300 2108 -2107 0
-14396 6204 10300 2108 -2107 0
-2107 10299 0
-2108 10300 0
-13372 5180 12348 4156 -4155 0
-14396 6204 12348 4156 -4155 0
-4155 12347 0
-4156 12348 0
-8252 9276 0
-11324 9276 10300 8252 -8251 0
-13372 9276 12348 8252 -8251 0
-8252 10300 0
-14396 10300 12348 8252 -8251 0
-8252 12348 0
-4380 12572 0
-11324 3132 11292 3100 -3099 0
-15388 7196 11292 3100 -3099 0
-15388 7196 13340 5148 -5147 0
-5148 13340 0
-9280 9248 9276 9244 -9243 0
-9244 11292 0
-13340 9243 0
-14368 6176 14364 6172 -6171 0
-14396 6204 14364 6172 -6171 0
-15388 7196 14364 6172 -6171 0
-14364 6171 0
-6172 14364 0
-10268 10272 0
-10304 10272 10300 10268 -10267 0
-14368 10272 14364 10268 -10267 0
-10300 10267 0
-10268 10300 0
-11292 10267 0
-10268 11292 0
-15388 11292 14364 10268 -10267 0
-14364 10267 0
-10268 14364 0
-12320 12315 0
-12316 12320 0
-12352 12320 12348 12316 -12315 0
-14368 12320 14364 12316 -12315 0
-12348 12315 0
-12316 12348 0
-14396 12348 14364 12316 -12315 0
-13084 12572 12828 12316 -12315 0
-15388 13340 14364 12316 -12315 0
-14364 12315 0
-12316 14364 0
-1324 9516 0
-8492 8496 0
-2603 10795 0
-4652 12844 0
-8748 8764 0
-10812 8764 10796 8748 -8747 0
-12860 8764 12844 8748 -8747 0
-3116 11308 0
-15404 7212 13356 5164 -5163 0
-9260 9276 0
-9260 13356 0
-14384 6192 14380 6188 -6187 0
-15404 7212 14380 6188 -6187 0
-14380 6187 0
-6188 14380 0
-10284 10288 0
-10304 10288 10300 10284 -10283 0
-14384 10288 14380 10284 -10283 0
-10300 10283 0
-10284 10300 0
-10796 10283 0
-11308 10283 0
-10284 11308 0
-14380 10283 0
-10284 14380 0
-12336 12331 0
-12332 12336 0
-12352 12336 12348 12332 -12331 0
-14384 12336 14380 12332 -12331 0
-12348 12331 0
-12332 12348 0
-14396 12348 14380 12332 -12331 0
-13356 12331 0
-15404 13356 14380 12332 -12331 0
-14380 12331 0
-12332 14380 0
-9008 8976 9004 8972 -8971 0
-11276 11280 0
-11276 11292 0
-11275 11307 0
-11276 11308 0
-13324 13328 0
-13323 13339 0
-13323 13355 0
-13324 13356 0
-14348 14352 0
-14368 14352 14364 14348 -14347 0
-14384 14352 14380 14348 -14347 0
-14347 14363 0
-14348 14364 0
-14396 14364 14380 14348 -14347 0
-14348 14380 0
-8500 8508 0
-8756 9012 0
-11320 3128 11316 3124 -3123 0
-15412 7220 13364 5172 -5171 0
-5172 13364 0
-9268 9272 0
-9268 11316 0
-13364 9267 0
-14392 6200 14388 6196 -6195 0
-14396 6204 14388 6196 -6195 0
-15412 7220 14388 6196 -6195 0
-14388 6195 0
-6196 14388 0
-10292 10296 0
-10300 10291 0
-10292 10300 0
-11324 10300 11316 10292 -10291 0
-15412 11316 14388 10292 -10291 0
-14388 10291 0
-10292 14388 0
-12344 12339 0
-12340 12344 0
-12352 12344 12348 12340 -12339 0
-14392 12344 14388 12340 -12339 0
-12348 12339 0
-12340 12348 0
-14396 12348 14388 12340 -12339 0
-13364 12339 0
-12340 13364 0
-15412 13364 14388 12340 -12339 0
-14388 12339 0
-12340 14388 0
-11284 11288 0
-11296 11288 11292 11284 -11283 0
-11320 11288 11316 11284 -11283 0
-11284 11292 0
-11324 11292 11316 11284 -11283 0
-11804 11292 11796 11284 -11283 0
-11283 11315 0
-11284 11316 0
-11828 11316 11796 11284 -11283 0
-13332 13336 0
-13331 13363 0
-13332 13364 0
-14356 14360 0
-14368 14360 14364 14356 -14355 0
-14392 14360 14388 14356 -14355 0
-14356 14364 0
-14396 14364 14388 14356 -14355 0
-14355 14387 0
-14356 14388 0
-8996 10020 0
-12836 12844 0
-11300 11304 0
-11312 11304 11308 11300 -11299 0
-11300 11308 0
-11324 11308 11316 11300 -11299 0
-11300 11316 0
-13348 13352 0
-13348 13364 0
-14372 14376 0
-14384 14376 14380 14372 -14371 0
-14392 14376 14388 14372 -14371 0
-14372 14380 0
-14396 14380 14388 14372 -14371 0
-14372 14388 0
-9988 9996 0
-9988 10020 0
-15364 15368 0
-15364 15372 0
-15364 15380 0
-15364 15396 0
-320 8512 0
-1088 9280 0
-2112 10304 0
-4160 12352 0
-3104 11296 0
-15392 7200 13344 5152 -5151 0
-5152 13344 0
-9248 11296 0
-15392 7200 14368 6176 -6175 0
-6176 14368 0
-15392 11296 14368 10272 -10271 0
-10272 14368 0
-12320 14368 0
-8752 12848 0
-15408 7216 11312 3120 -3119 0
-3120 11312 0
-6192 14384 0
-10288 14384 0
-12336 14384 0
-9024 8992 9008 8976 -8975 0
-11280 11296 0
-13328 13360 0
-14352 14368 0
-14352 14384 0
-1336 9528 0
-4664 12856 0
-8760 12856 0
-9272 11320 0
-15416 7224 14392 6200 -6199 0
-6200 14392 0
-10296 14392 0
-15416 13368 14392 12344 -12343 0
-12344 14392 0
-11288 11320 0
-13336 13368 0
-14360 14368 0
-14400 14368 14392 14360 -14359 0
-14360 14392 0
-12840 12848 0
-12840 13096 0
-11304 11312 0
-11304 11320 0
-13352 13368 0
-14376 14384 0
-14376 14392 0
-15368 15376 0
-15368 15384 0
-15368 15400 0
-4668 12860 0
-8764 9020 0
-15420 7228 11324 3132 -3131 0
-3132 11324 0
-15420 7228 13372 5180 -5179 0
-9276 11324 0
-15420 11324 13372 9276 -9275 0
-6204 14396 0
-11836 10812 11324 10300 -10299 0
-10300 11324 0
-10300 14396 0
-12348 14396 0
-4892 13084 0
-3612 11804 0
-11292 11324 0
-13340 13344 0
-14364 14368 0
-14364 14396 0
-3628 11820 0
-11308 11312 0
-11328 11312 11324 11308 -11307 0
-14380 14384 0
-14380 14396 0
-15372 15388 0
-15372 15404 0
-3636 11828 0
-12852 12860 0
-14388 14392 0
-14388 14396 0
-15380 15412 0
-8512 9024 0
-9280 11328 0
-10304 14400 0
-15384 15392 0
-15400 15408 0
-15400 15416 0
-11820 11836 0
-15404 15420 0
-4163 0
-8259 0
-4168 0
-8264 0
-4172 0
-8268 0
-4180 0
-8276 0
-4196 0
-8292 0
-6212 0
-10308 0
-12356 0
-4166 70 4102 6 -5 0
-8262 70 8198 6 -5 0
-4170 74 4106 10 -9 0
-8266 74 8202 10 -9 0
-4178 82 4114 18 -17 0
-8274 82 8210 18 -17 0
-4194 98 4130 34 -33 0
-8290 98 8226 34 -33 0
-4175 79 4111 15 -14 0
-8271 79 8207 15 -14 0
-4183 87 4119 23 -22 0
-8279 87 8215 23 -22 0
-4199 103 4135 39 -38 0
-8295 103 8231 39 -38 0
-4175 79 4167 71 -70 0
-8271 79 8263 71 -70 0
-4183 87 4167 71 -70 0
-8279 87 8263 71 -70 0
-4199 103 4167 71 -70 0
-8295 103 8263 71 -70 0
-6215 2119 4167 71 -70 0
-10311 2119 8263 71 -70 0
-4167 70 0
-12359 4167 8263 71 -70 0
-8263 70 0
-6215 2119 6151 2055 -2054 0
-10311 2119 10247 2055 -2054 0
-4175 4111 4167 4103 -4102 0
-4183 4119 4167 4103 -4102 0
-4199 4135 4167 4103 -4102 0
-4167 4102 0
-4679 4167 4615 4103 -4102 0
-6215 4167 6151 4103 -4102 0
-12359 4167 12295 4103 -4102 0
-8271 8207 8263 8199 -8198 0
-8279 8215 8263 8199 -8198 0
-8295 8231 8263 8199 -8198 0
-8263 8198 0
-10311 8263 10247 8199 -8198 0
-12359 8263 12295 8199 -8198 0
-4187 91 4123 27 -26 0
-8283 91 8219 27 -26 0
-4203 107 4139 43 -42 0
-8299 107 8235 43 -42 0
-4175 79 4171 75 -74 0
-8271 79 8267 75 -74 0
-4187 91 4171 75 -74 0
-8283 91 8267 75 -74 0
-4203 107 4171 75 -74 0
-8299 107 8267 75 -74 0
-10315 2123 8267 75 -74 0
-4171 74 0
-12363 4171 8267 75 -74 0
-8267 74 0
-6219 2123 6155 2059 -2058 0
-10315 2123 10251 2059 -2058 0
-4175 4111 4171 4107 -4106 0
-4187 4123 4171 4107 -4106 0
-4203 4139 4171 4107 -4106 0
-4171 4106 0
-6219 4171 6155 4107 -4106 0
-8271 8207 8267 8203 -8202 0
-8283 8219 8267 8203 -8202 0
-8299 8235 8267 8203 -8202 0
-8267 8202 0
-10315 8267 10251 8203 -8202 0
-12363 8267 12299 8203 -8202 0
-4211 115 4147 51 -50 0
-8307 115 8243 51 -50 0
-4183 87 4179 83 -82 0
-8279 87 8275 83 -82 0
-4187 91 4179 83 -82 0
-8283 91 8275 83 -82 0
-4211 115 4179 83 -82 0
-8307 115 8275 83 -82 0
-6227 2131 4179 83 -82 0
-10323 2131 8275 83 -82 0
-4179 82 0
-12371 4179 8275 83 -82 0
-8275 82 0
-6227 2131 6163 2067 -2066 0
-4211 4147 4179 4115 -4114 0
-4179 4114 0
-6227 4179 6163 4115 -4114 0
-12371 4179 12307 4115 -4114 0
-8279 8215 8275 8211 -8210 0
-8283 8219 8275 8211 -8210 0
-8307 8243 8275 8211 -8210 0
-8275 8210 0
-10323 8275 10259 8211 -8210 0
-12371 8275 12307 8211 -8210 0
-4199 103 4195 99 -98 0
-8295 103 8291 99 -98 0
-8299 107 8291 99 -98 0
-4211 115 4195 99 -98 0
-8307 115 8291 99 -98 0
-10339 2147 8291 99 -98 0
-4195 98 0
-12387 4195 8291 99 -98 0
-8291 98 0
-6243 2147 6179 2083 -2082 0
-10339 2147 10275 2083 -2082 0
-4199 4135 4195 4131 -4130 0
-4203 4139 4195 4131 -4130 0
-4211 4147 4195 4131 -4130 0
-4195 4130 0
-6243 4195 6179 4131 -4130 0
-12387 4195 12323 4131 -4130 0
-8295 8231 8291 8227 -8226 0
-8299 8235 8291 8227 -8226 0
-8307 8243 8291 8227 -8226 0
-8291 8226 0
-10339 8291 10275 8227 -8226 0
-12387 8291 12323 8227 -8226 0
-6211 2114 0
-4162 4166 0
-4183 4167 4179 4163 -4162 0
-4199 4167 4195 4163 -4162 0
-4162 4170 0
-4187 4171 4179 4163 -4162 0
-4162 4178 0
-4211 4179 4195 4163 -4162 0
-4162 4194 0
-6211 4162 0
-8258 8262 0
-8271 8263 8267 8259 -8258 0
-8279 8263 8275 8259 -8258 0
-8295 8263 8291 8259 -8258 0
-8258 8266 0
-8283 8267 8275 8259 -8258 0
-8299 8267 8291 8259 -8258 0
-8258 8274 0
-8307 8275 8291 8259 -8258 0
-8258 8290 0
-10307 8258 0
-4192 96 4128 32 -31 0
-8288 96 8224 32 -31 0
-4208 112 4144 48 -47 0
-8304 112 8240 48 -47 0
-4192 96 4176 80 -79 0
-8288 96 8272 80 -79 0
-4208 112 4176 80 -79 0
-8304 112 8272 80 -79 0
-6223 2127 4175 79 -78 0
-6224 2128 4176 80 -79 0
-10320 2128 8272 80 -79 0
-79 4175 0
-4176 79 0
-12367 4175 8271 79 -78 0
-12368 4176 8272 80 -79 0
-79 8271 0
-8272 79 0
-6223 2127 6159 2063 -2062 0
-6224 2128 6160 2064 -2063 0
-10319 2127 10255 2063 -2062 0
-10320 2128 10256 2064 -2063 0
-4192 4128 4176 4112 -4111 0
-4208 4144 4176 4112 -4111 0
-4111 4175 0
-4176 4111 0
-4687 4175 4623 4111 -4110 0
-6223 4175 6159 4111 -4110 0
-6224 4176 6160 4112 -4111 0
-12368 4176 12304 4112 -4111 0
-8288 8224 8272 8208 -8207 0
-8304 8240 8272 8208 -8207 0
-8207 8271 0
-8272 8207 0
-10319 8271 10255 8207 -8206 0
-10320 8272 10256 8208 -8207 0
-12368 8272 12304 8208 -8207 0
-4216 120 4152 56 -55 0
-8312 120 8248 56 -55 0
-4192 96 4184 88 -87 0
-8288 96 8280 88 -87 0
-4216 120 4184 88 -87 0
-8312 120 8280 88 -87 0
-6232 2136 4184 88 -87 0
-10327 2135 8279 87 -86 0
-10328 2136 8280 88 -87 0
-87 4183 0
-4184 87 0
-12375 4183 8279 87 -86 0
-12376 4184 8280 88 -87 0
-87 8279 0
-8280 87 0
-6232 2136 6168 2072 -2071 0
-10328 2136 10264 2072 -2071 0
-4192 4128 4184 4120 -4119 0
-4216 4152 4184 4120 -4119 0
-4119 4183 0
-4184 4119 0
-6231 4183 6167 4119 -4118 0
-6232 4184 6168 4120 -4119 0
-12375 4183 12311 4119 -4118 0
-12376 4184 12312 4120 -4119 0
-8288 8224 8280 8216 -8215 0
-8312 8248 8280 8216 -8215 0
-8215 8279 0
-8280 8215 0
-10327 8279 10263 8215 -8214 0
-10328 8280 10264 8216 -8215 0
-12376 8280 12312 8216 -8215 0
-4208 112 4200 104 -103 0
-8304 112 8296 104 -103 0
-4216 120 4200 104 -103 0
-8312 120 8296 104 -103 0
-6248 2152 4200 104 -103 0
-10343 2151 8295 103 -102 0
-10344 2152 8296 104 -103 0
-103 4199 0
-4200 103 0
-12392 4200 8296 104 -103 0
-103 8295 0
-8296 103 0
-6247 2151 6183 2087 -2086 0
-6248 2152 6184 2088 -2087 0
-10343 2151 10279 2087 -2086 0
-4208 4144 4200 4136 -4135 0
-4216 4152 4200 4136 -4135 0
-4135 4199 0
-4200 4135 0
-6248 4200 6184 4136 -4135 0
-12392 4200 12328 4136 -4135 0
-8304 8240 8296 8232 -8231 0
-8312 8248 8296 8232 -8231 0
-8231 8295 0
-8296 8231 0
-8808 8296 8744 8232 -8231 0
-9320 8296 9256 8232 -8231 0
-10344 8296 10280 8232 -8231 0
-12392 8296 12328 8232 -8231 0
-8792 600 8776 584 -583 0
-6232 2136 6216 2120 -2119 0
-10328 2136 10312 2120 -2119 0
-6248 2152 6216 2120 -2119 0
-10344 2152 10312 2120 -2119 0
-6216 2119 0
-14408 6216 10312 2120 -2119 0
-10312 2119 0
-4167 4175 0
-4176 4167 0
-4191 4175 4183 4167 -4166 0
-4192 4176 4184 4168 -4167 0
-4208 4176 4200 4168 -4167 0
-4687 4175 4679 4167 -4166 0
-6224 4176 6216 4168 -4167 0
-12368 4176 12360 4168 -4167 0
-4167 4183 0
-4184 4167 0
-4216 4184 4200 4168 -4167 0
-12376 4184 12360 4168 -4167 0
-4167 4199 0
-4200 4167 0
-12392 4200 12360 4168 -4167 0
-4680 4167 0
-6216 4167 0
-14408 6216 12360 4168 -4167 0
-12360 4167 0
-8263 8271 0
-8272 8263 0
-8287 8271 8279 8263 -8262 0
-8288 8272 8280 8264 -8263 0
-8304 8272 8296 8264 -8263 0
-12368 8272 12360 8264 -8263 0
-8263 8279 0
-8280 8263 0
-8312 8280 8296 8264 -8263 0
-12376 8280 12360 8264 -8263 0
-8263 8295 0
-8296 8263 0
-12392 8296 12360 8264 -8263 0
-8776 8263 0
-10312 8263 0
-14408 10312 12360 8264 -8263 0
-12360 8263 0
-6232 6168 6216 6152 -6151 0
-6248 6184 6216 6152 -6151 0
-6216 6151 0
-7240 6216 7176 6152 -6151 0
-14408 6216 14344 6152 -6151 0
-10320 10256 10312 10248 -10247 0
-10312 10247 0
-14408 10312 14344 10248 -10247 0
-12368 12304 12360 12296 -12295 0
-12376 12312 12360 12296 -12295 0
-12392 12328 12360 12296 -12295 0
-12360 12295 0
-14408 12360 14344 12296 -12295 0
-4220 124 4156 60 -59 0
-8316 124 8252 60 -59 0
-4192 96 4188 92 -91 0
-8288 96 8284 92 -91 0
-4220 124 4188 92 -91 0
-8316 124 8284 92 -91 0
-4700 604 4188 92 -91 0
-6235 2139 4187 91 -90 0
-6236 2140 4188 92 -91 0
-10332 2140 8284 92 -91 0
-91 4187 0
-4188 91 0
-12379 4187 8283 91 -90 0
-12380 4188 8284 92 -91 0
-91 8283 0
-8284 91 0
-6235 2139 6171 2075 -2074 0
-10332 2140 10268 2076 -2075 0
-4192 4128 4188 4124 -4123 0
-4220 4156 4188 4124 -4123 0
-4123 4187 0
-4188 4123 0
-6235 4187 6171 4123 -4122 0
-6236 4188 6172 4124 -4123 0
-12380 4188 12316 4124 -4123 0
-8288 8224 8284 8220 -8219 0
-8316 8252 8284 8220 -8219 0
-8219 8283 0
-8284 8219 0
-10332 8284 10268 8220 -8219 0
-12379 8283 12315 8219 -8218 0
-12380 8284 12316 8220 -8219 0
-4208 112 4204 108 -107 0
-8304 112 8300 108 -107 0
-4220 124 4204 108 -107 0
-8316 124 8300 108 -107 0
-6252 2156 4204 108 -107 0
-10347 2155 8299 107 -106 0
-10348 2156 8300 108 -107 0
-107 4203 0
-4204 107 0
-12395 4203 8299 107 -106 0
-12396 4204 8300 108 -107 0
-107 8299 0
-8300 107 0
-6252 2156 6188 2092 -2091 0
-4208 4144 4204 4140 -4139 0
-4220 4156 4204 4140 -4139 0
-4139 4203 0
-4204 4139 0
-6252 4204 6188 4140 -4139 0
-12396 4204 12332 4140 -4139 0
-8304 8240 8300 8236 -8235 0
-8316 8252 8300 8236 -8235 0
-8235 8299 0
-8300 8235 0
-10348 8300 10284 8236 -8235 0
-12396 8300 12332 8236 -8235 0
-8784 592 8780 588 -587 0
-5196 1099 0
-6236 2140 6220 2124 -2123 0
-10332 2140 10316 2124 -2123 0
-6252 2156 6220 2124 -2123 0
-6220 2123 0
-14412 6220 10316 2124 -2123 0
-10316 2123 0
-4171 4175 0
-4176 4171 0
-4192 4176 4188 4172 -4171 0
-4208 4176 4204 4172 -4171 0
-6224 4176 6220 4172 -4171 0
-12368 4176 12364 4172 -4171 0
-4171 4187 0
-4188 4171 0
-4220 4188 4204 4172 -4171 0
-12380 4188 12364 4172 -4171 0
-4171 4203 0
-4204 4171 0
-12396 4204 12364 4172 -4171 0
-7244 5196 6220 4172 -4171 0
-14412 6220 12364 4172 -4171 0
-12364 4171 0
-8267 8271 0
-8272 8267 0
-8287 8271 8283 8267 -8266 0
-8288 8272 8284 8268 -8267 0
-8304 8272 8300 8268 -8267 0
-12368 8272 12364 8268 -8267 0
-8267 8283 0
-8284 8267 0
-8315 8283 8299 8267 -8266 0
-8316 8284 8300 8268 -8267 0
-12380 8284 12364 8268 -8267 0
-8267 8299 0
-8300 8267 0
-12396 8300 12364 8268 -8267 0
-8780 8267 0
-10316 8267 0
-14412 10316 12364 8268 -8267 0
-12364 8267 0
-5200 5136 5196 5132 -5131 0
-6224 6160 6220 6156 -6155 0
-6236 6172 6220 6156 -6155 0
-6252 6188 6220 6156 -6155 0
-6220 6155 0
-7244 6220 7180 6156 -6155 0
-14412 6220 14348 6156 -6155 0
-10320 10256 10316 10252 -10251 0
-10332 10268 10316 10252 -10251 0
-10316 10251 0
-14412 10316 14348 10252 -10251 0
-12368 12304 12364 12300 -12299 0
-12380 12316 12364 12300 -12299 0
-12396 12332 12364 12300 -12299 0
-12364 12299 0
-14412 12364 14348 12300 -12299 0
-4216 120 4212 116 -115 0
-8312 120 8308 116 -115 0
-4220 124 4212 116 -115 0
-8316 124 8308 116 -115 0
-6260 2164 4212 116 -115 0
-10355 2163 8307 115 -114 0
-10356 2164 8308 116 -115 0
-115 4211 0
-4212 115 0
-12403 4211 8307 115 -114 0
-12404 4212 8308 116 -115 0
-115 8307 0
-8308 115 0
-6259 2163 6195 2099 -2098 0
-6260 2164 6196 2100 -2099 0
-10355 2163 10291 2099 -2098 0
-10356 2164 10292 2100 -2099 0
-4216 4152 4212 4148 -4147 0
-4220 4156 4212 4148 -4147 0
-4147 4211 0
-4212 4147 0
-6260 4212 6196 4148 -4147 0
-12404 4212 12340 4148 -4147 0
-8312 8248 8308 8244 -8243 0
-8316 8252 8308 8244 -8243 0
-8243 8307 0
-8308 8243 0
-10355 8307 10291 8243 -8242 0
-10356 8308 10292 8244 -8243 0
-12403 8307 12339 8243 -8242 0
-12404 8308 12340 8244 -8243 0
-8796 604 8788 596 -595 0
-8820 628 8788 596 -595 0
-6740 2644 4692 596 -595 0
-5204 1107 0
-10328 2136 10324 2132 -2131 0
-10356 2164 10324 2132 -2131 0
-7252 3156 6228 2132 -2131 0
-6228 2131 0
-14420 6228 10324 2132 -2131 0
-10324 2131 0
-4179 4183 0
-4184 4179 0
-4192 4184 4188 4180 -4179 0
-4216 4184 4212 4180 -4179 0
-12376 4184 12372 4180 -4179 0
-4179 4187 0
-4188 4179 0
-4220 4188 4212 4180 -4179 0
-6236 4188 6228 4180 -4179 0
-12380 4188 12372 4180 -4179 0
-4179 4211 0
-4212 4179 0
-12404 4212 12372 4180 -4179 0
-7252 5204 6228 4180 -4179 0
-6228 4179 0
-14420 6228 12372 4180 -4179 0
-12372 4179 0
-8275 8279 0
-8280 8275 0
-8288 8280 8284 8276 -8275 0
-8311 8279 8307 8275 -8274 0
-8312 8280 8308 8276 -8275 0
-12376 8280 12372 8276 -8275 0
-8275 8283 0
-8284 8275 0
-8315 8283 8307 8275 -8274 0
-8316 8284 8308 8276 -8275 0
-12380 8284 12372 8276 -8275 0
-8275 8307 0
-8308 8275 0
-8820 8308 8788 8276 -8275 0
-12404 8308 12372 8276 -8275 0
-8788 8275 0
-10324 8275 0
-14420 10324 12372 8276 -8275 0
-12372 8275 0
-8723 8787 0
-11348 3156 11284 3092 -3091 0
-7252 5204 7188 5140 -5139 0
-6236 6172 6228 6164 -6163 0
-6260 6196 6228 6164 -6163 0
-6228 6163 0
-14420 6228 14356 6164 -6163 0
-10328 10264 10324 10260 -10259 0
-10324 10259 0
-14420 10324 14356 10260 -10259 0
-12376 12312 12372 12308 -12307 0
-12380 12316 12372 12308 -12307 0
-12404 12340 12372 12308 -12307 0
-12372 12307 0
-12884 12372 12820 12308 -12307 0
-14420 12372 14356 12308 -12307 0
-6244 2147 0
-14436 6244 10340 2148 -2147 0
-10340 2147 0
-4195 4199 0
-4200 4195 0
-4216 4200 4212 4196 -4195 0
-6248 4200 6244 4196 -4195 0
-12392 4200 12388 4196 -4195 0
-4195 4203 0
-4204 4195 0
-4220 4204 4212 4196 -4195 0
-6252 4204 6244 4196 -4195 0
-12396 4204 12388 4196 -4195 0
-4195 4211 0
-4212 4195 0
-6260 4212 6244 4196 -4195 0
-12404 4212 12388 4196 -4195 0
-13412 5220 12388 4196 -4195 0
-6244 4195 0
-14436 6244 12388 4196 -4195 0
-12388 4195 0
-8291 8295 0
-8296 8291 0
-8304 8296 8300 8292 -8291 0
-8312 8296 8308 8292 -8291 0
-12392 8296 12388 8292 -8291 0
-8291 8299 0
-8300 8291 0
-8316 8300 8308 8292 -8291 0
-10348 8300 10340 8292 -8291 0
-12396 8300 12388 8292 -8291 0
-8291 8307 0
-8308 8291 0
-12404 8308 12388 8292 -8291 0
-10340 8291 0
-14436 10340 12388 8292 -8291 0
-12388 8291 0
-7268 3172 7204 3108 -3107 0
-5220 5155 0
-6260 6196 6244 6180 -6179 0
-6244 6179 0
-14436 6244 14372 6180 -6179 0
-10340 10275 0
-14436 10340 14372 10276 -10275 0
-12392 12328 12388 12324 -12323 0
-12396 12332 12388 12324 -12323 0
-12404 12340 12388 12324 -12323 0
-12388 12323 0
-14436 12388 14372 12324 -12323 0
-4675 4679 0
-7236 3139 0
-6211 6215 0
-6248 6216 6244 6212 -6211 0
-6211 6219 0
-6236 6220 6228 6212 -6211 0
-6252 6220 6244 6212 -6211 0
-6211 6227 0
-6260 6228 6244 6212 -6211 0
-6211 6243 0
-14404 6211 0
-10307 10311 0
-10307 10315 0
-10348 10316 10340 10308 -10307 0
-10307 10323 0
-10356 10324 10340 10308 -10307 0
-10307 10339 0
-14404 10307 0
-12355 12359 0
-12368 12360 12364 12356 -12355 0
-12376 12360 12372 12356 -12355 0
-12392 12360 12388 12356 -12355 0
-12355 12363 0
-12380 12364 12372 12356 -12355 0
-12396 12364 12388 12356 -12355 0
-12355 12371 0
-12404 12372 12388 12356 -12355 0
-12355 12387 0
-14404 12355 0
-7268 7204 7236 7172 -7171 0
-6240 2144 4192 96 -95 0
-95 4191 0
-96 4192 0
-12384 4192 8288 96 -95 0
-95 8287 0
-96 8288 0
-6240 2144 6176 2080 -2079 0
-10336 2144 10272 2080 -2079 0
-4128 4192 0
-6240 4192 6176 4128 -4127 0
-12384 4192 12320 4128 -4127 0
-8224 8288 0
-9312 8288 9248 8224 -8223 0
-10336 8288 10272 8224 -8223 0
-12384 8288 12320 8224 -8223 0
-6256 2160 4208 112 -111 0
-10352 2160 8304 112 -111 0
-111 4207 0
-112 4208 0
-12400 4208 8304 112 -111 0
-111 8303 0
-112 8304 0
-6256 2160 6192 2096 -2095 0
-10352 2160 10288 2096 -2095 0
-4144 4208 0
-12400 4208 12336 4144 -4143 0
-8240 8304 0
-10352 8304 10288 8240 -8239 0
-12400 8304 12336 8240 -8239 0
-10336 2144 10320 2128 -2127 0
-7248 3152 6224 2128 -2127 0
-2128 6224 0
-14416 6224 10320 2128 -2127 0
-2128 10320 0
-4176 4192 0
-4224 4192 4208 4176 -4175 0
-6240 4192 6224 4176 -4175 0
-12384 4192 12368 4176 -4175 0
-4208 4175 0
-4176 4208 0
-6256 4208 6224 4176 -4175 0
-12400 4208 12368 4176 -4175 0
-4688 4175 0
-7248 5200 6224 4176 -4175 0
-6224 4175 0
-4176 6224 0
-14416 6224 12368 4176 -4175 0
-12368 4175 0
-4176 12368 0
-8288 8271 0
-8272 8288 0
-8320 8288 8304 8272 -8271 0
-12384 8288 12368 8272 -8271 0
-8304 8271 0
-8272 8304 0
-10352 8304 10320 8272 -8271 0
-12400 8304 12368 8272 -8271 0
-10832 8784 10320 8272 -8271 0
-10320 8271 0
-8272 10320 0
-14416 10320 12368 8272 -8271 0
-12368 8271 0
-8272 12368 0
-4623 4687 0
-6240 6176 6224 6160 -6159 0
-6256 6192 6224 6160 -6159 0
-6224 6159 0
-14416 6224 14352 6160 -6159 0
-11344 10320 11280 10256 -10255 0
-14416 10320 14352 10256 -10255 0
-12384 12320 12368 12304 -12303 0
-12400 12336 12368 12304 -12303 0
-12368 12303 0
-12304 12368 0
-14416 12368 14352 12304 -12303 0
-6264 2168 4216 120 -119 0
-119 4215 0
-120 4216 0
-12408 4216 8312 120 -119 0
-119 8311 0
-120 8312 0
-4152 4216 0
-6264 4216 6200 4152 -4151 0
-12408 4216 12344 4152 -4151 0
-8248 8312 0
-10360 8312 10296 8248 -8247 0
-12408 8312 12344 8248 -8247 0
-6232 2135 0
-2136 6232 0
-4192 4183 0
-4184 4192 0
-4224 4192 4216 4184 -4183 0
-6240 4192 6232 4184 -4183 0
-12384 4192 12376 4184 -4183 0
-4184 4216 0
-6264 4216 6232 4184 -4183 0
-12408 4216 12376 4184 -4183 0
-14424 6232 12376 4184 -4183 0
-12376 4183 0
-4184 12376 0
-8288 8279 0
-8280 8288 0
-8320 8288 8312 8280 -8279 0
-12384 8288 12376 8280 -8279 0
-8312 8279 0
-8280 8312 0
-10360 8312 10328 8280 -8279 0
-12408 8312 12376 8280 -8279 0
-14424 10328 12376 8280 -8279 0
-12376 8279 0
-8280 12376 0
-8728 8792 0
-6240 6176 6232 6168 -6167 0
-6232 6167 0
-7256 6232 7192 6168 -6167 0
-14424 6232 14360 6168 -6167 0
-10328 10263 0
-10264 10328 0
-14424 10328 14360 10264 -10263 0
-12384 12320 12376 12312 -12311 0
-12408 12344 12376 12312 -12311 0
-12376 12311 0
-12312 12376 0
-14424 12376 14360 12312 -12311 0
-8824 632 8808 616 -615 0
-6256 2160 6248 2152 -2151 0
-6248 2151 0
-2152 6248 0
-10344 2151 0
-4208 4199 0
-4200 4208 0
-4224 4208 4216 4200 -4199 0
-4200 4216 0
-12408 4216 12392 4200 -4199 0
-4200 6248 0
-14440 6248 12392 4200 -4199 0
-4200 12392 0
-8304 8295 0
-8296 8304 0
-8320 8304 8312 8296 -8295 0
-10352 8304 10344 8296 -8295 0
-12400 8304 12392 8296 -8295 0
-8312 8295 0
-8296 8312 0
-12408 8312 12392 8296 -8295 0
-8296 10344 0
-14440 10344 12392 8296 -8295 0
-12392 8295 0
-8296 12392 0
-6264 6200 6248 6184 -6183 0
-6248 6183 0
-14440 6248 14376 6184 -6183 0
-14440 10344 14376 10280 -10279 0
-12400 12336 12392 12328 -12327 0
-12408 12344 12392 12328 -12327 0
-12392 12327 0
-12328 12392 0
-14440 12392 14376 12328 -12327 0
-4679 4687 0
-6215 6223 0
-6216 6224 0
-6240 6224 6232 6216 -6215 0
-6256 6224 6248 6216 -6215 0
-6215 6231 0
-6216 6232 0
-6215 6247 0
-6216 6248 0
-10311 10319 0
-10312 10320 0
-10336 10320 10328 10312 -10311 0
-10311 10327 0
-10312 10328 0
-10311 10343 0
-10312 10344 0
-12359 12367 0
-12360 12368 0
-12384 12368 12376 12360 -12359 0
-12400 12368 12392 12360 -12359 0
-12359 12375 0
-12360 12376 0
-12408 12376 12392 12360 -12359 0
-12359 12391 0
-12360 12392 0
-10364 2172 8316 124 -123 0
-123 4219 0
-124 4220 0
-12412 4220 8316 124 -123 0
-123 8315 0
-124 8316 0
-6268 2172 6204 2108 -2107 0
-4156 4220 0
-6268 4220 6204 4156 -4155 0
-12412 4220 12348 4156 -4155 0
-8252 8316 0
-10364 8316 10300 8252 -8251 0
-12412 8316 12348 8252 -8251 0
-7260 3164 6236 2140 -2139 0
-11356 3164 10332 2140 -2139 0
-2140 6236 0
-4188 4192 0
-4224 4192 4220 4188 -4187 0
-12384 4192 12380 4188 -4187 0
-4188 4220 0
-12412 4220 12380 4188 -4187 0
-6236 4187 0
-4188 6236 0
-14428 6236 12380 4188 -4187 0
-12380 4187 0
-4188 12380 0
-8288 8283 0
-8284 8288 0
-8320 8288 8316 8284 -8283 0
-10336 8288 10332 8284 -8283 0
-12384 8288 12380 8284 -8283 0
-8316 8283 0
-8284 8316 0
-9340 8316 9308 8284 -8283 0
-12412 8316 12380 8284 -8283 0
-14428 10332 12380 8284 -8283 0
-12380 8283 0
-8284 12380 0
-5148 5212 0
-6268 6204 6236 6172 -6171 0
-14428 6236 14364 6172 -6171 0
-10268 10332 0
-14428 10332 14364 10268 -10267 0
-12384 12320 12380 12316 -12315 0
-12412 12348 12380 12316 -12315 0
-12380 12315 0
-12316 12380 0
-14428 12380 14364 12316 -12315 0
-6256 2160 6252 2156 -2155 0
-10352 2160 10348 2156 -2155 0
-14444 6252 10348 2156 -2155 0
-2156 10348 0
-4208 4203 0
-4204 4208 0
-4224 4208 4220 4204 -4203 0
-6256 4208 6252 4204 -4203 0
-4220 4203 0
-4204 4220 0
-6268 4220 6252 4204 -4203 0
-12412 4220 12396 4204 -4203 0
-4204 6252 0
-14444 6252 12396 4204 -4203 0
-4204 12396 0
-8304 8299 0
-8300 8304 0
-8320 8304 8316 8300 -8299 0
-12400 8304 12396 8300 -8299 0
-8316 8299 0
-8300 8316 0
-12412 8316 12396 8300 -8299 0
-10348 8299 0
-8300 10348 0
-14444 10348 12396 8300 -8299 0
-12396 8299 0
-8300 12396 0
-6188 6252 0
-14444 6252 14380 6188 -6187 0
-10284 10348 0
-14444 10348 14380 10284 -10283 0
-12400 12336 12396 12332 -12331 0
-12396 12331 0
-12332 12396 0
-14444 12396 14380 12332 -12331 0
-4683 4687 0
-6220 6224 0
-6256 6224 6252 6220 -6219 0
-6219 6235 0
-6220 6236 0
-6268 6236 6252 6220 -6219 0
-6220 6252 0
-10316 10320 0
-10336 10320 10332 10316 -10315 0
-10315 10331 0
-10316 10332 0
-10315 10347 0
-10316 10348 0
-12364 12368 0
-12384 12368 12380 12364 -12363 0
-12400 12368 12396 12364 -12363 0
-12363 12379 0
-12364 12380 0
-12412 12380 12396 12364 -12363 0
-12363 12395 0
-12364 12396 0
-10364 2172 10356 2164 -2163 0
-2164 6260 0
-14452 6260 10356 2164 -2163 0
-10356 2163 0
-4212 4216 0
-4224 4216 4220 4212 -4211 0
-6264 4216 6260 4212 -4211 0
-12408 4216 12404 4212 -4211 0
-4212 4220 0
-6268 4220 6260 4212 -4211 0
-12412 4220 12404 4212 -4211 0
-4212 6260 0
-14452 6260 12404 4212 -4211 0
-12404 4211 0
-4212 12404 0
-8312 8307 0
-8308 8312 0
-8320 8312 8316 8308 -8307 0
-12408 8312 12404 8308 -8307 0
-8316 8307 0
-8308 8316 0
-12412 8316 12404 8308 -8307 0
-10868 8820 10356 8308 -8307 0
-10356 8307 0
-14452 10356 12404 8308 -8307 0
-12404 8307 0
-8308 12404 0
-6260 6195 0
-14452 6260 14388 6196 -6195 0
-10292 10356 0
-14452 10356 14388 10292 -10291 0
-12408 12344 12404 12340 -12339 0
-12412 12348 12404 12340 -12339 0
-12404 12339 0
-12340 12404 0
-14452 12404 14388 12340 -12339 0
-4692 4700 0
-12892 8796 12884 8788 -8787 0
-12916 8820 12884 8788 -8787 0
-8788 12884 0
-6228 6232 0
-6240 6232 6236 6228 -6227 0
-6264 6232 6260 6228 -6227 0
-7256 6232 7252 6228 -6227 0
-6228 6236 0
-6227 6259 0
-6228 6260 0
-6228 6740 0
-10324 10328 0
-10360 10328 10356 10324 -10323 0
-10324 10332 0
-10323 10355 0
-10324 10356 0
-11860 10836 11348 10324 -10323 0
-12372 12376 0
-12384 12376 12380 12372 -12371 0
-12408 12376 12404 12372 -12371 0
-12372 12380 0
-12412 12380 12404 12372 -12371 0
-12371 12403 0
-12372 12404 0
-6244 6248 0
-6244 6252 0
-7276 6252 7268 6244 -6243 0
-6244 6260 0
-6244 7268 0
-10340 10344 0
-10340 10348 0
-10340 10356 0
-12388 12392 0
-12400 12392 12396 12388 -12387 0
-12408 12392 12404 12388 -12387 0
-12388 12396 0
-12412 12396 12404 12388 -12387 0
-12388 12404 0
-13428 13364 13412 13348 -13347 0
-7236 7240 0
-7236 7244 0
-14404 14408 0
-14404 14412 0
-14404 14420 0
-14404 14436 0
-128 4224 0
-128 8320 0
-7264 3168 6240 2144 -2143 0
-2144 6240 0
-14432 6240 10336 2144 -2143 0
-2144 10336 0
-4192 6240 0
-14432 6240 12384 4192 -4191 0
-4192 12384 0
-8288 12384 0
-6176 6240 0
-14432 10336 14368 10272 -10271 0
-12320 12384 0
-14432 12384 14368 12320 -12319 0
-7280 3184 6256 2160 -2159 0
-2160 6256 0
-14448 6256 10352 2160 -2159 0
-2160 10352 0
-4208 6256 0
-14448 6256 12400 4208 -4207 0
-4208 12400 0
-8304 10352 0
-14448 10352 12400 8304 -8303 0
-8304 12400 0
-6192 6256 0
-14448 10352 14384 10288 -10287 0
-12336 12400 0
-14448 12400 14384 12336 -12335 0
-2640 10832 0
-6224 6240 0
-6272 6240 6256 6224 -6223 0
-6224 6256 0
-10320 10336 0
-10368 10336 10352 10320 -10319 0
-10320 10352 0
-12368 12384 0
-12368 12400 0
-7184 7248 0
-4216 6264 0
-14456 6264 12408 4216 -4215 0
-4216 12408 0
-8312 8824 0
-8312 10360 0
-14456 10360 12408 8312 -8311 0
-8312 12408 0
-12344 12408 0
-6232 6240 0
-7264 6240 7256 6232 -6231 0
-6232 6264 0
-12376 12384 0
-12416 12384 12408 12376 -12375 0
-12376 12408 0
-7192 7256 0
-6248 6256 0
-10344 10352 0
-12392 12400 0
-12416 12400 12408 12392 -12391 0
-12392 12408 0
-7240 7248 0
-14408 14416 0
-14408 14424 0
-14408 14440 0
-2172 6268 0
-14460 6268 10364 2172 -2171 0
-4220 6268 0
-14460 6268 12412 4220 -4219 0
-4220 12412 0
-14460 10364 12412 8316 -8315 0
-8316 12412 0
-9276 9340 0
-6204 6268 0
-14460 10364 14396 10300 -10299 0
-12348 12412 0
-14460 12412 14396 12348 -12347 0
-9308 11356 0
-6236 6240 0
-7264 6240 7260 6236 -6235 0
-10368 10336 10364 10332 -10331 0
-10332 10364 0
-12380 12384 0
-12416 12384 12412 12380 -12379 0
-12380 12412 0
-12380 12892 0
-7788 3692 7276 3180 -3179 0
-6252 6268 0
-10348 10364 0
-12396 12400 0
-12416 12400 12412 12396 -12395 0
-12396 12412 0
-7212 7276 0
-14412 14428 0
-14412 14444 0
-7692 7756 0
-6260 6268 0
-10356 10360 0
-12404 12408 0
-12416 12408 12412 12404 -12403 0
-12404 12412 0
-12404 12916 0
-12404 13428 0
-3668 11860 0
-10836 10868 0
-11348 11356 0
-14420 14452 0
-4224 6272 0
-8320 10368 0
-8320 12416 0
-7248 7264 0
-7256 7264 0
-14424 14432 0
-14440 14448 0
-14440 14456 0
-7276 7280 0
-14444 14460 0
-7756 7788 0
-8323 0
-8328 0
-8332 0
-8340 0
-8356 0
-4292 0
-8388 0
-12420 0
-8326 134 8198 6 -5 0
-8330 138 8202 10 -9 0
-8338 146 8210 18 -17 0
-8354 162 8226 34 -33 0
-8335 143 8207 15 -14 0
-8343 151 8215 23 -22 0
-8359 167 8231 39 -38 0
-4295 199 4167 71 -70 0
-8391 199 8263 71 -70 0
-4295 199 4231 135 -134 0
-8391 199 8327 135 -134 0
-8327 134 0
-12423 4231 12295 4103 -4102 0
-8335 8207 8327 8199 -8198 0
-8343 8215 8327 8199 -8198 0
-8359 8231 8327 8199 -8198 0
-8391 8263 8327 8199 -8198 0
-8327 8198 0
-12423 8327 12295 8199 -8198 0
-8347 155 8219 27 -26 0
-8363 171 8235 43 -42 0
-4299 203 4171 75 -74 0
-8395 203 8267 75 -74 0
-8347 155 8331 139 -138 0
-8363 171 8331 139 -138 0
-4299 203 4235 139 -138 0
-8395 203 8331 139 -138 0
-12427 4235 8331 139 -138 0
-8331 138 0
-12427 4235 12299 4107 -4106 0
-8335 8207 8331 8203 -8202 0
-8347 8219 8331 8203 -8202 0
-8363 8235 8331 8203 -8202 0
-8395 8267 8331 8203 -8202 0
-8331 8202 0
-12427 8331 12299 8203 -8202 0
-8371 179 8243 51 -50 0
-4307 211 4179 83 -82 0
-8403 211 8275 83 -82 0
-8347 155 8339 147 -146 0
-8371 179 8339 147 -146 0
-4307 211 4243 147 -146 0
-8403 211 8339 147 -146 0
-8339 146 0
-4307 4179 4243 4115 -4114 0
-12435 4243 12307 4115 -4114 0
-8343 8215 8339 8211 -8210 0
-8347 8219 8339 8211 -8210 0
-8371 8243 8339 8211 -8210 0
-8403 8275 8339 8211 -8210 0
-8339 8210 0
-12435 8339 12307 8211 -8210 0
-4323 227 4195 99 -98 0
-8419 227 8291 99 -98 0
-8363 171 8355 163 -162 0
-8371 179 8355 163 -162 0
-4323 227 4259 163 -162 0
-8419 227 8355 163 -162 0
-12451 4259 8355 163 -162 0
-8355 162 0
-12451 4259 12323 4131 -4130 0
-8359 8231 8355 8227 -8226 0
-8371 8243 8355 8227 -8226 0
-8419 8291 8355 8227 -8226 0
-8355 8226 0
-12451 8355 12323 8227 -8226 0
-4291 4226 0
-8322 8326 0
-8322 8330 0
-8347 8331 8339 8323 -8322 0
-8322 8338 0
-8322 8354 0
-8387 8322 0
-8352 160 8224 32 -31 0
-8368 176 8240 48 -47 0
-4303 207 4175 79 -78 0
-4304 208 4176 80 -79 0
-8399 207 8271 79 -78 0
-8400 208 8272 80 -79 0
-8352 160 8336 144 -143 0
-8368 176 8336 144 -143 0
-4304 208 4240 144 -143 0
-8400 208 8336 144 -143 0
-143 8335 0
-8336 143 0
-4303 4175 4239 4111 -4110 0
-4304 4176 4240 4112 -4111 0
-12431 4239 12303 4111 -4110 0
-12432 4240 12304 4112 -4111 0
-8352 8224 8336 8208 -8207 0
-8368 8240 8336 8208 -8207 0
-8400 8272 8336 8208 -8207 0
-8207 8335 0
-8336 8207 0
-9360 8336 9232 8208 -8207 0
-12431 8335 12303 8207 -8206 0
-12432 8336 12304 8208 -8207 0
-8376 184 8248 56 -55 0
-4311 215 4183 87 -86 0
-4312 216 4184 88 -87 0
-8407 215 8279 87 -86 0
-8408 216 8280 88 -87 0
-8352 160 8344 152 -151 0
-8376 184 8344 152 -151 0
-4312 216 4248 152 -151 0
-8407 215 8343 151 -150 0
-8408 216 8344 152 -151 0
-151 8343 0
-8344 151 0
-4312 4184 4248 4120 -4119 0
-12439 4247 12311 4119 -4118 0
-12440 4248 12312 4120 -4119 0
-8376 8248 8344 8216 -8215 0
-8408 8280 8344 8216 -8215 0
-8215 8343 0
-8344 8215 0
-10392 8344 10264 8216 -8215 0
-12439 8343 12311 8215 -8214 0
-12440 8344 12312 8216 -8215 0
-4328 232 4200 104 -103 0
-8424 232 8296 104 -103 0
-8368 176 8360 168 -167 0
-8376 184 8360 168 -167 0
-8424 232 8360 168 -167 0
-167 8359 0
-8360 167 0
-4328 4200 4264 4136 -4135 0
-12456 4264 12328 4136 -4135 0
-8368 8240 8360 8232 -8231 0
-8376 8248 8360 8232 -8231 0
-8424 8296 8360 8232 -8231 0
-8231 8359 0
-8360 8231 0
-12455 8359 12327 8231 -8230 0
-12456 8360 12328 8232 -8231 0
-8400 208 8392 200 -199 0
-8408 216 8392 200 -199 0
-4328 232 4296 200 -199 0
-8424 232 8392 200 -199 0
-4296 199 0
-12488 4296 8392 200 -199 0
-8392 199 0
-4328 4200 4296 4168 -4167 0
-4296 4167 0
-12488 4296 12360 4168 -4167 0
-8400 8272 8392 8264 -8263 0
-8408 8280 8392 8264 -8263 0
-8424 8296 8392 8264 -8263 0
-8392 8263 0
-12488 8392 12360 8264 -8263 0
-12456 4264 12424 4232 -4231 0
-4296 4231 0
-12488 4296 12424 4232 -4231 0
-12424 4231 0
-8327 8335 0
-8336 8327 0
-8352 8336 8344 8328 -8327 0
-8400 8336 8392 8328 -8327 0
-12432 8336 12424 8328 -8327 0
-8327 8343 0
-8344 8327 0
-8376 8344 8360 8328 -8327 0
-8408 8344 8392 8328 -8327 0
-8327 8359 0
-8360 8327 0
-8424 8360 8392 8328 -8327 0
-8392 8327 0
-12488 8392 12424 8328 -8327 0
-9352 8327 0
-12424 8327 0
-12488 12360 12424 12296 -12295 0
-12424 12295 0
-8380 188 8252 60 -59 0
-4316 220 4188 92 -91 0
-8412 220 8284 92 -91 0
-8352 160 8348 156 -155 0
-8380 188 8348 156 -155 0
-8412 220 8348 156 -155 0
-8348 155 0
-12444 4252 12316 4124 -4123 0
-8352 8224 8348 8220 -8219 0
-8380 8252 8348 8220 -8219 0
-8412 8284 8348 8220 -8219 0
-8219 8347 0
-8348 8219 0
-12444 8348 12316 8220 -8219 0
-4332 236 4204 108 -107 0
-8428 236 8300 108 -107 0
-8368 176 8364 172 -171 0
-8380 188 8364 172 -171 0
-8428 236 8364 172 -171 0
-171 8363 0
-8364 171 0
-4332 4204 4268 4140 -4139 0
-12460 4268 12332 4140 -4139 0
-8368 8240 8364 8236 -8235 0
-8380 8252 8364 8236 -8235 0
-8428 8300 8364 8236 -8235 0
-8235 8363 0
-8364 8235 0
-9388 8364 9260 8236 -8235 0
-10412 8364 10284 8236 -8235 0
-12460 8364 12332 8236 -8235 0
-4304 208 4300 204 -203 0
-8400 208 8396 204 -203 0
-8412 220 8396 204 -203 0
-4332 236 4300 204 -203 0
-8428 236 8396 204 -203 0
-4300 203 0
-12492 4300 8396 204 -203 0
-8396 203 0
-4316 4188 4300 4172 -4171 0
-4300 4171 0
-12492 4300 12364 4172 -4171 0
-8400 8272 8396 8268 -8267 0
-8412 8284 8396 8268 -8267 0
-8428 8300 8396 8268 -8267 0
-8396 8267 0
-12492 8396 12364 8268 -8267 0
-4304 4240 4300 4236 -4235 0
-12492 4300 12428 4236 -4235 0
-12428 4235 0
-8331 8335 0
-8336 8331 0
-8352 8336 8348 8332 -8331 0
-8368 8336 8364 8332 -8331 0
-8400 8336 8396 8332 -8331 0
-8331 8347 0
-8348 8331 0
-8380 8348 8364 8332 -8331 0
-8412 8348 8396 8332 -8331 0
-8331 8363 0
-8364 8331 0
-8428 8364 8396 8332 -8331 0
-8396 8331 0
-12492 8396 12428 8332 -8331 0
-12428 8331 0
-12492 12364 12428 12300 -12299 0
-12428 12299 0
-4340 244 4212 116 -115 0
-8435 243 8307 115 -114 0
-8436 244 8308 116 -115 0
-8376 184 8372 180 -179 0
-8380 188 8372 180 -179 0
-8435 243 8371 179 -178 0
-8436 244 8372 180 -179 0
-8372 179 0
-4340 4212 4276 4148 -4147 0
-12468 4276 12340 4148 -4147 0
-8376 8248 8372 8244 -8243 0
-8380 8252 8372 8244 -8243 0
-8436 8308 8372 8244 -8243 0
-8243 8371 0
-8372 8243 0
-12468 8372 12340 8244 -8243 0
-8408 216 8404 212 -211 0
-8412 220 8404 212 -211 0
-8436 244 8404 212 -211 0
-4308 211 0
-12500 4308 8404 212 -211 0
-8404 211 0
-4316 4188 4308 4180 -4179 0
-4308 4179 0
-12500 4308 12372 4180 -4179 0
-8408 8280 8404 8276 -8275 0
-8412 8284 8404 8276 -8275 0
-8436 8308 8404 8276 -8275 0
-8404 8275 0
-12500 8404 12372 8276 -8275 0
-9372 1180 9364 1172 -1171 0
-12440 4248 12436 4244 -4243 0
-12436 4243 0
-8339 8343 0
-8344 8339 0
-8352 8344 8348 8340 -8339 0
-8376 8344 8372 8340 -8339 0
-8408 8344 8404 8340 -8339 0
-8339 8347 0
-8348 8339 0
-8412 8348 8404 8340 -8339 0
-12444 8348 12436 8340 -8339 0
-8339 8371 0
-8372 8339 0
-8436 8372 8404 8340 -8339 0
-8404 8339 0
-12500 8404 12436 8340 -8339 0
-9364 8339 0
-12436 8339 0
-12500 12372 12436 12308 -12307 0
-12436 12307 0
-8424 232 8420 228 -227 0
-8428 236 8420 228 -227 0
-4340 244 4324 228 -227 0
-8436 244 8420 228 -227 0
-4324 227 0
-12516 4324 8420 228 -227 0
-8420 227 0
-4328 4200 4324 4196 -4195 0
-4324 4195 0
-12516 4324 12388 4196 -4195 0
-8424 8296 8420 8292 -8291 0
-8428 8300 8420 8292 -8291 0
-8436 8308 8420 8292 -8291 0
-8420 8291 0
-12516 8420 12388 8292 -8291 0
-9396 1204 9380 1188 -1187 0
-4340 4276 4324 4260 -4259 0
-12468 4276 12452 4260 -4259 0
-12516 4324 12452 4260 -4259 0
-12452 4259 0
-8355 8359 0
-8360 8355 0
-8368 8360 8364 8356 -8355 0
-8376 8360 8372 8356 -8355 0
-8424 8360 8420 8356 -8355 0
-8355 8363 0
-8380 8364 8372 8356 -8355 0
-8428 8364 8420 8356 -8355 0
-8355 8371 0
-8372 8355 0
-8436 8372 8420 8356 -8355 0
-12468 8372 12452 8356 -8355 0
-8420 8355 0
-12516 8420 12452 8356 -8355 0
-12452 8355 0
-12456 12328 12452 12324 -12323 0
-12468 12340 12452 12324 -12323 0
-12516 12388 12452 12324 -12323 0
-12452 12323 0
-4291 4295 0
-4328 4296 4324 4292 -4291 0
-4291 4299 0
-4332 4300 4324 4292 -4291 0
-4291 4307 0
-4291 4323 0
-12484 4291 0
-8387 8391 0
-8400 8392 8396 8388 -8387 0
-8408 8392 8404 8388 -8387 0
-8424 8392 8420 8388 -8387 0
-8387 8395 0
-8412 8396 8404 8388 -8387 0
-8428 8396 8420 8388 -8387 0
-8387 8403 0
-8436 8404 8420 8388 -8387 0
-8387 8419 0
-12484 8387 0
-12419 12423 0
-12440 12424 12436 12420 -12419 0
-12419 12427 0
-12419 12435 0
-12419 12451 0
-12484 12419 0
-4320 224 4192 96 -95 0
-8416 224 8288 96 -95 0
-4320 224 4256 160 -159 0
-8416 224 8352 160 -159 0
-12448 4256 12320 4128 -4127 0
-8416 8288 8352 8224 -8223 0
-8224 8352 0
-12448 8352 12320 8224 -8223 0
-4336 240 4208 112 -111 0
-8432 240 8304 112 -111 0
-4336 240 4272 176 -175 0
-8432 240 8368 176 -175 0
-175 8367 0
-176 8368 0
-4336 4208 4272 4144 -4143 0
-12464 4272 12336 4144 -4143 0
-8432 8304 8368 8240 -8239 0
-8240 8368 0
-12464 8368 12336 8240 -8239 0
-8416 224 8400 208 -207 0
-12496 4304 8400 208 -207 0
-8400 207 0
-208 8400 0
-10448 2256 10320 2128 -2127 0
-12496 4304 12368 4176 -4175 0
-8416 8288 8400 8272 -8271 0
-8432 8304 8400 8272 -8271 0
-8400 8271 0
-8272 8400 0
-10448 8400 10320 8272 -8271 0
-12496 8400 12368 8272 -8271 0
-12496 4304 12432 4240 -4239 0
-12432 4239 0
-8336 8352 0
-8384 8352 8368 8336 -8335 0
-8368 8335 0
-8336 8368 0
-12464 8368 12432 8336 -8335 0
-8400 8335 0
-8336 8400 0
-12496 8400 12432 8336 -8335 0
-12496 12368 12432 12304 -12303 0
-4344 248 4216 120 -119 0
-8440 248 8312 120 -119 0
-8440 248 8376 184 -183 0
-12472 4280 8376 184 -183 0
-183 8375 0
-184 8376 0
-4344 4216 4280 4152 -4151 0
-8440 8312 8376 8248 -8247 0
-8248 8376 0
-12472 8376 12344 8248 -8247 0
-8416 224 8408 216 -215 0
-8440 248 8408 216 -215 0
-12504 4312 8408 216 -215 0
-8408 215 0
-216 8408 0
-4320 4192 4312 4184 -4183 0
-4312 4183 0
-12504 4312 12376 4184 -4183 0
-8416 8288 8408 8280 -8279 0
-8440 8312 8408 8280 -8279 0
-8408 8279 0
-8280 8408 0
-12504 8408 12376 8280 -8279 0
-2200 10392 0
-4248 4312 0
-12504 4312 12440 4248 -4247 0
-12440 4247 0
-4248 12440 0
-8352 8343 0
-8344 8352 0
-8344 8376 0
-8408 8343 0
-8344 8408 0
-12504 8408 12440 8344 -8343 0
-8344 12440 0
-12504 12376 12440 12312 -12311 0
-8432 240 8424 232 -231 0
-8440 248 8424 232 -231 0
-232 4328 0
-8424 231 0
-232 8424 0
-4336 4208 4328 4200 -4199 0
-4200 4328 0
-12520 4328 12392 4200 -4199 0
-8432 8304 8424 8296 -8295 0
-8440 8312 8424 8296 -8295 0
-8424 8295 0
-8296 8424 0
-12520 8424 12392 8296 -8295 0
-4264 4328 0
-12456 4263 0
-8368 8359 0
-8360 8368 0
-8384 8368 8376 8360 -8359 0
-8376 8359 0
-8360 8376 0
-8440 8376 8424 8360 -8359 0
-8424 8359 0
-8360 8424 0
-12520 8424 12456 8360 -8359 0
-8360 12456 0
-11432 3240 11304 3112 -3111 0
-9448 9320 9384 9256 -9255 0
-12520 12392 12456 12328 -12327 0
-4295 4303 0
-4296 4304 0
-4336 4304 4328 4296 -4295 0
-4295 4311 0
-4296 4312 0
-4296 4328 0
-8391 8399 0
-8392 8400 0
-8416 8400 8408 8392 -8391 0
-8432 8400 8424 8392 -8391 0
-8391 8407 0
-8392 8408 0
-8440 8408 8424 8392 -8391 0
-8392 8424 0
-12423 12431 0
-12424 12432 0
-12423 12439 0
-12424 12440 0
-12423 12455 0
-12424 12456 0
-8444 252 8316 124 -123 0
-4348 252 4284 188 -187 0
-8444 252 8380 188 -187 0
-187 8379 0
-188 8380 0
-12476 4284 12348 4156 -4155 0
-8444 8316 8380 8252 -8251 0
-8252 8380 0
-8416 224 8412 220 -219 0
-8444 252 8412 220 -219 0
-12508 4316 8412 220 -219 0
-220 8412 0
-12508 4316 12380 4188 -4187 0
-8416 8288 8412 8284 -8283 0
-8444 8316 8412 8284 -8283 0
-8412 8283 0
-8284 8412 0
-12508 8412 12380 8284 -8283 0
-4316 4251 0
-4252 4316 0
-12444 4251 0
-8348 8352 0
-8348 8380 0
-8444 8380 8412 8348 -8347 0
-9404 8380 9372 8348 -8347 0
-8412 8347 0
-8348 8412 0
-11420 3228 11292 3100 -3099 0
-12508 12380 12444 12316 -12315 0
-4336 240 4332 236 -235 0
-8432 240 8428 236 -235 0
-8444 252 8428 236 -235 0
-4332 235 0
-8428 235 0
-236 8428 0
-4336 4208 4332 4204 -4203 0
-4348 4220 4332 4204 -4203 0
-4204 4332 0
-12524 4332 12396 4204 -4203 0
-8432 8304 8428 8300 -8299 0
-8444 8316 8428 8300 -8299 0
-8428 8299 0
-8300 8428 0
-12524 8428 12396 8300 -8299 0
-8368 8363 0
-8364 8368 0
-8384 8368 8380 8364 -8363 0
-8364 8380 0
-8364 8428 0
-11436 3244 11308 3116 -3115 0
-10428 10300 10412 10284 -10283 0
-12524 12396 12460 12332 -12331 0
-4300 4304 0
-4320 4304 4316 4300 -4299 0
-4300 4316 0
-4348 4316 4332 4300 -4299 0
-4300 4332 0
-8396 8400 0
-8416 8400 8412 8396 -8395 0
-8432 8400 8428 8396 -8395 0
-8395 8411 0
-8396 8412 0
-8444 8412 8428 8396 -8395 0
-8396 8428 0
-9356 9360 0
-12428 12432 0
-12428 12444 0
-12428 12460 0
-8440 248 8436 244 -243 0
-8444 252 8436 244 -243 0
-12532 4340 8436 244 -243 0
-8436 243 0
-244 8436 0
-4344 4216 4340 4212 -4211 0
-4348 4220 4340 4212 -4211 0
-4212 4340 0
-12532 4340 12404 4212 -4211 0
-8440 8312 8436 8308 -8307 0
-8444 8316 8436 8308 -8307 0
-8436 8307 0
-8308 8436 0
-12532 8436 12404 8308 -8307 0
-8372 8376 0
-8384 8376 8380 8372 -8371 0
-8372 8380 0
-12476 8380 12468 8372 -8371 0
-8436 8371 0
-8372 8436 0
-12532 8436 12468 8372 -8371 0
-8372 9396 0
-12532 12404 12468 12340 -12339 0
-12340 12468 0
-4308 4312 0
-4320 4312 4316 4308 -4307 0
-4308 4316 0
-4308 4340 0
-8404 8408 0
-8416 8408 8412 8404 -8403 0
-8440 8408 8436 8404 -8403 0
-8404 8412 0
-8444 8412 8436 8404 -8403 0
-8403 8435 0
-8404 8436 0
-8404 9428 0
-12436 12440 0
-12448 12440 12444 12436 -12435 0
-12436 12444 0
-12436 12468 0
-11476 11348 11412 11284 -11283 0
-4324 4328 0
-4324 4332 0
-4348 4332 4340 4324 -4323 0
-4324 4340 0
-8420 8424 0
-8432 8424 8428 8420 -8419 0
-8440 8424 8436 8420 -8419 0
-8420 8428 0
-8444 8428 8436 8420 -8419 0
-8420 8436 0
-9380 9388 0
-12452 12456 0
-12452 12460 0
-12452 12468 0
-12484 12488 0
-12484 12492 0
-12484 12500 0
-12484 12516 0
-192 8384 0
-224 4320 0
-224 8416 0
-12512 4320 12384 4192 -4191 0
-8288 8416 0
-9440 8416 9312 8288 -8287 0
-12512 8416 12384 8288 -8287 0
-4256 4320 0
-12512 4320 12448 4256 -4255 0
-4256 12448 0
-8352 8416 0
-12320 12448 0
-240 4336 0
-12528 4336 8432 240 -239 0
-240 8432 0
-4208 4336 0
-12528 4336 12400 4208 -4207 0
-8304 8432 0
-12528 8432 12400 8304 -8303 0
-8368 8432 0
-12528 8432 12464 8368 -8367 0
-8368 12464 0
-4304 4320 0
-4304 4336 0
-8400 8416 0
-8400 8432 0
-10480 10352 10448 10320 -10319 0
-12432 12448 0
-12432 12464 0
-12536 4344 8440 248 -247 0
-248 8440 0
-12536 4344 12408 4216 -4215 0
-8312 8440 0
-12536 8440 12408 8312 -8311 0
-4280 4344 0
-4280 12472 0
-12536 8440 12472 8376 -8375 0
-8376 12472 0
-4312 4344 0
-8408 8416 0
-8408 8440 0
-4328 4336 0
-8424 8432 0
-8424 8440 0
-8424 9448 0
-8424 10472 0
-9384 11432 0
-12456 12464 0
-12456 12472 0
-12488 12496 0
-12488 12504 0
-12488 12520 0
-252 4348 0
-12540 4348 8444 252 -251 0
-252 8444 0
-12540 4348 12412 4220 -4219 0
-8316 8444 0
-12540 8444 12412 8316 -8315 0
-1212 9404 0
-8380 8444 0
-8380 10428 0
-12348 12476 0
-4316 4348 0
-8412 8416 0
-8448 8416 8444 8412 -8411 0
-8412 8444 0
-8428 8432 0
-8428 8444 0
-10412 11436 0
-12460 12476 0
-12492 12508 0
-12492 12524 0
-4340 4344 0
-8436 8440 0
-8436 8444 0
-9428 11476 0
-12500 12532 0
-11412 11420 0
-8320 8448 0
-12504 12512 0
-10472 10480 0
-12520 12528 0
-12520 12536 0
-12524 12540 0
-8580 0
-8519 327 8263 71 -70 0
-8583 391 8327 135 -134 0
-8519 327 8455 263 -262 0
-8583 391 8455 263 -262 0
-8519 8263 8455 8199 -8198 0
-8523 331 8267 75 -74 0
-8587 395 8331 139 -138 0
-8523 331 8459 267 -266 0
-8587 395 8459 267 -266 0
-8523 8267 8459 8203 -8202 0
-8531 339 8275 83 -82 0
-8595 403 8339 147 -146 0
-8531 339 8467 275 -274 0
-8595 403 8467 275 -274 0
-8531 8275 8467 8211 -8210 0
-8547 355 8291 99 -98 0
-8611 419 8355 163 -162 0
-8611 419 8483 291 -290 0
-8547 8291 8483 8227 -8226 0
-8515 8450 0
-8528 336 8272 80 -79 0
-8592 400 8336 144 -143 0
-8528 8272 8464 8208 -8207 0
-8536 344 8280 88 -87 0
-8600 408 8344 152 -151 0
-8536 8280 8472 8216 -8215 0
-8552 360 8296 104 -103 0
-8616 424 8360 168 -167 0
-8616 424 8488 296 -295 0
-8552 8296 8488 8232 -8231 0
-8616 8360 8488 8232 -8231 0
-8648 456 8392 200 -199 0
-8648 456 8520 328 -327 0
-8520 327 0
-8648 8392 8520 8264 -8263 0
-8520 8263 0
-8648 456 8584 392 -391 0
-8584 391 0
-8592 8336 8584 8328 -8327 0
-8600 8344 8584 8328 -8327 0
-8648 8392 8584 8328 -8327 0
-8584 8327 0
-8520 8455 0
-8648 8520 8584 8456 -8455 0
-8584 8455 0
-8539 347 8283 91 -90 0
-8540 348 8284 92 -91 0
-8604 412 8348 156 -155 0
-8540 348 8476 284 -283 0
-8540 8284 8476 8220 -8219 0
-8604 8348 8476 8220 -8219 0
-8556 364 8300 108 -107 0
-8620 428 8364 172 -171 0
-8556 8300 8492 8236 -8235 0
-8652 460 8396 204 -203 0
-8556 364 8524 332 -331 0
-8652 460 8524 332 -331 0
-8524 331 0
-8652 8396 8524 8268 -8267 0
-8524 8267 0
-8620 428 8588 396 -395 0
-8652 460 8588 396 -395 0
-8588 395 0
-8592 8336 8588 8332 -8331 0
-8604 8348 8588 8332 -8331 0
-8652 8396 8588 8332 -8331 0
-8588 8331 0
-8540 8476 8524 8460 -8459 0
-8524 8459 0
-8652 8524 8588 8460 -8459 0
-8588 8459 0
-8564 372 8308 116 -115 0
-8627 435 8371 179 -178 0
-8628 436 8372 180 -179 0
-8628 436 8500 308 -307 0
-8564 8308 8500 8244 -8243 0
-8660 468 8404 212 -211 0
-8540 348 8532 340 -339 0
-8660 468 8532 340 -339 0
-8532 339 0
-8660 8404 8532 8276 -8275 0
-8532 8275 0
-8600 408 8596 404 -403 0
-8660 468 8596 404 -403 0
-8596 403 0
-8604 8348 8596 8340 -8339 0
-8660 8404 8596 8340 -8339 0
-8596 8339 0
-8536 8472 8532 8468 -8467 0
-8532 8467 0
-8660 8532 8596 8468 -8467 0
-8596 8467 0
-4580 484 4324 228 -227 0
-8676 484 8420 228 -227 0
-8552 360 8548 356 -355 0
-8564 372 8548 356 -355 0
-8676 484 8548 356 -355 0
-8548 355 0
-8564 8308 8548 8292 -8291 0
-8676 8420 8548 8292 -8291 0
-8548 8291 0
-8620 428 8612 420 -419 0
-8676 484 8612 420 -419 0
-8612 419 0
-8620 8364 8612 8356 -8355 0
-8676 8420 8612 8356 -8355 0
-8612 8355 0
-8676 8548 8612 8484 -8483 0
-8612 8483 0
-4552 456 4548 452 -451 0
-8515 8519 0
-8515 8523 0
-8515 8531 0
-8515 8547 0
-8644 8515 0
-8579 8583 0
-8592 8584 8588 8580 -8579 0
-8600 8584 8596 8580 -8579 0
-8616 8584 8612 8580 -8579 0
-8579 8587 0
-8604 8588 8596 8580 -8579 0
-8620 8588 8612 8580 -8579 0
-8579 8595 0
-8628 8596 8612 8580 -8579 0
-8579 8611 0
-8644 8579 0
-8560 368 8304 112 -111 0
-8624 432 8368 176 -175 0
-8624 8368 8496 8240 -8239 0
-8656 464 8400 208 -207 0
-8656 8400 8528 8272 -8271 0
-8608 8352 8592 8336 -8335 0
-8656 8400 8592 8336 -8335 0
-8464 8592 0
-8568 376 8312 120 -119 0
-8632 440 8376 184 -183 0
-8664 472 8408 216 -215 0
-8664 8408 8536 8280 -8279 0
-8664 8408 8600 8344 -8343 0
-8472 8600 0
-8680 488 8424 232 -231 0
-8680 8424 8552 8296 -8295 0
-8680 8424 8616 8360 -8359 0
-8360 8616 0
-8560 8496 8552 8488 -8487 0
-8488 8616 0
-4296 4552 0
-8520 8528 0
-8520 8536 0
-8520 8552 0
-8584 8592 0
-8584 8600 0
-8583 8615 0
-8584 8616 0
-8636 444 8380 188 -187 0
-8668 476 8412 220 -219 0
-8668 8412 8540 8284 -8283 0
-8668 8412 8604 8348 -8347 0
-8348 8604 0
-12700 8604 12444 8348 -8347 0
-8540 8475 0
-8476 8604 0
-6492 6236 6428 6172 -6171 0
-8684 492 8428 236 -235 0
-8684 492 8556 364 -363 0
-8684 8428 8556 8300 -8299 0
-8684 8428 8620 8364 -8363 0
-8364 8620 0
-8560 8496 8556 8492 -8491 0
-8492 8620 0
-8524 8528 0
-8523 8539 0
-8524 8540 0
-8524 8556 0
-8588 8592 0
-8624 8592 8620 8588 -8587 0
-8588 8604 0
-8588 8620 0
-8692 500 8436 244 -243 0
-8692 500 8564 372 -371 0
-8692 8436 8564 8308 -8307 0
-8692 500 8628 436 -435 0
-8372 8628 0
-8564 8499 0
-8532 8536 0
-8532 8540 0
-8532 8564 0
-8596 8600 0
-8632 8600 8628 8596 -8595 0
-8596 8604 0
-8636 8604 8628 8596 -8595 0
-8595 8627 0
-8596 8628 0
-8548 8552 0
-8548 8556 0
-8548 8564 0
-8612 8616 0
-8612 8620 0
-8612 8628 0
-4548 4580 0
-8644 8648 0
-8644 8652 0
-8644 8660 0
-8644 8676 0
-8672 480 8416 224 -223 0
-416 8608 0
-8688 496 8432 240 -239 0
-8688 496 8560 368 -367 0
-368 8560 0
-8528 8560 0
-8592 8624 0
-8696 504 8440 248 -247 0
-440 8632 0
-8376 8632 0
-8536 8568 0
-8600 8632 0
-8616 8624 0
-8616 8632 0
-8648 8656 0
-8648 8664 0
-8648 8680 0
-380 4476 0
-8700 8444 8636 8380 -8379 0
-8380 8636 0
-6524 6268 6492 6236 -6235 0
-4508 12700 0
-8604 8636 0
-8652 8668 0
-8652 8684 0
-8660 8692 0
-8664 8672 0
-8680 8688 0
-8680 8696 0
-4476 6524 0
-8684 8700 0
-8843 651 8331 139 -138 0
-4803 4675 4739 4611 -4610 0
-9096 904 8584 392 -391 0
-9096 8584 8840 8328 -8327 0
-4936 4680 4872 4616 -4615 0
-8860 668 8348 156 -155 0
-8876 684 8364 172 -171 0
-9100 908 8588 396 -395 0
-8848 8336 8844 8332 -8331 0
-4811 4683 4747 4619 -4618 0
-9108 916 8596 404 -403 0
-8852 8339 0
-9108 916 8980 788 -787 0
-707 4803 0
-9108 916 9092 900 -899 0
-9100 8588 9092 8580 -8579 0
-9124 8612 9092 8580 -8579 0
-8840 8835 0
-8835 8843 0
-5060 4932 4996 4868 -4867 0
-9104 912 8976 784 -783 0
-4815 4687 4751 4623 -4622 0
-4944 4688 4880 4624 -4623 0
-8720 8848 0
-9128 936 8616 424 -423 0
-711 4807 0
-904 9096 0
-9104 8592 9096 8584 -8583 0
-5064 4936 5000 4872 -4871 0
-8732 8860 0
-9132 8620 8876 8364 -8363 0
-12972 12460 12844 12332 -12331 0
-715 4811 0
-908 9100 0
-9116 8604 9100 8588 -8587 0
-8844 8876 0
-5068 4940 5004 4876 -4875 0
-9112 8600 9108 8596 -8595 0
-9116 8604 9108 8596 -8595 0
-8596 9108 0
-9108 8979 0
-932 9124 0
-12980 12852 12964 12836 -12835 0
-964 5060 0
-4932 4936 0
-9092 9100 0
-9092 9108 0
-4816 4687 0
-912 9104 0
-5072 4816 5008 4752 -4751 0
-920 9112 0
-9136 8624 9128 8616 -8615 0
-968 5064 0
-4807 4815 0
-4936 4944 0
-924 9116 0
-940 9132 0
-8876 12972 0
-972 5068 0
-4940 4944 0
-9100 9104 0
-4788 12980 0
-12964 12972 0
-5064 5072 0
-9132 9136 0
-9864 9352 9736 9224 -9223 0
-9612 8588 9356 8332 -8331 0
-10116 9860 9988 9732 -9731 0
-9616 8592 9488 8464 -8463 0
-1420 9612 0
-1924 10116 0
-9860 9864 0
-1424 9616 0
-8648 9672 0
-9696 1504 9440 1248 -1247 0
-9672 9688 0
-9688 9696 0
64 0
964 0
1924 0
3844 0
7684 0
15364 0
14404 0
12484 0
8644 0
-64 -124 -244 -484 -14344 -12304 -8224 0
-96 -124 -244 -484 -932 -14344 -12304 -8224 0
-96 -220 -468 -3620 -7204 -14372 -12328 -12304 -8224 0
-96 -124 -244 -436 -932 -14344 -12304 -8272 0
-96 -220 -468 -436 -932 -1828 -3620 -14344 -12304 -8272 0
-208 -460 -1812 -3604 -3124 -6196 -14372 -12328 -12304 -8272 0
-96 -124 -188 -436 -932 -14344 -12360 -8272 0
-96 -220 -188 -436 -932 -1828 -14344 -12360 -8272 0
-96 -220 -412 -916 -932 -1828 -3620 -7204 -14344 -12360 -8272 0
-96 -220 -412 -916 -3620 -7204 -14372 -12328 -12360 -8272 0
-96 -220 -412 -916 -7204 -14372 -12328 -8296 -8272 0
-208 -460 -908 -3604 -3124 -6196 -12340 -12328 -12360 -8272 0
-208 -220 -188 -316 -820 -1828 -14344 -12360 -8392 0
-208 -460 -908 -796 -1812 -3604 -3124 -7204 -14372 -12328 -12360 -8392 0
-208 -460 -908 -1804 -7188 -6196 -12340 -8248 -8296 -8392 0
-456 -1804 -3596 -7180 -6172 -6196 -12340 -8248 -8296 -8392 0
-456 -3596 -3100 -2108 -4156 -12340 -12328 -12360 -8392 0
-456 -7180 -6172 -4156 -8252 -8248 -8296 -8392 0
-96 -64 -188 -436 -932 -12360 -8272 0
-96 -160 -412 -916 -3620 -7204 -14372 -12388 -12360 -8272 0
-96 -160 -412 -916 -7204 -14372 -12388 -8296 -8272 0
-208 -160 -188 -316 -820 -1828 -12360 -8392 0
-208 -160 -412 -796 -1812 -3620 -7204 -14372 -12388 -12360 -8392 0
-208 -160 -412 -796 -1812 -7204 -14372 -12388 -8296 -8392 0
-456 -400 -908 -796 -572 -1588 -3124 -7204 -12360 -8392 0
-456 -400 -908 -796 -1564 -3604 -7188 -7204 -14372 -12388 -8296 -8392 0
-456 -400 -908 -1804 -1564 -3604 -7188 -6196 -14372 -12388 -8296 -8392 0
-456 -400 -908 -1804 -3596 -7188 -6196 -12340 -8308 -8296 -8392 0
-456 -904 -1804 -1564 -3100 -2108 -6196 -14372 -12388 -12360 -8392 0
-456 -904 -3596 -3100 -2108 -4156 -12340 -12388 -12360 -8392 0
-456 -904 -3596 -3100 -6172 -4156 -12340 -12388 -8296 -8392 0
-456 -904 -7180 -6172 -4156 -8252 -8308 -8296 -8392 0
-208 -160 -64 -316 -820 -1828 -8392 0
-208 -160 -288 -796 -1812 -3620 -7204 -14372 -12388 -8392 0
-208 -400 -288 -796 -1812 -1588 -3620 -7204 -14372 -8392 0
-208 -400 -288 -796 -1812 -3604 -7204 -14372 -12388 -8420 -8392 0
-208 -400 -784 -1804 -3604 -3124 -6196 -12340 -12388 -8392 0
-456 -400 -288 -796 -572 -1588 -3620 -7204 -8392 0
-456 -904 -784 -1804 -1564 -3100 -7188 -6196 -14372 -12388 -8420 -8392 0
-456 -904 -1800 -1804 -3596 -7180 -6172 -6196 -12340 -8308 -8420 -8392 0
-456 -904 -1800 -7180 -6172 -4156 -8252 -8308 -8420 -8392 0
-456 -400 -288 -64 -572 -1588 -3620 0
-456 -400 -784 -544 -1564 -3604 -7188 -7204 -14372 -12388 -8420 0
-456 -904 -784 -544 -1564 -3100 -7188 -7204 -14372 -12388 -8420 0
-904 -784 -544 -64 -1084 -3124 -7204 0
-904 -784 -544 -1056 -3100 -3124 -7204 -14372 -12388 0
-904 -784 -544 -1056 -3100 -7188 -7204 -14372 -12388 -8420 0
-904 -784 -1552 -1056 -3100 -7188 -6196 -14372 -12388 -8420 0
-904 -784 -1552 -3088 -7180 -7188 -6196 -12340 -8308 -8420 0
-904 -1800 -1552 -1056 -3100 -2108 -6196 -14372 -12388 0
-904 -1800 -1552 -3088 -7180 -6172 -6196 -12340 -8308 -8420 0
-904 -1800 -3592 -3088 -7180 -6172 -4156 -12340 -8308 -8420 0
-1800 -1552 -1056 -64 -2108 -6196 -14372 0
-1800 -1552 -1056 -2080 -6172 -6196 -14372 -12388 -8420 0
-1800 -3592 -7176 -6160 -6172 -4156 -8252 -8308 -8420 0
-3592 -3088 -2080 -64 -4156 -12340 -12388 0
-3592 -3088 -2080 -4128 -4156 -12340 -12388 -8420 0
-3592 -7176 -6160 -4128 -4156 -8252 -8308 -8420 0
-7176 -6160 -4128 -64 -8252 -8308 -8420 0
-64 -124 -244 -468 -14344 -12304 -8240 0
-112 -236 -484 -1812 -3604 -7188 -14356 -14344 -12304 -8240 0
-112 -236 -484 -3604 -7188 -14356 -12312 -12304 -8240 0
-112 -236 -484 -932 -1812 -3604 -7188 -14356 -14344 -12304 -8272 0
-208 -460 -484 -932 -1828 -3620 -7188 -14356 -12312 -8224 -8272 0
-208 -460 -7204 -6196 -12340 -8248 -8224 -8272 0
-112 -124 -188 -436 -916 -14344 -12360 -8272 0
-112 -236 -428 -932 -1812 -3604 -7188 -14356 -14344 -12360 -8272 0
-208 -236 -188 -316 -820 -1812 -14344 -12360 -8392 0
-208 -236 -428 -812 -1828 -7188 -14356 -12312 -8280 -8392 0
-208 -460 -428 -812 -1828 -3620 -7188 -14356 -12312 -8280 -8392 0
-208 -460 -908 -812 -1828 -3620 -3124 -7188 -14356 -12312 -12360 -8392 0
-456 -908 -812 -572 -1084 -3124 -7188 -14344 -12360 -8392 0
-456 -1804 -1580 -3116 -2108 -6196 -14356 -12312 -12360 -8392 0
-456 -3596 -3116 -2108 -4156 -12340 -12312 -12360 -8392 0
-456 -7180 -6188 -4156 -8252 -8248 -8280 -8392 0
-112 -64 -188 -436 -916 -12360 -8272 0
-112 -176 -188 -436 -916 -1812 -12360 -8272 0
-112 -176 -428 -932 -3604 -7188 -14356 -12372 -12360 -8272 0
-208 -176 -428 -932 -820 -1812 -3604 -7188 -12360 -8272 0
-208 -176 -428 -932 -1828 -3604 -7188 -14356 -12372 -12360 -8272 0
-208 -176 -188 -316 -820 -1812 -12360 -8392 0
-208 -176 -428 -316 -820 -1812 -3604 -12360 -8392 0
-208 -176 -428 -812 -1828 -1812 -3604 -7188 -14356 -12360 -8392 0
-456 -400 -428 -316 -572 -1588 -3604 -12360 -8392 0
-456 -400 -428 -812 -572 -1588 -3604 -7188 -12360 -8392 0
-456 -400 -908 -1804 -1580 -3620 -3124 -6196 -14356 -12372 -12360 -8392 0
-456 -400 -908 -1804 -1580 -3620 -7204 -6196 -14356 -12372 -8280 -8392 0
-456 -400 -908 -1804 -3596 -3620 -3124 -6196 -12340 -12372 -12360 -8392 0
-456 -400 -908 -1804 -3596 -7204 -6196 -12340 -8308 -8280 -8392 0
-456 -904 -3596 -3116 -6188 -4156 -12340 -12372 -8280 -8392 0
-456 -904 -7180 -6188 -4156 -8252 -8308 -8280 -8392 0
-208 -176 -64 -316 -820 -1812 -8392 0
-208 -400 -304 -812 -1828 -1588 -3604 -7188 -14356 -8392 0
-456 -904 -784 -1804 -1580 -1084 -3124 -6196 -14356 -8392 0
-456 -904 -784 -1804 -1580 -3116 -7204 -6196 -14356 -12372 -8404 -8392 0
-456 -400 -304 -560 -1580 -3620 -7188 -14356 -12372 -8404 0
-456 -904 -784 -560 -572 -1084 -3124 -7188 0
-904 -784 -560 -64 -1084 -3124 -7188 0
-904 -784 -560 -1072 -3116 -3124 -7188 -14356 -12372 0
-904 -784 -560 -1072 -3116 -7204 -7188 -14356 -12372 -8404 0
-904 -784 -1552 -1072 -3116 -7204 -6196 -14356 -12372 -8404 0
-904 -1800 -3592 -3088 -7180 -6188 -4156 -12340 -8308 -8404 0
-1800 -1552 -1072 -64 -2108 -6196 -14356 0
-1800 -1552 -1072 -2096 -6188 -6196 -14356 -12372 -8404 0
-1800 -3592 -7176 -6160 -6188 -4156 -8252 -8308 -8404 0
-3592 -3088 -2096 -64 -4156 -12340 -12372 0
-3592 -3088 -6160 -4144 -4156 -12340 -8308 -8404 0
-7176 -6160 -4144 -64 -8252 -8308 -8404 0
-64 -124 -236 -484 -14344 -12312 -8224 0
-96 -124 -236 -484 -932 -14344 -12312 -8224 0
-96 -220 -236 -484 -932 -1828 -14344 -12312 -8224 0
-96 -220 -460 -1828 -3620 -7204 -14372 -14344 -12312 -8224 0
-96 -220 -460 -3620 -7204 -14372 -12328 -12312 -8224 0
-96 -124 -236 -428 -932 -14344 -12312 -8280 0
-96 -220 -460 -428 -932 -1828 -3620 -14344 -12312 -8280 0
-96 -220 -460 -908 -7204 -14372 -12328 -8248 -8280 0
-216 -220 -236 -428 -812 -1828 -14344 -12312 -8280 0
-216 -468 -3596 -7180 -6188 -12332 -12328 -8248 -8280 0
-96 -124 -188 -428 -932 -14344 -12360 -8280 0
-96 -220 -412 -908 -3620 -7204 -14372 -12328 -12360 -8280 0
-216 -468 -916 -3596 -3116 -6188 -12332 -12328 -12360 -8280 0
-216 -468 -916 -7180 -6188 -12332 -8240 -8296 -8280 0
-216 -220 -188 -316 -812 -1828 -14344 -12360 -8392 0
-216 -468 -412 -316 -812 -1580 -3620 -14344 -12360 -8392 0
-216 -468 -412 -796 -1804 -1580 -3620 -7204 -14372 -14344 -12360 -8392 0
-216 -468 -916 -796 -1804 -3596 -3116 -7204 -14372 -12328 -12360 -8392 0
-216 -468 -916 -1812 -7180 -6188 -12332 -8240 -8296 -8392 0
-456 -468 -412 -796 -1564 -1580 -3620 -7204 -14372 -14344 -12360 -8392 0
-456 -916 -796 -572 -1084 -3116 -7204 -14344 -12360 -8392 0
-456 -916 -1812 -1564 -1084 -3116 -6188 -14372 -14344 -12360 -8392 0
-456 -1812 -1564 -1084 -2108 -6188 -14372 -14344 -12360 -8392 0
-456 -3604 -3100 -2108 -4156 -12332 -12328 -12360 -8392 0
-456 -3604 -3100 -6172 -4156 -12332 -12328 -8296 -8392 0
-96 -64 -188 -428 -932 -12360 -8280 0
-96 -160 -412 -908 -3620 -7204 -14372 -12388 -12360 -8280 0
-96 -160 -412 -908 -7204 -14372 -12388 -8296 -8280 0
-216 -160 -412 -908 -812 -1828 -3620 -7204 -12360 -8280 0
-216 -408 -916 -7180 -6188 -12332 -8300 -8296 -8280 0
-216 -160 -412 -796 -1804 -7204 -14372 -12388 -8296 -8392 0
-216 -408 -916 -796 -1804 -3596 -3116 -7204 -14372 -12388 -12360 -8392 0
-216 -408 -916 -796 -1804 -3596 -7180 -7204 -14372 -12388 -8296 -8392 0
-456 -408 -916 -796 -572 -1580 -3116 -7204 -12360 -8392 0
-456 -408 -916 -796 -1564 -3596 -7180 -7204 -14372 -12388 -8296 -8392 0
-456 -408 -916 -1812 -1564 -3596 -7180 -6188 -14372 -12388 -8296 -8392 0
-456 -904 -916 -796 -1564 -3100 -3116 -7204 -14372 -12388 -12360 -8392 0
-456 -904 -916 -1812 -1564 -3100 -3116 -6188 -14372 -12388 -12360 -8392 0
-456 -904 -1812 -1564 -3100 -2108 -6188 -14372 -12388 -12360 -8392 0
-456 -904 -3604 -3100 -2108 -4156 -12332 -12388 -12360 -8392 0
-456 -904 -7188 -6172 -4156 -8252 -8300 -8296 -8392 0
-216 -160 -64 -316 -812 -1828 -8392 0
-216 -160 -288 -796 -1804 -3620 -7204 -14372 -12388 -8392 0
-216 -160 -288 -796 -1804 -7204 -14372 -12388 -8420 -8392 0
-216 -408 -288 -796 -1804 -1580 -3620 -7204 -14372 -8392 0
-216 -408 -288 -796 -1804 -3596 -7204 -14372 -12388 -8420 -8392 0
-456 -408 -288 -796 -1564 -3596 -7204 -14372 -12388 -8420 -8392 0
-456 -904 -792 -1812 -1564 -1084 -3116 -6188 -14372 -8392 0
-456 -904 -792 -1812 -1564 -3100 -7180 -6188 -14372 -12388 -8420 -8392 0
-456 -904 -1800 -7188 -6172 -4156 -8252 -8300 -8420 -8392 0
-456 -408 -288 -64 -572 -1580 -3620 0
-456 -408 -288 -544 -1564 -1580 -3620 -7204 -14372 0
-456 -408 -288 -544 -1564 -3596 -3620 -7204 -14372 -12388 0
-456 -408 -288 -544 -1564 -3596 -7204 -14372 -12388 -8420 0
-456 -408 -792 -544 -1564 -3596 -7180 -7204 -14372 -12388 -8420 0
-904 -792 -544 -64 -1084 -3116 -7204 0
-904 -792 -544 -1056 -3100 -3116 -7204 -14372 -12388 0
-904 -792 -544 -1056 -3100 -7180 -7204 -14372 -12388 -8420 0
-904 -792 -1560 -1056 -3100 -7180 -6188 -14372 -12388 -8420 0
-904 -1800 -3592 -3096 -3100 -2108 -4156 -12332 -12388 0
-1800 -1560 -1056 -64 -2108 -6188 -14372 0
-1800 -1560 -1056 -2080 -6172 -6188 -14372 -12388 -8420 0
-3592 -3096 -2080 -64 -4156 -12332 -12388 0
-7176 -6168 -4128 -64 -8252 -8300 -8420 0
-64 -124 -236 -460 -14344 -12312 -8248 0
-120 -244 -236 -460 -908 -1804 -14344 -12312 -8248 0
-120 -244 -484 -1804 -3596 -7180 -14348 -14344 -12312 -8248 0
-120 -244 -484 -3596 -7180 -14348 -12304 -12312 -8248 0
-120 -244 -484 -7180 -14348 -12304 -8224 -8248 0
-120 -244 -484 -428 -908 -1804 -3596 -14344 -12312 -8280 0
-120 -244 -484 -932 -1804 -3596 -7180 -14348 -14344 -12312 -8280 0
-120 -244 -484 -932 -3596 -7180 -14348 -12304 -12312 -8280 0
-216 -244 -484 -932 -812 -1804 -3596 -7180 -14344 -12312 -8280 0
-216 -244 -484 -932 -1828 -7180 -14348 -12304 -8224 -8280 0
-216 -468 -932 -1828 -3620 -3116 -7180 -14348 -12304 -12312 -8280 0
-216 -468 -1828 -3620 -7204 -6188 -14348 -12304 -8224 -8280 0
-216 -468 -7204 -6188 -12332 -8240 -8224 -8280 0
-120 -124 -188 -428 -908 -14344 -12360 -8280 0
-120 -244 -188 -428 -908 -1804 -14344 -12360 -8280 0
-120 -244 -436 -932 -1804 -3596 -7180 -14348 -14344 -12360 -8280 0
-120 -244 -436 -932 -3596 -7180 -14348 -12304 -12360 -8280 0
-216 -468 -436 -428 -812 -1580 -3596 -14344 -12360 -8280 0
-216 -468 -916 -932 -1828 -3620 -3116 -7180 -14348 -12304 -12360 -8280 0
-216 -468 -916 -7204 -6188 -12332 -8240 -8272 -8280 0
-216 -244 -188 -316 -812 -1804 -14344 -12360 -8392 0
-216 -468 -436 -316 -812 -1580 -3596 -14344 -12360 -8392 0
-216 -468 -436 -820 -1828 -1580 -3596 -7180 -14348 -14344 -12360 -8392 0
-216 -468 -916 -820 -1828 -1580 -3116 -7180 -14348 -14344 -12360 -8392 0
-216 -468 -916 -1812 -7204 -6188 -12332 -8240 -8272 -8392 0
-456 -916 -820 -572 -1084 -3116 -7180 -14344 -12360 -8392 0
-456 -916 -820 -1588 -1084 -3116 -7180 -14348 -14344 -12360 -8392 0
-456 -1812 -1588 -1084 -2108 -6188 -14348 -14344 -12360 -8392 0
-456 -3604 -3124 -2108 -4156 -12332 -12304 -12360 -8392 0
-120 -64 -188 -428 -908 -12360 -8280 0
-120 -184 -436 -932 -3596 -7180 -14348 -12364 -12360 -8280 0
-120 -184 -436 -932 -7180 -14348 -12364 -8272 -8280 0
-216 -184 -436 -932 -812 -1804 -3596 -7180 -12360 -8280 0
-216 -184 -436 -932 -1828 -3596 -7180 -14348 -12364 -12360 -8280 0
-216 -408 -916 -7204 -6188 -12332 -8300 -8272 -8280 0
-216 -184 -436 -820 -1828 -7180 -14348 -12364 -8272 -8392 0
-216 -408 -916 -1812 -7204 -6188 -12332 -8300 -8272 -8392 0
-456 -408 -436 -316 -572 -1580 -3596 -12360 -8392 0
-456 -904 -1812 -1588 -1084 -2108 -6188 -14348 -12360 -8392 0
-456 -904 -1812 -1588 -3124 -6196 -6188 -14348 -12364 -8272 -8392 0
-456 -904 -3604 -3124 -2108 -4156 -12332 -12364 -12360 -8392 0
-456 -904 -3604 -3124 -6196 -4156 -12332 -12364 -8272 -8392 0
-456 -904 -7188 -6196 -4156 -8252 -8300 -8272 -8392 0
-216 -184 -64 -316 -812 -1804 -8392 0
-216 -408 -312 -316 -812 -1580 -3596 -8392 0
-216 -408 -312 -820 -1828 -1580 -3596 -7180 -14348 -8392 0
-456 -408 -312 -820 -572 -1580 -3596 -7180 -8392 0
-456 -408 -312 -64 -572 -1580 -3596 0
-456 -904 -792 -568 -572 -1084 -3116 -7180 0
-456 -904 -792 -1560 -3604 -3124 -7204 -6188 -12332 -12364 -8396 0
-904 -792 -568 -64 -1084 -3116 -7180 0
-904 -792 -568 -1080 -1084 -3116 -7180 -14348 0
-904 -792 -1560 -1080 -3124 -7204 -6188 -14348 -12364 -8396 0
-904 -1800 -3592 -3096 -7188 -6196 -4156 -12332 -8300 -8396 0
-904 -1800 -3592 -7176 -7188 -6196 -4156 -8252 -8300 -8396 0
-1800 -1560 -1080 -64 -2108 -6188 -14348 0
-1800 -1560 -1080 -2104 -6196 -6188 -14348 -12364 -8396 0
-1800 -1560 -3096 -2104 -6196 -6188 -12332 -12364 -8396 0
-1800 -3592 -7176 -6168 -6196 -4156 -8252 -8300 -8396 0
-3592 -3096 -2104 -64 -4156 -12332 -12364 0
-3592 -3096 -6168 -4152 -4156 -12332 -8300 -8396 0
-7176 -6168 -4152 -64 -8252 -8300 -8396 0
-64 -124 -220 -468 -14344 -12328 -8240 0
-112 -124 -220 -468 -916 -14344 -12328 -8240 0
-112 -236 -460 -468 -916 -1812 -3604 -14344 -12328 -8240 0
-112 -236 -460 -3604 -7188 -14356 -12312 -12328 -8240 0
-112 -236 -460 -908 -1812 -3604 -7188 -14356 -14344 -12328 -8296 0
-112 -236 -460 -908 -3604 -7188 -14356 -12312 -12328 -8296 0
-232 -484 -1804 -3596 -7180 -6172 -14356 -12312 -8248 -8296 0
-232 -484 -3596 -7180 -6172 -12316 -12312 -8248 -8296 0
-232 -484 -7180 -6172 -12316 -8224 -8248 -8296 0
-232 -484 -428 -908 -1804 -1564 -3604 -7188 -14356 -14344 -12360 -8296 0
-232 -484 -932 -7180 -6172 -12316 -8224 -8280 -8296 0
-232 -236 -188 -316 -796 -1812 -14344 -12360 -8392 0
-232 -484 -428 -316 -796 -1564 -3604 -14344 -12360 -8392 0
-232 -484 -428 -812 -796 -1564 -3604 -7188 -14344 -12360 -8392 0
-232 -484 -932 -812 -796 -1564 -3100 -7188 -14344 -12360 -8392 0
-232 -484 -932 -812 -1804 -3596 -3100 -7188 -14356 -12312 -12360 -8392 0
-232 -484 -932 -1828 -7180 -6172 -12316 -8224 -8280 -8392 0
-456 -484 -428 -812 -1580 -3596 -3604 -7188 -14356 -12312 -12360 -8392 0
-456 -484 -932 -812 -1580 -3596 -3100 -7188 -14356 -12312 -12360 -8392 0
-456 -932 -812 -572 -1084 -3100 -7188 -14344 -12360 -8392 0
-456 -932 -1828 -1580 -1084 -3100 -6172 -14356 -14344 -12360 -8392 0
-456 -932 -1828 -1580 -3116 -3100 -6172 -14356 -12312 -12360 -8392 0
-456 -1828 -1580 -1084 -2108 -6172 -14356 -14344 -12360 -8392 0
-456 -3620 -3116 -2108 -4156 -12316 -12312 -12360 -8392 0
-456 -7204 -6188 -4156 -8252 -8224 -8280 -8392 0
-112 -64 -188 -412 -916 -12360 -8296 0
-112 -176 -428 -908 -1812 -3604 -7188 -14356 -12360 -8296 0
-112 -176 -428 -908 -3604 -7188 -14356 -12372 -12360 -8296 0
-112 -176 -428 -908 -7188 -14356 -12372 -8280 -8296 0
-232 -176 -188 -412 -796 -1812 -12360 -8296 0
-232 -424 -932 -7180 -6172 -12316 -8284 -8280 -8296 0
-232 -176 -428 -812 -1804 -3604 -7188 -14356 -12372 -12360 -8392 0
-232 -176 -428 -812 -1804 -7188 -14356 -12372 -8280 -8392 0
-232 -424 -932 -812 -1804 -1564 -3100 -7188 -14356 -12360 -8392 0
-456 -424 -932 -812 -572 -1564 -3100 -7188 -12360 -8392 0
-456 -424 -932 -1828 -1580 -3596 -7180 -6172 -14356 -12372 -8280 -8392 0
-456 -904 -1828 -3620 -3116 -2108 -6172 -12316 -12372 -12360 -8392 0
-456 -904 -7204 -6188 -4156 -8252 -8284 -8280 -8392 0
-232 -176 -64 -316 -796 -1812 -8392 0
-232 -176 -304 -812 -1804 -7188 -14356 -12372 -8404 -8392 0
-232 -424 -304 -812 -1804 -3596 -7188 -14356 -12372 -8404 -8392 0
-456 -424 -304 -812 -572 -1564 -3604 -7188 -8392 0
-456 -904 -808 -1828 -1580 -1084 -3100 -6172 -14356 -8392 0
-456 -904 -1800 -7204 -6188 -4156 -8252 -8284 -8404 -8392 0
-456 -424 -304 -64 -572 -1564 -3604 0
-456 -424 -304 -560 -572 -1564 -3604 -7188 0
-456 -424 -304 -560 -1580 -3596 -7188 -14356 -12372 -8404 0
-456 -904 -808 -560 -1580 -3116 -7180 -7188 -14356 -12372 -8404 0
-904 -808 -560 -64 -1084 -3100 -7188 0
-904 -808 -560 -1072 -3116 -7180 -7188 -14356 -12372 -8404 0
-904 -808 -1576 -1072 -3116 -7180 -6172 -14356 -12372 -8404 0
-904 -808 -1576 -3112 -7204 -7180 -6172 -12316 -8284 -8404 0
-904 -1800 -3592 -3112 -7204 -6188 -4156 -12316 -8284 -8404 0
-904 -1800 -3592 -7176 -7204 -6188 -4156 -8252 -8284 -8404 0
-1800 -1576 -1072 -64 -2108 -6172 -14356 0
-1800 -1576 -1072 -2096 -6188 -6172 -14356 -12372 -8404 0
-1800 -3592 -7176 -6184 -6188 -4156 -8252 -8284 -8404 0
-3592 -3112 -2096 -64 -4156 -12316 -12372 0
-3592 -3112 -2096 -4144 -4156 -12316 -12372 -8404 0
-3592 -7176 -6184 -4144 -4156 -8252 -8284 -8404 0
-7176 -6184 -4144 -64 -8252 -8284 -8404 0
-64 -124 -220 -460 -14344 -12328 -8248 0
-120 -124 -220 -460 -908 -14344 -12328 -8248 0
-120 -244 -468 -1804 -3596 -7180 -14348 -14344 -12328 -8248 0
-120 -244 -468 -3596 -7180 -14348 -12304 -12328 -8248 0
-120 -244 -468 -7180 -14348 -12304 -8240 -8248 0
-120 -124 -220 -412 -908 -14344 -12328 -8296 0
-232 -244 -468 -916 -796 -1804 -3596 -7180 -14344 -12328 -8296 0
-232 -484 -7188 -6172 -12316 -8224 -8240 -8296 0
-120 -124 -188 -412 -908 -14344 -12360 -8296 0
-232 -484 -932 -7188 -6172 -12316 -8224 -8272 -8296 0
-232 -244 -188 -316 -796 -1804 -14344 -12360 -8392 0
-232 -484 -436 -820 -796 -1564 -3596 -7180 -14344 -12360 -8392 0
-232 -484 -932 -820 -1812 -3604 -3100 -7180 -14348 -12304 -12360 -8392 0
-232 -484 -932 -1828 -3604 -3100 -6172 -12316 -12304 -12360 -8392 0
-232 -484 -932 -1828 -7188 -6172 -12316 -8224 -8272 -8392 0
-456 -484 -436 -316 -572 -1564 -3596 -14344 -12360 -8392 0
-456 -932 -820 -572 -1084 -3100 -7180 -14344 -12360 -8392 0
-456 -7204 -6196 -4156 -8252 -8224 -8272 -8392 0
-120 -64 -188 -412 -908 -12360 -8296 0
-120 -184 -436 -916 -7180 -14348 -12364 -8272 -8296 0
-232 -184 -436 -916 -796 -1804 -3596 -7180 -12360 -8296 0
-232 -184 -436 -916 -1812 -3596 -7180 -14348 -12364 -12360 -8296 0
-232 -424 -932 -3604 -7188 -6172 -12316 -12364 -8272 -8296 0
-232 -424 -932 -7188 -6172 -12316 -8284 -8272 -8296 0
-456 -424 -932 -1828 -1588 -3604 -7188 -6172 -14348 -12364 -8272 -8392 0
-456 -904 -932 -1828 -1588 -1084 -3100 -6172 -14348 -12360 -8392 0
-456 -904 -3620 -3124 -2108 -4156 -12316 -12364 -12360 -8392 0
-456 -904 -3620 -3124 -6196 -4156 -12316 -12364 -8272 -8392 0
-456 -904 -7204 -6196 -4156 -8252 -8284 -8272 -8392 0
-232 -184 -64 -316 -796 -1804 -8392 0
-232 -184 -312 -820 -1812 -7180 -14348 -12364 -8396 -8392 0
-232 -424 -312 -820 -796 -1564 -3596 -7180 -8392 0
-232 -424 -312 -820 -1812 -3604 -7180 -14348 -12364 -8396 -8392 0
-456 -424 -312 -820 -1588 -3604 -3596 -7180 -14348 -12364 -8392 0
-456 -904 -1800 -7204 -6196 -4156 -8252 -8284 -8396 -8392 0
-456 -424 -312 -64 -572 -1564 -3596 0
-456 -424 -312 -568 -1588 -3604 -3596 -7180 -14348 -12364 0
-456 -424 -312 -568 -1588 -3604 -7180 -14348 -12364 -8396 0
-456 -424 -808 -568 -1588 -3604 -7188 -7180 -14348 -12364 -8396 0
-456 -904 -808 -568 -1588 -3124 -7188 -7180 -14348 -12364 -8396 0
-456 -904 -1800 -1576 -3620 -3124 -2108 -6172 -12316 -12364 0
-904 -808 -568 -64 -1084 -3100 -7180 0
-904 -808 -1576 -3112 -7204 -7188 -6172 -12316 -8284 -8396 0
-904 -1800 -1576 -1080 -3124 -2108 -6172 -14348 -12364 0
-904 -1800 -3592 -3112 -7204 -6196 -4156 -12316 -8284 -8396 0
-904 -1800 -3592 -7176 -7204 -6196 -4156 -8252 -8284 -8396 0
-1800 -1576 -1080 -64 -2108 -6172 -14348 0
-1800 -1576 -1080 -2104 -2108 -6172 -14348 -12364 0
-1800 -1576 -1080 -2104 -6196 -6172 -14348 -12364 -8396 0
-1800 -3592 -7176 -6184 -6196 -4156 -8252 -8284 -8396 0
-3592 -3112 -2104 -64 -4156 -12316 -12364 0
-7176 -6184 -4152 -64 -8252 -8284 -8396 0
-64 -120 -244 -484 -14348 -12304 -8224 0
-96 -120 -244 -484 -932 -14348 -12304 -8224 0
-96 -216 -244 -484 -932 -1828 -14348 -12304 -8224 0
-96 -216 -468 -3620 -7204 -14372 -12332 -12304 -8224 0
-96 -216 -468 -7204 -14372 -12332 -8240 -8224 0
-96 -120 -244 -436 -932 -14348 -12304 -8272 0
-96 -216 -468 -436 -932 -1828 -3620 -14348 -12304 -8272 0
-208 -456 -7188 -6196 -12340 -8252 -8240 -8272 0
-96 -120 -184 -436 -932 -14348 -12364 -8272 0
-96 -216 -408 -916 -3620 -7204 -14372 -12332 -12364 -8272 0
-96 -216 -408 -916 -7204 -14372 -12332 -8300 -8272 0
-208 -216 -184 -312 -820 -1828 -14348 -12364 -8396 0
-208 -456 -408 -312 -820 -1588 -3620 -14348 -12364 -8396 0
-208 -456 -904 -792 -1812 -3604 -3124 -7204 -14372 -12332 -12364 -8396 0
-208 -456 -904 -1800 -7188 -6196 -12340 -8252 -8300 -8396 0
-460 -1800 -1560 -1080 -2104 -6196 -14372 -14348 -12364 -8396 0
-460 -1800 -3592 -3096 -2104 -6196 -12340 -12332 -12364 -8396 0
-460 -3592 -3096 -2104 -4152 -12340 -12332 -12364 -8396 0
-460 -7176 -6168 -4152 -8248 -8252 -8300 -8396 0
-96 -64 -184 -436 -932 -12364 -8272 0
-96 -160 -408 -916 -3620 -7204 -14372 -12388 -12364 -8272 0
-96 -160 -408 -916 -7204 -14372 -12388 -8300 -8272 0
-208 -400 -904 -3604 -7188 -6196 -12340 -12388 -8300 -8272 0
-208 -160 -408 -792 -1812 -7204 -14372 -12388 -8300 -8396 0
-208 -400 -904 -792 -1812 -3604 -7188 -7204 -14372 -12388 -8300 -8396 0
-460 -400 -904 -1800 -1560 -3604 -7188 -6196 -14372 -12388 -8300 -8396 0
-460 -908 -1800 -3592 -3096 -2104 -6196 -12340 -12388 -12364 -8396 0
-460 -908 -3592 -3096 -2104 -4152 -12340 -12388 -12364 -8396 0
-460 -908 -7176 -6168 -4152 -8248 -8308 -8300 -8396 0
-208 -160 -64 -312 -820 -1828 -8396 0
-208 -160 -288 -792 -1812 -3620 -7204 -14372 -12388 -8396 0
-208 -400 -288 -792 -1812 -3604 -7204 -14372 -12388 -8420 -8396 0
-460 -908 -784 -1800 -1560 -1080 -3124 -6196 -14372 -8396 0
-460 -908 -784 -1800 -3592 -7176 -7188 -6196 -12340 -8308 -8420 -8396 0
-460 -908 -1804 -1800 -1560 -3096 -2104 -6196 -14372 -12388 -8396 0
-460 -908 -1804 -3592 -7176 -6168 -4152 -12340 -8308 -8420 -8396 0
-460 -908 -1804 -7176 -6168 -4152 -8248 -8308 -8420 -8396 0
-460 -400 -288 -64 -568 -1588 -3620 0
-460 -400 -288 -544 -1560 -3604 -7204 -14372 -12388 -8420 0
-460 -400 -784 -544 -1560 -3604 -7188 -7204 -14372 -12388 -8420 0
-460 -400 -784 -1552 -3592 -3604 -3124 -6196 -12340 -12388 0
-460 -908 -1804 -1552 -3592 -7176 -6168 -6196 -12340 -8308 -8420 0
-908 -784 -544 -64 -1080 -3124 -7204 0
-908 -784 -544 -1056 -3096 -3124 -7204 -14372 -12388 0
-908 -784 -544 -1056 -3096 -7188 -7204 -14372 -12388 -8420 0
-908 -784 -1552 -1056 -3096 -7188 -6196 -14372 -12388 -8420 0
-908 -1804 -3596 -3088 -7176 -6168 -4152 -12340 -8308 -8420 0
-908 -1804 -3596 -7180 -7176 -6168 -4152 -8248 -8308 -8420 0
-1804 -1552 -1056 -64 -2104 -6196 -14372 0
-1804 -1552 -1056 -2080 -6168 -6196 -14372 -12388 -8420 0
-1804 -1552 -3088 -2080 -6168 -6196 -12340 -12388 -8420 0
-3596 -3088 -2080 -64 -4152 -12340 -12388 0
-7180 -6160 -4128 -64 -8248 -8308 -8420 0
-64 -120 -244 -468 -14348 -12304 -8240 0
-112 -232 -244 -468 -916 -1812 -14348 -12304 -8240 0
-112 -232 -484 -468 -916 -1812 -3604 -14348 -12304 -8240 0
-112 -232 -484 -3604 -7188 -14356 -12316 -12304 -8240 0
-112 -232 -484 -7188 -14356 -12316 -8224 -8240 0
-112 -120 -244 -436 -916 -14348 -12304 -8272 0
-112 -232 -484 -932 -1812 -3604 -7188 -14356 -14348 -12304 -8272 0
-112 -232 -484 -932 -7188 -14356 -12316 -8224 -8272 0
-208 -456 -7204 -6196 -12340 -8252 -8224 -8272 0
-112 -232 -424 -436 -916 -1812 -3604 -14348 -12364 -8272 0
-112 -232 -424 -932 -916 -1812 -3604 -7188 -14348 -12364 -8272 0
-112 -232 -424 -932 -3604 -7188 -14356 -12316 -12364 -8272 0
-208 -456 -904 -3620 -3124 -6196 -12340 -12316 -12364 -8272 0
-208 -232 -184 -312 -820 -1812 -14348 -12364 -8396 0
-460 -456 -904 -808 -1576 -3620 -3124 -7188 -14356 -12316 -12364 -8396 0
-460 -904 -808 -1576 -3112 -3124 -7188 -14356 -12316 -12364 -8396 0
-460 -904 -1800 -1576 -1080 -3124 -6196 -14356 -14348 -12364 -8396 0
-460 -1800 -1576 -1080 -2104 -6196 -14356 -14348 -12364 -8396 0
-460 -3592 -3112 -2104 -4152 -12340 -12316 -12364 -8396 0
-460 -7176 -6184 -4152 -8248 -8252 -8284 -8396 0
-112 -64 -184 -436 -916 -12364 -8272 0
-112 -176 -424 -932 -3604 -7188 -14356 -12372 -12364 -8272 0
-112 -176 -424 -932 -7188 -14356 -12372 -8284 -8272 0
-208 -176 -424 -932 -820 -1812 -3604 -7188 -12364 -8272 0
-208 -176 -424 -932 -1828 -3604 -7188 -14356 -12372 -12364 -8272 0
-208 -176 -424 -312 -820 -1812 -3604 -12364 -8396 0
-460 -400 -904 -1800 -1576 -3620 -7204 -6196 -14356 -12372 -8284 -8396 0
-460 -908 -904 -1800 -1576 -3112 -7204 -6196 -14356 -12372 -8284 -8396 0
-460 -908 -1800 -1576 -3112 -2104 -6196 -14356 -12372 -12364 -8396 0
-460 -908 -3592 -3112 -2104 -4152 -12340 -12372 -12364 -8396 0
-460 -908 -3592 -3112 -6184 -4152 -12340 -12372 -8284 -8396 0
-460 -908 -7176 -6184 -4152 -8248 -8308 -8284 -8396 0
-208 -176 -64 -312 -820 -1812 -8396 0
-208 -176 -304 -808 -1828 -7188 -14356 -12372 -8404 -8396 0
-208 -400 -304 -312 -820 -1588 -3604 -8396 0
-208 -400 -304 -808 -1828 -1588 -3604 -7188 -14356 -8396 0
-460 -908 -784 -1800 -1576 -1080 -3124 -6196 -14356 -8396 0
-460 -908 -784 -1800 -1576 -3112 -7204 -6196 -14356 -12372 -8404 -8396 0
-460 -908 -1804 -7176 -6184 -4152 -8248 -8308 -8404 -8396 0
-460 -400 -304 -64 -568 -1588 -3604 0
-460 -908 -1804 -1552 -3592 -3112 -2104 -6196 -12340 -12372 0
-908 -784 -560 -64 -1080 -3124 -7188 0
-908 -784 -560 -1072 -1080 -3124 -7188 -14356 0
-908 -784 -560 -1072 -3112 -3124 -7188 -14356 -12372 0
-908 -784 -1552 -1072 -3112 -7204 -6196 -14356 -12372 -8404 0
-908 -1804 -1552 -3088 -7176 -6184 -6196 -12340 -8308 -8404 0
-908 -1804 -3596 -3088 -3112 -2104 -4152 -12340 -12372 0
-908 -1804 -3596 -3088 -7176 -6184 -4152 -12340 -8308 -8404 0
-1804 -1552 -1072 -64 -2104 -6196 -14356 0
-1804 -1552 -1072 -2096 -2104 -6196 -14356 -12372 0
-1804 -3596 -7180 -6160 -6184 -4152 -8248 -8308 -8404 0
-3596 -3088 -2096 -64 -4152 -12340 -12372 0
-3596 -3088 -6160 -4144 -4152 -12340 -8308 -8404 0
-7180 -6160 -4144 -64 -8248 -8308 -8404 0
-64 -120 -232 -484 -14348 -12316 -8224 0
-96 -120 -232 -484 -932 -14348 -12316 -8224 0
-96 -216 -232 -484 -932 -1828 -14348 -12316 -8224 0
-96 -216 -456 -1828 -3620 -7204 -14372 -14348 -12316 -8224 0
-96 -120 -232 -424 -932 -14348 -12316 -8284 0
-96 -216 -456 -904 -1828 -3620 -7204 -14372 -14348 -12316 -8284 0
-220 -468 -456 -424 -808 -1576 -3620 -14348 -12316 -8284 0
-220 -468 -456 -904 -1800 -3592 -7204 -14372 -12332 -8252 -8284 0
-220 -468 -1800 -3592 -7176 -6184 -14372 -12332 -8252 -8284 0
-220 -468 -3592 -7176 -6184 -12328 -12332 -8252 -8284 0
-96 -120 -184 -424 -932 -14348 -12364 -8284 0
-96 -216 -408 -904 -1828 -3620 -7204 -14372 -14348 -12364 -8284 0
-96 -216 -408 -904 -3620 -7204 -14372 -12332 -12364 -8284 0
-96 -216 -408 -904 -7204 -14372 -12332 -8300 -8284 0
-220 -468 -408 -904 -808 -1576 -3620 -7204 -14348 -12364 -8284 0
-220 -468 -916 -904 -1800 -3592 -7176 -7204 -14372 -12332 -8300 -8284 0
-220 -468 -916 -3592 -3112 -6184 -12328 -12332 -12364 -8284 0
-220 -468 -916 -7176 -6184 -12328 -8240 -8300 -8284 0
-220 -216 -408 -312 -808 -1828 -3620 -14348 -12364 -8396 0
-220 -468 -916 -792 -1800 -3592 -3112 -7204 -14372 -12332 -12364 -8396 0
-220 -468 -916 -1812 -7176 -6184 -12328 -8240 -8300 -8396 0
-460 -468 -916 -792 -1560 -3592 -3112 -7204 -14372 -12332 -12364 -8396 0
-460 -916 -1812 -1560 -1080 -3112 -6184 -14372 -14348 -12364 -8396 0
-460 -3604 -3096 -2104 -4152 -12328 -12332 -12364 -8396 0
-460 -7188 -6168 -4152 -8248 -8240 -8300 -8396 0
-96 -64 -184 -424 -932 -12364 -8284 0
-96 -160 -408 -904 -3620 -7204 -14372 -12388 -12364 -8284 0
-96 -160 -408 -904 -7204 -14372 -12388 -8300 -8284 0
-220 -412 -916 -3592 -7176 -6184 -12328 -12388 -8300 -8284 0
-220 -160 -408 -792 -1800 -3620 -7204 -14372 -12388 -12364 -8396 0
-220 -160 -408 -792 -1800 -7204 -14372 -12388 -8300 -8396 0
-220 -412 -916 -792 -1800 -3592 -3112 -7204 -14372 -12388 -12364 -8396 0
-460 -412 -916 -792 -568 -1576 -3112 -7204 -12364 -8396 0
-460 -412 -916 -792 -1560 -3592 -3112 -7204 -14372 -12388 -12364 -8396 0
-460 -412 -916 -1812 -1560 -3592 -7176 -6184 -14372 -12388 -8300 -8396 0
-460 -908 -916 -792 -1560 -3096 -3112 -7204 -14372 -12388 -12364 -8396 0
-460 -908 -3604 -3096 -2104 -4152 -12328 -12388 -12364 -8396 0
-460 -908 -3604 -7188 -6168 -4152 -12328 -8296 -8300 -8396 0
-460 -908 -7188 -6168 -4152 -8248 -8296 -8300 -8396 0
-220 -160 -64 -312 -808 -1828 -8396 0
-220 -160 -288 -792 -1800 -7204 -14372 -12388 -8420 -8396 0
-220 -412 -288 -792 -1800 -1576 -3620 -7204 -14372 -8396 0
-220 -412 -288 -792 -1800 -3592 -7204 -14372 -12388 -8420 -8396 0
-460 -412 -288 -792 -1560 -3592 -7204 -14372 -12388 -8420 -8396 0
-460 -412 -796 -1812 -1560 -3592 -3112 -6184 -14372 -12388 -8396 0
-460 -908 -1804 -3604 -7188 -6168 -4152 -12328 -8296 -8420 -8396 0
-460 -908 -1804 -7188 -6168 -4152 -8248 -8296 -8420 -8396 0
-460 -412 -288 -64 -568 -1576 -3620 0
-460 -412 -288 -544 -1560 -3592 -7204 -14372 -12388 -8420 0
-460 -412 -796 -544 -1560 -3592 -3112 -7204 -14372 -12388 0
-908 -796 -544 -64 -1080 -3112 -7204 0
-908 -796 -544 -1056 -1080 -3112 -7204 -14372 0
-908 -796 -544 -1056 -3096 -7176 -7204 -14372 -12388 -8420 0
-908 -796 -1564 -1056 -3096 -7176 -6184 -14372 -12388 -8420 0
-908 -1804 -1564 -1056 -3096 -2104 -6184 -14372 -12388 0
-908 -1804 -3596 -3100 -3096 -2104 -4152 -12328 -12388 0
-908 -1804 -3596 -3100 -7188 -6168 -4152 -12328 -8296 -8420 0
-1804 -1564 -1056 -64 -2104 -6184 -14372 0
-1804 -1564 -1056 -2080 -2104 -6184 -14372 -12388 0
-1804 -1564 -1056 -2080 -6168 -6184 -14372 -12388 -8420 0
-3596 -3100 -2080 -64 -4152 -12328 -12388 0
-3596 -3100 -2080 -4128 -4152 -12328 -12388 -8420 0
-3596 -3100 -6172 -4128 -4152 -12328 -8296 -8420 0
-3596 -7180 -6172 -4128 -4152 -8248 -8296 -8420 0
-7180 -6172 -4128 -64 -8248 -8296 -8420 0
-64 -120 -232 -456 -14348 -12316 -8252 0
-124 -244 -232 -456 -904 -1800 -14348 -12316 -8252 0
-124 -244 -484 -1800 -3592 -7176 -14344 -14348 -12316 -8252 0
-124 -244 -484 -3592 -7176 -14344 -12304 -12316 -8252 0
-124 -244 -484 -424 -904 -1800 -3592 -14348 -12316 -8284 0
-124 -244 -484 -932 -1800 -3592 -7176 -14344 -14348 -12316 -8284 0
-124 -244 -484 -932 -3592 -7176 -14344 -12304 -12316 -8284 0
-124 -244 -484 -932 -7176 -14344 -12304 -8224 -8284 0
-220 -244 -484 -932 -1828 -3592 -7176 -14344 -12304 -12316 -8284 0
-220 -244 -484 -932 -1828 -7176 -14344 -12304 -8224 -8284 0
-220 -468 -484 -932 -1828 -3620 -3592 -7176 -14344 -12304 -12316 -8284 0
-220 -468 -7204 -6184 -12328 -8240 -8224 -8284 0
-124 -120 -184 -424 -904 -14348 -12364 -8284 0
-124 -244 -436 -932 -1800 -3592 -7176 -14344 -14348 -12364 -8284 0
-124 -244 -436 -932 -3592 -7176 -14344 -12304 -12364 -8284 0
-220 -468 -436 -932 -808 -1576 -3592 -7176 -14348 -12364 -8284 0
-220 -468 -916 -3620 -3112 -6184 -12328 -12304 -12364 -8284 0
-220 -468 -436 -312 -808 -1576 -3592 -14348 -12364 -8396 0
-220 -468 -436 -820 -1828 -1576 -3592 -7176 -14344 -14348 -12364 -8396 0
-220 -468 -436 -820 -1828 -3620 -3592 -7176 -14344 -12304 -12364 -8396 0
-220 -468 -916 -820 -1828 -1576 -3112 -7176 -14344 -14348 -12364 -8396 0
-220 -468 -916 -820 -1828 -3620 -3112 -7176 -14344 -12304 -12364 -8396 0
-460 -468 -436 -820 -1588 -1576 -3592 -7176 -14344 -14348 -12364 -8396 0
-460 -1812 -1588 -1080 -2104 -6184 -14344 -14348 -12364 -8396 0
-460 -1812 -1588 -3124 -2104 -6184 -14344 -12304 -12364 -8396 0
-460 -3604 -3124 -2104 -4152 -12328 -12304 -12364 -8396 0
-124 -64 -184 -424 -904 -12364 -8284 0
-124 -188 -436 -932 -3592 -7176 -14344 -12360 -12364 -8284 0
-124 -188 -436 -932 -7176 -14344 -12360 -8272 -8284 0
-220 -188 -436 -932 -1828 -3592 -7176 -14344 -12360 -12364 -8284 0
-220 -188 -436 -312 -808 -1800 -3592 -12364 -8396 0
-460 -412 -436 -820 -1588 -3620 -7176 -14344 -12360 -8272 -8396 0
-460 -412 -916 -820 -568 -1576 -3112 -7176 -12364 -8396 0
-460 -412 -916 -820 -1588 -3620 -7204 -7176 -14344 -12360 -8272 -8396 0
-460 -412 -916 -1812 -1588 -3620 -7204 -6184 -14344 -12360 -8272 -8396 0
-460 -908 -916 -1812 -1588 -3124 -7204 -6184 -14344 -12360 -8272 -8396 0
-460 -908 -3604 -3124 -2104 -4152 -12328 -12360 -12364 -8396 0
-460 -908 -7188 -6196 -4152 -8248 -8296 -8272 -8396 0
-220 -188 -64 -312 -808 -1800 -8396 0
-220 -188 -316 -820 -1828 -7176 -14344 -12360 -8392 -8396 0
-460 -908 -1804 -3604 -3124 -2104 -4152 -12328 -12360 -8396 0
-460 -412 -316 -64 -568 -1576 -3592 0
-460 -412 -316 -572 -1588 -3620 -3592 -7176 -14344 -12360 0
-460 -412 -796 -572 -568 -1576 -3112 -7176 0
-460 -412 -796 -572 -1588 -3620 -3112 -7176 -14344 -12360 0
-460 -908 -796 -1564 -1588 -1080 -3112 -6184 -14344 0
-908 -796 -572 -64 -1080 -3112 -7176 0
-908 -796 -572 -1084 -1080 -3112 -7176 -14344 0
-908 -796 -572 -1084 -3124 -3112 -7176 -14344 -12360 0
-908 -1804 -3596 -3100 -7188 -6196 -4152 -12328 -8296 -8392 0
-1804 -1564 -1084 -64 -2104 -6184 -14344 0
-1804 -1564 -1084 -2108 -2104 -6184 -14344 -12360 0
-1804 -3596 -7180 -6172 -6196 -4152 -8248 -8296 -8392 0
-3596 -3100 -2108 -64 -4152 -12328 -12360 0
-3596 -3100 -2108 -4156 -4152 -12328 -12360 -8392 0
-7180 -6172 -4156 -64 -8248 -8296 -8392 0
-64 -120 -216 -468 -14348 -12332 -8240 0
-112 -232 -456 -1812 -3604 -7188 -14356 -14348 -12332 -8240 0
-112 -232 -456 -3604 -7188 -14356 -12316 -12332 -8240 0
-112 -232 -456 -7188 -14356 -12316 -8252 -8240 0
-112 -120 -216 -408 -916 -14348 -12332 -8300 0
-236 -484 -1800 -3592 -7176 -6168 -14356 -12316 -8252 -8300 0
-236 -484 -3592 -7176 -6168 -12312 -12316 -8252 -8300 0
-236 -484 -7176 -6168 -12312 -8224 -8252 -8300 0
-112 -120 -184 -408 -916 -14348 -12364 -8300 0
-112 -232 -424 -904 -3604 -7188 -14356 -12316 -12364 -8300 0
-236 -484 -932 -7176 -6168 -12312 -8224 -8284 -8300 0
-236 -484 -424 -312 -792 -1560 -3604 -14348 -12364 -8396 0
-236 -484 -932 -808 -1800 -1560 -3096 -7188 -14356 -14348 -12364 -8396 0
-236 -484 -932 -808 -1800 -3592 -3096 -7188 -14356 -12316 -12364 -8396 0
-236 -484 -932 -1828 -7176 -6168 -12312 -8224 -8284 -8396 0
-460 -484 -932 -1828 -3620 -7176 -6168 -12312 -8224 -8284 -8396 0
-460 -932 -1828 -1576 -3112 -7176 -6168 -14356 -12316 -8284 -8396 0
-460 -1828 -1576 -1080 -2104 -6168 -14356 -14348 -12364 -8396 0
-460 -1828 -1576 -3112 -6184 -6168 -14356 -12316 -8284 -8396 0
-460 -3620 -3112 -2104 -4152 -12312 -12316 -12364 -8396 0
-112 -64 -184 -408 -916 -12364 -8300 0
-112 -176 -424 -904 -3604 -7188 -14356 -12372 -12364 -8300 0
-112 -176 -424 -904 -7188 -14356 -12372 -8284 -8300 0
-236 -428 -932 -7176 -6168 -12312 -8280 -8284 -8300 0
-236 -176 -424 -312 -792 -1812 -3604 -12364 -8396 0
-236 -176 -424 -808 -1800 -7188 -14356 -12372 -8284 -8396 0
-236 -428 -932 -808 -1800 -3592 -3096 -7188 -14356 -12372 -12364 -8396 0
-460 -428 -424 -808 -1576 -3592 -7188 -14356 -12372 -8284 -8396 0
-460 -428 -932 -808 -1576 -3592 -7176 -7188 -14356 -12372 -8284 -8396 0
-460 -428 -932 -1828 -1576 -3592 -7176 -6168 -14356 -12372 -8284 -8396 0
-460 -428 -932 -1828 -3620 -7176 -6168 -12312 -8280 -8284 -8396 0
-460 -908 -932 -1828 -3620 -3112 -3096 -6168 -12312 -12372 -12364 -8396 0
-460 -908 -3620 -3112 -2104 -4152 -12312 -12372 -12364 -8396 0
-460 -908 -3620 -3112 -6184 -4152 -12312 -12372 -8284 -8396 0
-460 -908 -7204 -6184 -4152 -8248 -8280 -8284 -8396 0
-236 -176 -64 -312 -792 -1812 -8396 0
-236 -176 -304 -808 -1800 -3604 -7188 -14356 -12372 -8396 0
-236 -176 -304 -808 -1800 -7188 -14356 -12372 -8404 -8396 0
-236 -428 -304 -808 -1800 -1560 -3604 -7188 -14356 -8396 0
-236 -428 -304 -808 -1800 -3592 -7188 -14356 -12372 -8404 -8396 0
-460 -908 -812 -1828 -1576 -3112 -3096 -6168 -14356 -12372 -8396 0
-460 -908 -1804 -3620 -7204 -6184 -4152 -12312 -8280 -8404 -8396 0
-460 -908 -1804 -7204 -6184 -4152 -8248 -8280 -8404 -8396 0
-460 -428 -304 -64 -568 -1560 -3604 0
-460 -428 -304 -560 -1576 -3592 -7188 -14356 -12372 -8404 0
-460 -428 -812 -1580 -1576 -3592 -7176 -6168 -14356 -12372 -8404 0
-460 -428 -812 -1580 -3620 -3592 -3096 -6168 -12312 -12372 0
-460 -908 -812 -1580 -3620 -3112 -3096 -6168 -12312 -12372 0
-460 -908 -1804 -1580 -3620 -3112 -2104 -6168 -12312 -12372 0
-908 -812 -560 -64 -1080 -3096 -7188 0
-908 -812 -560 -1072 -3112 -7176 -7188 -14356 -12372 -8404 0
-908 -812 -1580 -3116 -3112 -7176 -6168 -12312 -12372 -8404 0
-908 -812 -1580 -3116 -7204 -7176 -6168 -12312 -8280 -8404 0
-908 -1804 -3596 -3116 -3112 -2104 -4152 -12312 -12372 0
-908 -1804 -3596 -3116 -7204 -6184 -4152 -12312 -8280 -8404 0
-1804 -1580 -1072 -64 -2104 -6168 -14356 0
-3596 -3116 -2096 -64 -4152 -12312 -12372 0
-3596 -3116 -2096 -4144 -4152 -12312 -12372 -8404 0
-3596 -3116 -6188 -4144 -4152 -12312 -8280 -8404 0
-7180 -6188 -4144 -64 -8248 -8280 -8404 0
-64 -120 -216 -456 -14348 -12332 -8252 0
-124 -120 -216 -456 -904 -14348 -12332 -8252 0
-124 -244 -216 -456 -904 -1800 -14348 -12332 -8252 0
-124 -244 -468 -1800 -3592 -7176 -14344 -14348 -12332 -8252 0
-124 -244 -468 -3592 -7176 -14344 -12304 -12332 -8252 0
-124 -120 -216 -408 -904 -14348 -12332 -8300 0
-124 -244 -468 -408 -904 -1800 -3592 -14348 -12332 -8300 0
-236 -244 -216 -408 -792 -1800 -14348 -12332 -8300 0
-236 -244 -468 -916 -1812 -7176 -14344 -12304 -8240 -8300 0
-124 -244 -436 -916 -3592 -7176 -14344 -12304 -12364 -8300 0
-236 -484 -436 -916 -792 -1560 -3592 -7176 -14348 -12364 -8300 0
-236 -484 -932 -916 -792 -1560 -3096 -7176 -14348 -12364 -8300 0
-236 -484 -436 -312 -792 -1560 -3592 -14348 -12364 -8396 0
-236 -484 -932 -820 -1812 -3604 -3096 -7176 -14344 -12304 -12364 -8396 0
-236 -484 -932 -1828 -7188 -6168 -12312 -8224 -8272 -8396 0
-460 -932 -820 -1588 -3124 -3096 -7176 -14344 -12304 -12364 -8396 0
-460 -1828 -1588 -1080 -2104 -6168 -14344 -14348 -12364 -8396 0
-460 -1828 -1588 -3124 -2104 -6168 -14344 -12304 -12364 -8396 0
-460 -1828 -1588 -3124 -6196 -6168 -14344 -12304 -8272 -8396 0
-460 -3620 -3124 -2104 -4152 -12312 -12304 -12364 -8396 0
-460 -3620 -7204 -6196 -4152 -12312 -8224 -8272 -8396 0
-124 -64 -184 -408 -904 -12364 -8300 0
-124 -188 -436 -916 -3592 -7176 -14344 -12360 -12364 -8300 0
-124 -188 -436 -916 -7176 -14344 -12360 -8272 -8300 0
-236 -188 -436 -408 -792 -1800 -3592 -12364 -8300 0
-236 -188 -436 -916 -792 -1800 -3592 -7176 -12364 -8300 0
-236 -188 -436 -916 -1812 -3592 -7176 -14344 -12360 -12364 -8300 0
-236 -428 -932 -916 -792 -1560 -3096 -7176 -12364 -8300 0
-236 -428 -932 -1812 -3604 -7188 -6168 -14344 -12360 -8272 -8300 0
-236 -428 -932 -3604 -7188 -6168 -12312 -12360 -8272 -8300 0
-236 -188 -436 -820 -1812 -7176 -14344 -12360 -8272 -8396 0
-236 -428 -932 -820 -1812 -1560 -3096 -7176 -14344 -12364 -8396 0
-236 -428 -932 -1828 -7188 -6168 -12312 -8280 -8272 -8396 0
-460 -428 -436 -820 -1588 -3604 -3592 -7176 -14344 -12360 -12364 -8396 0
-460 -428 -932 -820 -1588 -3604 -7188 -7176 -14344 -12360 -8272 -8396 0
-460 -428 -932 -1828 -1588 -3604 -7188 -6168 -14344 -12360 -8272 -8396 0
-460 -908 -932 -1828 -1588 -3124 -3096 -6168 -14344 -12360 -12364 -8396 0
-460 -908 -1828 -3620 -7204 -6196 -6168 -12312 -8280 -8272 -8396 0
-460 -908 -3620 -3124 -2104 -4152 -12312 -12360 -12364 -8396 0
-460 -908 -3620 -3124 -6196 -4152 -12312 -12360 -8272 -8396 0
-460 -908 -7204 -6196 -4152 -8248 -8280 -8272 -8396 0
-236 -188 -64 -312 -792 -1800 -8396 0
-236 -188 -316 -820 -1812 -7176 -14344 -12360 -8392 -8396 0
-236 -428 -316 -820 -1812 -3604 -7176 -14344 -12360 -8392 -8396 0
-460 -428 -316 -820 -1588 -3604 -7176 -14344 -12360 -8392 -8396 0
-460 -428 -812 -1828 -1588 -3604 -3096 -6168 -14344 -12360 -8396 0
-460 -908 -812 -1828 -1588 -1080 -3096 -6168 -14344 -8396 0
-460 -908 -812 -1828 -3620 -3124 -7188 -6168 -12312 -12360 -8392 -8396 0
-460 -908 -1804 -1828 -1588 -3124 -2104 -6168 -14344 -12360 -8396 0
-460 -908 -1804 -3620 -7204 -6196 -4152 -12312 -8280 -8392 -8396 0
-460 -908 -1804 -7204 -6196 -4152 -8248 -8280 -8392 -8396 0
-460 -428 -316 -64 -568 -1560 -3592 0
-460 -428 -316 -572 -1588 -3604 -3592 -7176 -14344 -12360 0
-460 -428 -316 -572 -1588 -3604 -7176 -14344 -12360 -8392 0
-460 -428 -812 -572 -1588 -3604 -7188 -7176 -14344 -12360 -8392 0
-460 -428 -812 -1580 -3620 -3604 -3096 -6168 -12312 -12360 0
-460 -908 -812 -572 -1588 -1080 -3096 -7176 -14344 0
-460 -908 -1804 -1580 -3620 -3124 -2104 -6168 -12312 -12360 0
-460 -908 -1804 -1580 -3620 -7204 -6196 -6168 -12312 -8280 -8392 0
-908 -812 -572 -64 -1080 -3096 -7176 0
-908 -812 -572 -1084 -1080 -3096 -7176 -14344 0
-908 -812 -572 -1084 -3124 -7188 -7176 -14344 -12360 -8392 0
-908 -812 -1580 -3116 -3124 -7188 -6168 -12312 -12360 -8392 0
-908 -1804 -1580 -3116 -7204 -6196 -6168 -12312 -8280 -8392 0
-908 -1804 -3596 -3116 -3124 -2104 -4152 -12312 -12360 0
-908 -1804 -3596 -3116 -7204 -6196 -4152 -12312 -8280 -8392 0
-1804 -1580 -1084 -64 -2104 -6168 -14344 0
-1804 -1580 -1084 -2108 -6196 -6168 -14344 -12360 -8392 0
-1804 -3596 -3116 -6188 -6196 -4152 -12312 -8280 -8392 0
-1804 -3596 -7180 -6188 -6196 -4152 -8248 -8280 -8392 0
-3596 -3116 -2108 -64 -4152 -12312 -12360 0
-7180 -6188 -4156 -64 -8248 -8280 -8392 0
-64 -112 -236 -484 -14356 -12312 -8224 0
-96 -112 -236 -484 -932 -14356 -12312 -8224 0
-96 -208 -236 -484 -932 -1828 -14356 -12312 -8224 0
-96 -208 -460 -3620 -7204 -14372 -12340 -12312 -8224 0
-96 -208 -460 -7204 -14372 -12340 -8248 -8224 0
-96 -112 -236 -428 -932 -14356 -12312 -8280 0
-96 -208 -460 -908 -1828 -3620 -7204 -14372 -14356 -12312 -8280 0
-216 -456 -7180 -6188 -12332 -8252 -8248 -8280 0
-96 -112 -176 -428 -932 -14356 -12372 -8280 0
-96 -208 -400 -908 -932 -1828 -3620 -7204 -14356 -12372 -8280 0
-216 -456 -400 -908 -1804 -1580 -3620 -7204 -14372 -14356 -12372 -8280 0
-216 -456 -904 -7180 -6188 -12332 -8252 -8308 -8280 0
-216 -208 -176 -304 -812 -1828 -14356 -12372 -8404 0
-216 -456 -904 -784 -812 -1580 -3116 -7204 -14356 -12372 -8404 0
-216 -456 -904 -784 -1804 -1580 -3116 -7204 -14372 -14356 -12372 -8404 0
-216 -456 -904 -784 -1804 -3596 -3116 -7204 -14372 -12340 -12372 -8404 0
-216 -456 -904 -1800 -7180 -6188 -12332 -8252 -8308 -8404 0
-468 -456 -400 -784 -560 -1580 -3620 -7204 -14356 -12372 -8404 0
-468 -456 -904 -1800 -3592 -7180 -6188 -12332 -8252 -8308 -8404 0
-468 -904 -784 -560 -1072 -3116 -7204 -14356 -12372 -8404 0
-468 -904 -784 -1552 -3088 -7180 -7204 -14372 -12340 -8308 -8404 0
-468 -904 -1800 -1552 -1072 -3116 -6188 -14372 -14356 -12372 -8404 0
-468 -3592 -3088 -2096 -4144 -12332 -12340 -12372 -8404 0
-468 -3592 -3088 -6160 -4144 -12332 -12340 -8308 -8404 0
-468 -3592 -7176 -6160 -4144 -12332 -8252 -8308 -8404 0
-468 -7176 -6160 -4144 -8240 -8252 -8308 -8404 0
-96 -64 -176 -428 -932 -12372 -8280 0
-96 -160 -400 -908 -3620 -7204 -14372 -12388 -12372 -8280 0
-96 -160 -400 -908 -7204 -14372 -12388 -8308 -8280 0
-216 -408 -904 -784 -812 -1580 -3116 -7204 -12372 -8404 0
-468 -408 -904 -784 -1552 -3596 -7180 -7204 -14372 -12388 -8308 -8404 0
-468 -408 -904 -1800 -1552 -3596 -7180 -6188 -14372 -12388 -8308 -8404 0
-468 -916 -1800 -3592 -3088 -2096 -6188 -12332 -12388 -12372 -8404 0
-468 -916 -3592 -3088 -6160 -4144 -12332 -12388 -8308 -8404 0
-468 -916 -3592 -7176 -6160 -4144 -12332 -8300 -8308 -8404 0
-216 -160 -64 -304 -812 -1828 -8404 0
-216 -408 -288 -784 -1804 -1580 -3620 -7204 -14372 -8404 0
-468 -408 -288 -784 -1552 -3596 -7204 -14372 -12388 -8420 -8404 0
-468 -916 -792 -1800 -1552 -1072 -3116 -6188 -14372 -8404 0
-468 -916 -1812 -1800 -1552 -3088 -2096 -6188 -14372 -12388 -8404 0
-468 -916 -1812 -7176 -6160 -4144 -8240 -8300 -8420 -8404 0
-468 -408 -288 -64 -560 -1580 -3620 0
-468 -408 -288 -544 -560 -1580 -3620 -7204 0
-468 -408 -288 -544 -1552 -3596 -7204 -14372 -12388 -8420 0
-468 -408 -792 -1560 -1552 -3596 -7180 -6188 -14372 -12388 -8420 0
-468 -916 -792 -544 -560 -1072 -3116 -7204 0
-916 -792 -544 -64 -1072 -3116 -7204 0
-916 -792 -544 -1056 -1072 -3116 -7204 -14372 0
-916 -792 -544 -1056 -3088 -3116 -7204 -14372 -12388 0
-916 -792 -1560 -3096 -7176 -7180 -6188 -12332 -8300 -8420 0
-916 -1812 -1560 -1056 -3088 -2096 -6188 -14372 -12388 0
-916 -1812 -3604 -3096 -7176 -6160 -4144 -12332 -8300 -8420 0
-1812 -1560 -1056 -64 -2096 -6188 -14372 0
-3604 -3096 -2080 -64 -4144 -12332 -12388 0
-3604 -3096 -2080 -4128 -4144 -12332 -12388 -8420 0
-7188 -6168 -4128 -64 -8240 -8300 -8420 0
-64 -112 -236 -460 -14356 -12312 -8248 0
-120 -232 -484 -1804 -3596 -7180 -14348 -14356 -12312 -8248 0
-120 -232 -484 -3596 -7180 -14348 -12316 -12312 -8248 0
-120 -232 -484 -7180 -14348 -12316 -8224 -8248 0
-120 -232 -484 -932 -1804 -3596 -7180 -14348 -14356 -12312 -8280 0
-120 -232 -484 -932 -3596 -7180 -14348 -12316 -12312 -8280 0
-120 -232 -484 -932 -7180 -14348 -12316 -8224 -8280 0
-216 -456 -7204 -6188 -12332 -8252 -8224 -8280 0
-120 -232 -176 -428 -908 -1804 -14356 -12372 -8280 0
-120 -232 -424 -932 -1804 -3596 -7180 -14348 -14356 -12372 -8280 0
-120 -232 -424 -932 -3596 -7180 -14348 -12316 -12372 -8280 0
-120 -232 -424 -932 -7180 -14348 -12316 -8284 -8280 0
-216 -456 -904 -3620 -3116 -6188 -12332 -12316 -12372 -8280 0
-216 -232 -176 -304 -812 -1804 -14356 -12372 -8404 0
-216 -456 -424 -304 -812 -1580 -3596 -14356 -12372 -8404 0
-216 -456 -424 -808 -1828 -3620 -3596 -7180 -14348 -12316 -12372 -8404 0
-216 -456 -904 -808 -1828 -1580 -3116 -7180 -14348 -14356 -12372 -8404 0
-216 -456 -904 -808 -1828 -3620 -3116 -7180 -14348 -12316 -12372 -8404 0
-468 -904 -1800 -1576 -1072 -3116 -6188 -14348 -14356 -12372 -8404 0
-468 -1800 -1576 -1072 -2096 -6188 -14348 -14356 -12372 -8404 0
-468 -3592 -3112 -2096 -4144 -12332 -12316 -12372 -8404 0
-468 -7176 -6184 -4144 -8240 -8252 -8284 -8404 0
-120 -64 -176 -428 -908 -12372 -8280 0
-120 -184 -424 -932 -7180 -14348 -12364 -8284 -8280 0
-216 -184 -424 -932 -812 -1804 -3596 -7180 -12372 -8280 0
-216 -184 -424 -932 -1828 -3596 -7180 -14348 -12364 -12372 -8280 0
-216 -408 -904 -3620 -7204 -6188 -12332 -12364 -8284 -8280 0
-468 -408 -904 -808 -1576 -3620 -3116 -7180 -14348 -12364 -12372 -8404 0
-468 -408 -904 -1800 -1576 -3620 -7204 -6188 -14348 -12364 -8284 -8404 0
-468 -916 -3592 -3112 -2096 -4144 -12332 -12364 -12372 -8404 0
-468 -916 -7176 -6184 -4144 -8240 -8300 -8284 -8404 0
-216 -184 -64 -304 -812 -1804 -8404 0
-216 -408 -312 -808 -1828 -1580 -3596 -7180 -14348 -8404 0
-216 -408 -792 -1800 -1828 -1580 -3116 -6188 -14348 -8404 0
-468 -408 -792 -1800 -1576 -3620 -7204 -6188 -14348 -12364 -8396 -8404 0
-468 -408 -792 -1800 -3592 -3620 -7204 -6188 -12332 -12364 -8396 -8404 0
-468 -916 -1812 -3592 -7176 -6184 -4144 -12332 -8300 -8396 -8404 0
-468 -408 -312 -64 -560 -1580 -3596 0
-468 -408 -792 -1560 -1576 -3620 -7204 -6188 -14348 -12364 -8396 0
-468 -916 -792 -568 -560 -1072 -3116 -7180 0
-468 -916 -792 -568 -1576 -1072 -3116 -7180 -14348 0
-916 -792 -568 -64 -1072 -3116 -7180 0
-916 -792 -568 -1080 -3112 -3116 -7180 -14348 -12364 0
-916 -792 -568 -1080 -3112 -7204 -7180 -14348 -12364 -8396 0
-916 -1812 -3604 -3096 -7176 -6184 -4144 -12332 -8300 -8396 0
-1812 -1560 -1080 -64 -2096 -6188 -14348 0
-1812 -1560 -1080 -2104 -6184 -6188 -14348 -12364 -8396 0
-1812 -1560 -3096 -2104 -2096 -6188 -12332 -12364 0
-1812 -3604 -7188 -6168 -6184 -4144 -8240 -8300 -8396 0
-3604 -3096 -2104 -64 -4144 -12332 -12364 0
-3604 -3096 -2104 -4152 -4144 -12332 -12364 -8396 0
-7188 -6168 -4152 -64 -8240 -8300 -8396 0
-64 -112 -232 -484 -14356 -12316 -8224 0
-96 -112 -232 -484 -932 -14356 -12316 -8224 0
-96 -208 -232 -484 -932 -1828 -14356 -12316 -8224 0
-96 -208 -456 -1828 -3620 -7204 -14372 -14356 -12316 -8224 0
-96 -208 -456 -3620 -7204 -14372 -12340 -12316 -8224 0
-96 -112 -232 -424 -932 -14356 -12316 -8284 0
-220 -460 -456 -904 -1800 -3592 -7204 -14372 -12340 -8252 -8284 0
-220 -460 -7176 -6184 -12328 -8248 -8252 -8284 0
-96 -208 -400 -904 -3620 -7204 -14372 -12340 -12372 -8284 0
-220 -460 -400 -904 -808 -1576 -3620 -7204 -14356 -12372 -8284 0
-220 -460 -908 -7176 -6184 -12328 -8248 -8308 -8284 0
-220 -208 -400 -784 -1800 -1828 -3620 -7204 -14372 -14356 -12372 -8404 0
-220 -460 -400 -304 -808 -1576 -3620 -14356 -12372 -8404 0
-468 -908 -784 -560 -1072 -3112 -7204 -14356 -12372 -8404 0
-468 -908 -784 -1552 -3088 -3112 -7204 -14372 -12340 -12372 -8404 0
-468 -1804 -1552 -3088 -2096 -6184 -14372 -12340 -12372 -8404 0
-468 -3596 -3088 -2096 -4144 -12328 -12340 -12372 -8404 0
-96 -64 -176 -424 -932 -12372 -8284 0
-96 -160 -400 -904 -3620 -7204 -14372 -12388 -12372 -8284 0
-96 -160 -400 -904 -7204 -14372 -12388 -8308 -8284 0
-220 -160 -400 -904 -808 -1828 -3620 -7204 -12372 -8284 0
-220 -412 -400 -904 -1800 -1576 -3620 -7204 -14372 -12372 -8284 0
-220 -412 -908 -3592 -7176 -6184 -12328 -12388 -8308 -8284 0
-220 -160 -400 -784 -1800 -7204 -14372 -12388 -8308 -8404 0
-220 -412 -908 -784 -1800 -3592 -3112 -7204 -14372 -12388 -12372 -8404 0
-220 -412 -908 -1804 -7176 -6184 -12328 -8296 -8308 -8404 0
-468 -412 -908 -784 -560 -1576 -3112 -7204 -12372 -8404 0
-468 -412 -908 -784 -1552 -3592 -7176 -7204 -14372 -12388 -8308 -8404 0
-468 -412 -908 -1804 -1552 -3592 -7176 -6184 -14372 -12388 -8308 -8404 0
-468 -412 -908 -1804 -3596 -7176 -6184 -12328 -8296 -8308 -8404 0
-468 -916 -908 -1804 -3596 -7180 -7176 -6184 -12328 -8296 -8308 -8404 0
-468 -916 -1804 -3596 -3088 -2096 -6184 -12328 -12388 -12372 -8404 0
-468 -916 -3596 -3088 -2096 -4144 -12328 -12388 -12372 -8404 0
-468 -916 -3596 -3088 -6160 -4144 -12328 -12388 -8308 -8404 0
-468 -916 -7180 -6160 -4144 -8240 -8296 -8308 -8404 0
-220 -160 -64 -304 -808 -1828 -8404 0
-220 -160 -288 -784 -1800 -7204 -14372 -12388 -8420 -8404 0
-220 -412 -288 -784 -1800 -1576 -3620 -7204 -14372 -8404 0
-220 -412 -288 -784 -1800 -3592 -7204 -14372 -12388 -8420 -8404 0
-468 -916 -796 -784 -1552 -1072 -3112 -7204 -14372 -8404 0
-468 -916 -1812 -3596 -7180 -6160 -4144 -12328 -8296 -8420 -8404 0
-468 -412 -288 -64 -560 -1576 -3620 0
-468 -412 -288 -544 -1552 -3592 -7204 -14372 -12388 -8420 0
-468 -412 -796 -544 -1552 -3592 -3112 -7204 -14372 -12388 0
-468 -916 -796 -544 -1552 -1072 -3112 -7204 -14372 0
-468 -916 -796 -1564 -3596 -3088 -7176 -6184 -12328 -12388 -8420 0
-916 -796 -544 -64 -1072 -3112 -7204 0
-916 -796 -544 -1056 -3088 -7176 -7204 -14372 -12388 -8420 0
-916 -796 -1564 -1056 -3088 -7176 -6184 -14372 -12388 -8420 0
-916 -796 -1564 -3100 -7180 -7176 -6184 -12328 -8296 -8420 0
-916 -1812 -1564 -1056 -3088 -2096 -6184 -14372 -12388 0
-916 -1812 -1564 -3100 -7180 -6160 -6184 -12328 -8296 -8420 0
-916 -1812 -3604 -3100 -7180 -6160 -4144 -12328 -8296 -8420 0
-916 -1812 -3604 -7188 -7180 -6160 -4144 -8240 -8296 -8420 0
-1812 -1564 -1056 -64 -2096 -6184 -14372 0
-1812 -1564 -1056 -2080 -6160 -6184 -14372 -12388 -8420 0
-3604 -3100 -2080 -64 -4144 -12328 -12388 0
-3604 -3100 -2080 -4128 -4144 -12328 -12388 -8420 0
-3604 -3100 -6172 -4128 -4144 -12328 -8296 -8420 0
-7188 -6172 -4128 -64 -8240 -8296 -8420 0
-64 -112 -232 -456 -14356 -12316 -8252 0
-124 -236 -232 -456 -904 -1800 -14356 -12316 -8252 0
-124 -236 -484 -1800 -3592 -7176 -14344 -14356 -12316 -8252 0
-124 -236 -484 -3592 -7176 -14344 -12312 -12316 -8252 0
-124 -236 -484 -7176 -14344 -12312 -8224 -8252 0
-124 -112 -232 -424 -904 -14356 -12316 -8284 0
-124 -236 -484 -424 -904 -1800 -3592 -14356 -12316 -8284 0
-124 -236 -484 -932 -1800 -3592 -7176 -14344 -14356 -12316 -8284 0
-124 -236 -484 -932 -3592 -7176 -14344 -12312 -12316 -8284 0
-220 -236 -484 -932 -1828 -7176 -14344 -12312 -8224 -8284 0
-220 -460 -932 -1828 -3620 -3112 -7176 -14344 -12312 -12316 -8284 0
-220 -460 -1828 -3620 -3112 -6184 -14344 -12312 -12316 -8284 0
-220 -460 -7204 -6184 -12328 -8248 -8224 -8284 0
-124 -112 -176 -424 -904 -14356 -12372 -8284 0
-220 -460 -908 -3620 -3112 -6184 -12328 -12312 -12372 -8284 0
-220 -236 -428 -812 -1828 -1800 -3592 -7176 -14344 -14356 -12372 -8404 0
-220 -236 -428 -812 -1828 -3592 -7176 -14344 -12312 -12372 -8404 0
-220 -460 -428 -304 -808 -1576 -3592 -14356 -12372 -8404 0
-220 -460 -428 -812 -1828 -1576 -3592 -7176 -14344 -14356 -12372 -8404 0
-220 -460 -908 -812 -1828 -3620 -3112 -7176 -14344 -12312 -12372 -8404 0
-220 -460 -908 -1804 -7204 -6184 -12328 -8248 -8280 -8404 0
-468 -460 -428 -304 -560 -1576 -3592 -14356 -12372 -8404 0
-468 -1804 -1580 -3116 -6188 -6184 -14344 -12312 -8280 -8404 0
-468 -3596 -3116 -2096 -4144 -12328 -12312 -12372 -8404 0
-468 -3596 -7180 -6188 -4144 -12328 -8248 -8280 -8404 0
-468 -7180 -6188 -4144 -8240 -8248 -8280 -8404 0
-124 -64 -176 -424 -904 -12372 -8284 0
-124 -188 -428 -424 -904 -1800 -3592 -12372 -8284 0
-124 -188 -428 -932 -3592 -7176 -14344 -12360 -12372 -8284 0
-124 -188 -428 -932 -7176 -14344 -12360 -8280 -8284 0
-220 -188 -428 -932 -808 -1800 -3592 -7176 -12372 -8284 0
-220 -412 -908 -1828 -3620 -7204 -6184 -14344 -12360 -8280 -8284 0
-220 -412 -908 -3620 -7204 -6184 -12328 -12360 -8280 -8284 0
-220 -188 -176 -304 -808 -1800 -12372 -8404 0
-220 -188 -428 -812 -1828 -1800 -3592 -7176 -14344 -12372 -8404 0
-468 -412 -908 -812 -560 -1576 -3112 -7176 -12372 -8404 0
-468 -412 -908 -1804 -1580 -3620 -7204 -6184 -14344 -12360 -8280 -8404 0
-468 -916 -1804 -3596 -3116 -2096 -6184 -12328 -12360 -12372 -8404 0
-468 -916 -3596 -3116 -6188 -4144 -12328 -12360 -8280 -8404 0
-220 -188 -64 -304 -808 -1800 -8404 0
-220 -188 -316 -812 -1828 -7176 -14344 -12360 -8392 -8404 0
-468 -412 -316 -812 -560 -1576 -3592 -7176 -8404 0
-468 -412 -796 -1804 -1580 -3620 -7204 -6184 -14344 -12360 -8392 -8404 0
-468 -916 -1812 -3596 -7180 -6188 -4144 -12328 -8296 -8392 -8404 0
-468 -412 -316 -64 -560 -1576 -3592 0
-468 -412 -796 -572 -1580 -3620 -3112 -7176 -14344 -12360 0
-468 -916 -1812 -1564 -3596 -3116 -2096 -6184 -12328 -12360 0
-468 -916 -1812 -3604 -3596 -7180 -6188 -4144 -12328 -8296 -8392 0
-916 -796 -572 -64 -1072 -3112 -7176 0
-916 -796 -1564 -3100 -7180 -7204 -6184 -12328 -8296 -8392 0
-916 -1812 -3604 -3100 -7180 -6188 -4144 -12328 -8296 -8392 0
-1812 -1564 -1084 -64 -2096 -6184 -14344 0
-1812 -1564 -1084 -2108 -6188 -6184 -14344 -12360 -8392 0
-1812 -1564 -3100 -2108 -2096 -6184 -12328 -12360 0
-1812 -1564 -3100 -2108 -6188 -6184 -12328 -12360 -8392 0
-1812 -3604 -7188 -6172 -6188 -4144 -8240 -8296 -8392 0
-3604 -3100 -2108 -64 -4144 -12328 -12360 0
-3604 -3100 -2108 -4156 -4144 -12328 -12360 -8392 0
-3604 -3100 -6172 -4156 -4144 -12328 -8296 -8392 0
-7188 -6172 -4156 -64 -8240 -8296 -8392 0
-64 -112 -208 -460 -14356 -12340 -8248 0
-120 -232 -208 -460 -908 -1804 -14356 -12340 -8248 0
-120 -232 -456 -1804 -3596 -7180 -14348 -14356 -12340 -8248 0
-120 -232 -456 -3596 -7180 -14348 -12316 -12340 -8248 0
-120 -232 -456 -7180 -14348 -12316 -8252 -8248 0
-120 -232 -456 -904 -7180 -14348 -12316 -8252 -8308 0
-244 -484 -456 -904 -1800 -3592 -7180 -14348 -12316 -8252 -8308 0
-244 -484 -3592 -7176 -6160 -12304 -12316 -8252 -8308 0
-244 -484 -7176 -6160 -12304 -8224 -8252 -8308 0
-120 -232 -424 -904 -7180 -14348 -12316 -8284 -8308 0
-244 -484 -932 -7176 -6160 -12304 -8224 -8284 -8308 0
-244 -232 -176 -304 -784 -1804 -14356 -12372 -8404 0
-244 -232 -424 -808 -1800 -7180 -14348 -12316 -8284 -8404 0
-244 -484 -424 -304 -784 -1552 -3596 -14356 -12372 -8404 0
-244 -484 -424 -808 -1800 -1552 -3596 -7180 -14348 -14356 -12372 -8404 0
-244 -484 -932 -1828 -7176 -6160 -12304 -8224 -8284 -8404 0
-468 -484 -932 -808 -1576 -3592 -3088 -7180 -14348 -12316 -12372 -8404 0
-468 -932 -808 -560 -1072 -3088 -7180 -14356 -12372 -8404 0
-468 -932 -1828 -1576 -1072 -3088 -6160 -14348 -14356 -12372 -8404 0
-468 -1828 -1576 -1072 -2096 -6160 -14348 -14356 -12372 -8404 0
-468 -3620 -3112 -2096 -4144 -12304 -12316 -12372 -8404 0
-468 -3620 -7204 -6184 -4144 -12304 -8224 -8284 -8404 0
-120 -64 -176 -400 -908 -12372 -8308 0
-120 -184 -424 -904 -3596 -7180 -14348 -12364 -12372 -8308 0
-120 -184 -424 -904 -7180 -14348 -12364 -8284 -8308 0
-244 -184 -176 -400 -784 -1804 -12372 -8308 0
-244 -184 -424 -304 -784 -1804 -3596 -12372 -8404 0
-244 -184 -424 -808 -1800 -7180 -14348 -12364 -8284 -8404 0
-244 -436 -932 -808 -1800 -3592 -7176 -7180 -14348 -12364 -8284 -8404 0
-468 -436 -932 -1828 -1576 -3592 -3088 -6160 -14348 -12364 -12372 -8404 0
-468 -436 -932 -1828 -1576 -3592 -7176 -6160 -14348 -12364 -8284 -8404 0
-468 -916 -3620 -3112 -6184 -4144 -12304 -12364 -8284 -8404 0
-468 -916 -7204 -6184 -4144 -8240 -8272 -8284 -8404 0
-244 -184 -64 -304 -784 -1804 -8404 0
-244 -184 -312 -808 -1800 -3596 -7180 -14348 -12364 -8404 0
-244 -184 -312 -808 -1800 -7180 -14348 -12364 -8396 -8404 0
-244 -436 -312 -808 -1800 -1552 -3596 -7180 -14348 -8404 0
-244 -436 -312 -808 -1800 -3592 -7180 -14348 -12364 -8396 -8404 0
-468 -436 -312 -808 -560 -1552 -3596 -7180 -8404 0
-468 -436 -312 -808 -1576 -3592 -7180 -14348 -12364 -8396 -8404 0
-468 -436 -820 -1828 -1576 -3592 -7176 -6160 -14348 -12364 -8396 -8404 0
-468 -916 -1812 -7204 -6184 -4144 -8240 -8272 -8396 -8404 0
-468 -436 -312 -64 -560 -1552 -3596 0
-468 -436 -820 -568 -560 -1552 -3088 -7180 0
-468 -436 -820 -568 -1576 -3592 -3088 -7180 -14348 -12364 0
-468 -436 -820 -1588 -1576 -3592 -7176 -6160 -14348 -12364 -8396 0
-468 -916 -820 -1588 -3620 -3112 -7176 -6160 -12304 -12364 -8396 0
-916 -820 -568 -64 -1072 -3088 -7180 0
-916 -820 -568 -1080 -1072 -3088 -7180 -14348 0
-916 -820 -568 -1080 -3112 -7176 -7180 -14348 -12364 -8396 0
-916 -820 -1588 -1080 -3112 -7176 -6160 -14348 -12364 -8396 0
-916 -820 -1588 -3124 -3112 -7176 -6160 -12304 -12364 -8396 0
-916 -820 -1588 -3124 -7204 -7176 -6160 -12304 -8272 -8396 0
-916 -1812 -3604 -3124 -3112 -2096 -4144 -12304 -12364 0
-916 -1812 -3604 -3124 -7204 -6184 -4144 -12304 -8272 -8396 0
-1812 -1588 -1080 -64 -2096 -6160 -14348 0
-1812 -1588 -1080 -2104 -6184 -6160 -14348 -12364 -8396 0
-3604 -3124 -2104 -64 -4144 -12304 -12364 0
-3604 -3124 -2104 -4152 -4144 -12304 -12364 -8396 0
-7188 -6196 -4152 -64 -8240 -8272 -8396 0
-64 -112 -208 -456 -14356 -12340 -8252 0
-124 -236 -208 -456 -904 -1800 -14356 -12340 -8252 0
-124 -236 -460 -7176 -14344 -12312 -8248 -8252 0
-244 -484 -1804 -3596 -7180 -6160 -14344 -12312 -8248 -8308 0
-244 -484 -7180 -6160 -12304 -8224 -8248 -8308 0
-124 -112 -176 -400 -904 -14356 -12372 -8308 0
-244 -236 -176 -400 -784 -1800 -14356 -12372 -8308 0
-244 -484 -932 -7180 -6160 -12304 -8224 -8280 -8308 0
-244 -236 -176 -304 -784 -1800 -14356 -12372 -8404 0
-244 -236 -428 -304 -784 -1800 -3592 -14356 -12372 -8404 0
-244 -484 -428 -812 -1804 -1552 -3592 -7176 -14344 -14356 -12372 -8404 0
-244 -484 -932 -812 -1804 -3596 -3088 -7176 -14344 -12312 -12372 -8404 0
-244 -484 -932 -1828 -7180 -6160 -12304 -8224 -8280 -8404 0
-468 -484 -428 -812 -1580 -3596 -7176 -14344 -12312 -8280 -8404 0
-468 -484 -932 -812 -560 -1552 -3088 -7176 -14356 -12372 -8404 0
-468 -484 -932 -812 -1580 -3596 -3088 -7176 -14344 -12312 -12372 -8404 0
-468 -484 -932 -812 -1580 -3596 -7180 -7176 -14344 -12312 -8280 -8404 0
-468 -932 -812 -560 -1072 -3088 -7176 -14356 -12372 -8404 0
-468 -932 -1828 -3620 -7204 -7180 -6160 -12304 -8224 -8280 -8404 0
-468 -1828 -1580 -1072 -2096 -6160 -14344 -14356 -12372 -8404 0
-468 -3620 -3116 -2096 -4144 -12304 -12312 -12372 -8404 0
-124 -64 -176 -400 -904 -12372 -8308 0
-124 -188 -428 -400 -904 -1800 -3592 -12372 -8308 0
-124 -188 -428 -908 -3592 -7176 -14344 -12360 -12372 -8308 0
-124 -188 -428 -908 -7176 -14344 -12360 -8280 -8308 0
-244 -436 -428 -908 -784 -1552 -3592 -7176 -12372 -8308 0
-244 -436 -932 -908 -784 -1552 -3088 -7176 -12372 -8308 0
-244 -436 -932 -1804 -3596 -3088 -6160 -14344 -12360 -12372 -8308 0
-244 -436 -932 -7180 -6160 -12304 -8272 -8280 -8308 0
-244 -188 -428 -812 -1804 -7176 -14344 -12360 -8280 -8404 0
-244 -436 -932 -812 -1804 -1552 -3088 -7176 -14344 -12372 -8404 0
-468 -436 -932 -812 -560 -1552 -3088 -7176 -12372 -8404 0
-468 -436 -932 -812 -1580 -3596 -7180 -7176 -14344 -12360 -8280 -8404 0
-468 -436 -932 -1828 -1580 -3596 -7180 -6160 -14344 -12360 -8280 -8404 0
-468 -916 -1828 -3620 -3116 -2096 -6160 -12304 -12360 -12372 -8404 0
-468 -916 -3620 -3116 -2096 -4144 -12304 -12360 -12372 -8404 0
-468 -916 -3620 -3116 -6188 -4144 -12304 -12360 -8280 -8404 0
-468 -916 -7204 -6188 -4144 -8240 -8272 -8280 -8404 0
-244 -188 -64 -304 -784 -1800 -8404 0
-244 -188 -316 -812 -1804 -7176 -14344 -12360 -8392 -8404 0
-244 -436 -316 -812 -1804 -3596 -7176 -14344 -12360 -8392 -8404 0
-468 -436 -316 -304 -560 -1552 -3592 -8404 0
-468 -916 -820 -1828 -1580 -1072 -3088 -6160 -14344 -8404 0
-468 -916 -820 -1828 -1580 -3116 -7180 -6160 -14344 -12360 -8392 -8404 0
-468 -916 -1812 -7204 -6188 -4144 -8240 -8272 -8392 -8404 0
-468 -436 -316 -64 -560 -1552 -3592 0
-468 -436 -316 -572 -1580 -3596 -7176 -14344 -12360 -8392 0
-468 -436 -820 -572 -1580 -3596 -3088 -7176 -14344 -12360 0
-468 -916 -820 -1588 -3620 -3116 -7180 -6160 -12304 -12360 -8392 0
-468 -916 -1812 -1588 -3620 -3116 -2096 -6160 -12304 -12360 0
-468 -916 -1812 -3604 -3620 -7204 -6188 -4144 -12304 -8272 -8392 0
-916 -820 -572 -64 -1072 -3088 -7176 0
-916 -820 -1588 -1084 -1072 -3088 -6160 -14344 0
-916 -820 -1588 -3124 -7204 -7180 -6160 -12304 -8272 -8392 0
-916 -1812 -3604 -3124 -7204 -6188 -4144 -12304 -8272 -8392 0
-1812 -1588 -1084 -64 -2096 -6160 -14344 0
-1812 -1588 -1084 -2108 -2096 -6160 -14344 -12360 0
-1812 -1588 -1084 -2108 -6188 -6160 -14344 -12360 -8392 0
-1812 -3604 -7188 -6196 -6188 -4144 -8240 -8272 -8392 0
-3604 -3124 -2108 -64 -4144 -12304 -12360 0
-7188 -6196 -4156 -64 -8240 -8272 -8392 0
-64 -96 -220 -468 -14372 -12328 -8240 0
-112 -208 -460 -1812 -3604 -7188 -14356 -14372 -12328 -8240 0
-112 -208 -460 -3604 -7188 -14356 -12340 -12328 -8240 0
-112 -96 -220 -412 -916 -14372 -12328 -8296 0
-232 -456 -460 -908 -1804 -3596 -7188 -14356 -12340 -8248 -8296 0
-232 -456 -908 -1804 -3596 -3100 -7188 -14356 -12340 -12328 -8296 0
-232 -456 -7180 -6172 -12316 -8252 -8248 -8296 0
-112 -208 -160 -412 -916 -1812 -14372 -12388 -8296 0
-112 -208 -400 -908 -1812 -3604 -7188 -14356 -14372 -12388 -8296 0
-112 -208 -400 -908 -3604 -7188 -14356 -12340 -12388 -8296 0
-232 -456 -904 -3596 -3100 -6172 -12316 -12340 -12388 -8296 0
-232 -456 -904 -7180 -6172 -12316 -8252 -8308 -8296 0
-232 -208 -160 -288 -796 -1812 -14372 -12388 -8420 0
-232 -208 -400 -288 -796 -1812 -3604 -14372 -12388 -8420 0
-232 -456 -904 -784 -1804 -3596 -3100 -7188 -14356 -12340 -12388 -8420 0
-232 -456 -904 -1800 -7180 -6172 -12316 -8252 -8308 -8420 0
-484 -456 -400 -288 -544 -1564 -3604 -14372 -12388 -8420 0
-484 -904 -784 -544 -1056 -3100 -7188 -14372 -12388 -8420 0
-484 -904 -784 -1552 -1056 -3100 -7188 -14356 -14372 -12388 -8420 0
-484 -904 -1800 -1552 -1056 -3100 -6172 -14356 -14372 -12388 -8420 0
-484 -904 -1800 -3592 -7176 -7180 -6172 -12316 -8252 -8308 -8420 0
-484 -1800 -1552 -1056 -2080 -6172 -14356 -14372 -12388 -8420 0
-484 -1800 -1552 -3088 -2080 -6172 -14356 -12340 -12388 -8420 0
-484 -3592 -3088 -2080 -4128 -12316 -12340 -12388 -8420 0
-484 -3592 -3088 -6160 -4128 -12316 -12340 -8308 -8420 0
-112 -64 -160 -412 -916 -12388 -8296 0
-112 -176 -400 -908 -3604 -7188 -14356 -12372 -12388 -8296 0
-112 -176 -400 -908 -7188 -14356 -12372 -8308 -8296 0
-232 -176 -400 -908 -1804 -3604 -7188 -14356 -12372 -12388 -8296 0
-484 -424 -400 -288 -544 -1564 -3604 -12388 -8420 0
-484 -424 -400 -784 -1552 -3596 -7188 -14356 -12372 -8308 -8420 0
-484 -424 -904 -784 -544 -1564 -3100 -7188 -12388 -8420 0
-484 -424 -904 -1800 -1552 -3596 -7180 -6172 -14356 -12372 -8308 -8420 0
-484 -932 -904 -784 -544 -1056 -3100 -7188 -12388 -8420 0
-484 -932 -904 -784 -1552 -1056 -3100 -7188 -14356 -12388 -8420 0
-484 -932 -904 -784 -1552 -3088 -3100 -7188 -14356 -12372 -12388 -8420 0
-484 -932 -3592 -3088 -2080 -4128 -12316 -12372 -12388 -8420 0
-484 -932 -3592 -3088 -6160 -4128 -12316 -12372 -8308 -8420 0
-484 -932 -7176 -6160 -4128 -8224 -8284 -8308 -8420 0
-232 -176 -64 -288 -796 -1812 -8420 0
-232 -176 -304 -784 -1804 -7188 -14356 -12372 -8404 -8420 0
-232 -424 -304 -784 -1804 -3596 -7188 -14356 -12372 -8404 -8420 0
-484 -424 -304 -784 -1552 -3596 -7188 -14356 -12372 -8404 -8420 0
-484 -424 -808 -1800 -1552 -3596 -7180 -6172 -14356 -12372 -8404 -8420 0
-484 -932 -808 -784 -544 -1056 -3100 -7188 -8420 0
-484 -932 -808 -1800 -3592 -7176 -7180 -6172 -12316 -8284 -8404 -8420 0
-484 -932 -1828 -7176 -6160 -4128 -8224 -8284 -8404 -8420 0
-484 -424 -304 -64 -544 -1564 -3604 0
-484 -932 -808 -560 -544 -1056 -3100 -7188 0
-484 -932 -808 -560 -1552 -1056 -3100 -7188 -14356 0
-484 -932 -808 -560 -1552 -3088 -3100 -7188 -14356 -12372 0
-932 -808 -560 -64 -1056 -3100 -7188 0
-932 -808 -560 -1072 -1056 -3100 -7188 -14356 0
-932 -808 -560 -1072 -3088 -3100 -7188 -14356 -12372 0
-932 -808 -560 -1072 -3088 -7180 -7188 -14356 -12372 -8404 0
-932 -1828 -1576 -1072 -3088 -6160 -6172 -14356 -12372 -8404 0
-932 -1828 -3620 -3112 -7176 -6160 -4128 -12316 -8284 -8404 0
-932 -1828 -3620 -7204 -7176 -6160 -4128 -8224 -8284 -8404 0
-1828 -1576 -1072 -64 -2080 -6172 -14356 0
-1828 -1576 -1072 -2096 -2080 -6172 -14356 -12372 0
-1828 -1576 -1072 -2096 -6160 -6172 -14356 -12372 -8404 0
-1828 -3620 -7204 -6184 -6160 -4128 -8224 -8284 -8404 0
-3620 -3112 -2096 -64 -4128 -12316 -12372 0
-3620 -3112 -6184 -4144 -4128 -12316 -8284 -8404 0
-3620 -7204 -6184 -4144 -4128 -8224 -8284 -8404 0
-7204 -6184 -4144 -64 -8224 -8284 -8404 0
-64 -96 -220 -460 -14372 -12328 -8248 0
-120 -96 -220 -460 -908 -14372 -12328 -8248 0
-120 -216 -468 -1804 -3596 -7180 -14348 -14372 -12328 -8248 0
-120 -216 -468 -3596 -7180 -14348 -12332 -12328 -8248 0
-120 -216 -468 -7180 -14348 -12332 -8240 -8248 0
-120 -96 -220 -412 -908 -14372 -12328 -8296 0
-120 -216 -468 -916 -1804 -3596 -7180 -14348 -14372 -12328 -8296 0
-232 -456 -1812 -3604 -7188 -6172 -14348 -12332 -8240 -8296 0
-232 -456 -3604 -7188 -6172 -12316 -12332 -8240 -8296 0
-232 -456 -7188 -6172 -12316 -8252 -8240 -8296 0
-120 -96 -160 -412 -908 -14372 -12388 -8296 0
-232 -456 -408 -916 -1812 -1564 -3596 -7180 -14348 -14372 -12388 -8296 0
-232 -456 -904 -7188 -6172 -12316 -8252 -8300 -8296 0
-232 -216 -160 -288 -796 -1804 -14372 -12388 -8420 0
-232 -216 -408 -792 -1812 -3596 -7180 -14348 -12332 -12388 -8420 0
-232 -456 -408 -288 -796 -1564 -3596 -14372 -12388 -8420 0
-232 -456 -904 -792 -1812 -1564 -3100 -7180 -14348 -14372 -12388 -8420 0
-232 -456 -904 -792 -1812 -3604 -3100 -7180 -14348 -12332 -12388 -8420 0
-232 -456 -904 -1800 -7188 -6172 -12316 -8252 -8300 -8420 0
-484 -456 -408 -288 -544 -1564 -3596 -14372 -12388 -8420 0
-484 -904 -792 -544 -1056 -3100 -7180 -14372 -12388 -8420 0
-484 -904 -792 -1560 -1056 -3100 -7180 -14348 -14372 -12388 -8420 0
-484 -904 -1800 -3592 -7176 -7188 -6172 -12316 -8252 -8300 -8420 0
-484 -1800 -1560 -1056 -2080 -6172 -14348 -14372 -12388 -8420 0
-484 -3592 -3096 -2080 -4128 -12316 -12332 -12388 -8420 0
-484 -3592 -3096 -6168 -4128 -12316 -12332 -8300 -8420 0
-484 -3592 -7176 -6168 -4128 -12316 -8252 -8300 -8420 0
-484 -7176 -6168 -4128 -8224 -8252 -8300 -8420 0
-120 -64 -160 -412 -908 -12388 -8296 0
-120 -184 -408 -916 -3596 -7180 -14348 -12364 -12388 -8296 0
-120 -184 -408 -916 -7180 -14348 -12364 -8300 -8296 0
-232 -424 -904 -916 -796 -1564 -3100 -7180 -12388 -8296 0
-232 -184 -160 -288 -796 -1804 -12388 -8420 0
-232 -184 -408 -792 -1812 -3596 -7180 -14348 -12364 -12388 -8420 0
-232 -424 -904 -1800 -7188 -6172 -12316 -8284 -8300 -8420 0
-484 -424 -408 -288 -544 -1564 -3596 -12388 -8420 0
-484 -424 -904 -792 -544 -1564 -3100 -7180 -12388 -8420 0
-484 -932 -1800 -1560 -3096 -2080 -6172 -14348 -12364 -12388 -8420 0
-484 -932 -3592 -3096 -2080 -4128 -12316 -12364 -12388 -8420 0
-484 -932 -3592 -3096 -6168 -4128 -12316 -12364 -8300 -8420 0
-484 -932 -7176 -6168 -4128 -8224 -8284 -8300 -8420 0
-232 -184 -64 -288 -796 -1804 -8420 0
-232 -424 -312 -792 -1812 -3604 -3596 -7180 -14348 -12364 -8420 0
-484 -932 -1828 -1800 -1560 -3096 -2080 -6172 -14348 -12364 -8420 0
-484 -932 -1828 -3592 -7176 -6168 -4128 -12316 -8284 -8396 -8420 0
-484 -932 -1828 -7176 -6168 -4128 -8224 -8284 -8396 -8420 0
-484 -424 -312 -64 -544 -1564 -3596 0
-484 -424 -312 -568 -1560 -3604 -7180 -14348 -12364 -8396 0
-484 -932 -808 -568 -544 -1056 -3100 -7180 0
-484 -932 -808 -568 -1560 -3096 -3100 -7180 -14348 -12364 0
-484 -932 -808 -568 -1560 -3096 -7188 -7180 -14348 -12364 -8396 0
-484 -932 -808 -1576 -3592 -3096 -3100 -6172 -12316 -12364 0
-484 -932 -1828 -1576 -3592 -3096 -2080 -6172 -12316 -12364 0
-932 -808 -568 -64 -1056 -3100 -7180 0
-932 -808 -568 -1080 -1056 -3100 -7180 -14348 0
-932 -808 -568 -1080 -3096 -7188 -7180 -14348 -12364 -8396 0
-932 -808 -1576 -1080 -3096 -7188 -6172 -14348 -12364 -8396 0
-932 -1828 -1576 -1080 -3096 -2080 -6172 -14348 -12364 0
-932 -1828 -1576 -3112 -7176 -6168 -6172 -12316 -8284 -8396 0
-932 -1828 -3620 -3112 -7176 -6168 -4128 -12316 -8284 -8396 0
-1828 -1576 -1080 -64 -2080 -6172 -14348 0
-1828 -1576 -1080 -2104 -2080 -6172 -14348 -12364 0
-1828 -1576 -1080 -2104 -6168 -6172 -14348 -12364 -8396 0
-1828 -1576 -3112 -2104 -6168 -6172 -12316 -12364 -8396 0
-1828 -3620 -7204 -6184 -6168 -4128 -8224 -8284 -8396 0
-3620 -3112 -2104 -64 -4128 -12316 -12364 0
-3620 -3112 -2104 -4152 -4128 -12316 -12364 -8396 0
-3620 -7204 -6184 -4152 -4128 -8224 -8284 -8396 0
-7204 -6184 -4152 -64 -8224 -8284 -8396 0
-64 -96 -216 -468 -14372 -12332 -8240 0
-112 -96 -216 -468 -916 -14372 -12332 -8240 0
-112 -208 -456 -1812 -3604 -7188 -14356 -14372 -12332 -8240 0
-112 -208 -456 -3604 -7188 -14356 -12340 -12332 -8240 0
-112 -96 -216 -408 -916 -14372 -12332 -8300 0
-112 -208 -456 -408 -916 -1812 -3604 -14372 -12332 -8300 0
-236 -208 -456 -904 -792 -1812 -3604 -7188 -14372 -12332 -8300 0
-236 -460 -1800 -3592 -7176 -6168 -14356 -12340 -8252 -8300 0
-236 -460 -7176 -6168 -12312 -8248 -8252 -8300 0
-112 -96 -160 -408 -916 -14372 -12388 -8300 0
-112 -208 -400 -904 -3604 -7188 -14356 -12340 -12388 -8300 0
-236 -460 -908 -3592 -3096 -6168 -12312 -12340 -12388 -8300 0
-236 -460 -908 -7176 -6168 -12312 -8248 -8308 -8300 0
-236 -208 -160 -288 -792 -1812 -14372 -12388 -8420 0
-236 -208 -400 -784 -1800 -1812 -3604 -7188 -14356 -14372 -12388 -8420 0
-236 -208 -400 -784 -1800 -3604 -7188 -14356 -12340 -12388 -8420 0
-236 -460 -400 -784 -1800 -1560 -3604 -7188 -14356 -14372 -12388 -8420 0
-236 -460 -400 -784 -1800 -3592 -3604 -7188 -14356 -12340 -12388 -8420 0
-236 -460 -908 -784 -1800 -3592 -3096 -7188 -14356 -12340 -12388 -8420 0
-236 -460 -908 -1804 -7176 -6168 -12312 -8248 -8308 -8420 0
-484 -908 -784 -544 -1056 -3096 -7188 -14372 -12388 -8420 0
-484 -908 -1804 -1552 -1056 -3096 -6168 -14356 -14372 -12388 -8420 0
-484 -1804 -1552 -1056 -2080 -6168 -14356 -14372 -12388 -8420 0
-484 -1804 -1552 -3088 -6160 -6168 -14356 -12340 -8308 -8420 0
-484 -3596 -3088 -2080 -4128 -12312 -12340 -12388 -8420 0
-484 -7180 -6160 -4128 -8224 -8248 -8308 -8420 0
-112 -64 -160 -408 -916 -12388 -8300 0
-112 -176 -400 -904 -3604 -7188 -14356 -12372 -12388 -8300 0
-112 -176 -400 -904 -7188 -14356 -12372 -8308 -8300 0
-236 -428 -908 -3592 -7176 -6168 -12312 -12372 -8308 -8300 0
-236 -176 -400 -288 -792 -1812 -3604 -12388 -8420 0
-236 -176 -400 -784 -1800 -1812 -3604 -7188 -14356 -12388 -8420 0
-236 -428 -908 -784 -792 -1560 -3096 -7188 -12388 -8420 0
-236 -428 -908 -784 -1800 -1560 -3096 -7188 -14356 -12388 -8420 0
-236 -428 -908 -1804 -7176 -6168 -12312 -8280 -8308 -8420 0
-484 -428 -400 -288 -544 -1560 -3604 -12388 -8420 0
-484 -428 -908 -784 -544 -1560 -3096 -7188 -12388 -8420 0
-484 -428 -908 -784 -1552 -3592 -3096 -7188 -14356 -12372 -12388 -8420 0
-484 -428 -908 -784 -1552 -3592 -7176 -7188 -14356 -12372 -8308 -8420 0
-484 -428 -908 -1804 -1552 -3592 -7176 -6168 -14356 -12372 -8308 -8420 0
-484 -428 -908 -1804 -3596 -3592 -3096 -6168 -12312 -12372 -12388 -8420 0
-484 -932 -908 -784 -544 -1056 -3096 -7188 -12388 -8420 0
-484 -932 -1804 -1552 -1056 -2080 -6168 -14356 -12388 -8420 0
-484 -932 -3596 -3088 -2080 -4128 -12312 -12372 -12388 -8420 0
-484 -932 -3596 -3088 -6160 -4128 -12312 -12372 -8308 -8420 0
-484 -932 -7180 -6160 -4128 -8224 -8280 -8308 -8420 0
-236 -176 -64 -288 -792 -1812 -8420 0
-236 -428 -304 -784 -1800 -1560 -3604 -7188 -14356 -8420 0
-484 -428 -812 -1804 -1552 -3592 -3096 -6168 -14356 -12372 -8420 0
-484 -428 -812 -1804 -1552 -3592 -7176 -6168 -14356 -12372 -8404 -8420 0
-484 -932 -812 -1804 -1552 -1056 -3096 -6168 -14356 -8420 0
-484 -932 -812 -1804 -1552 -3088 -7176 -6168 -14356 -12372 -8404 -8420 0
-484 -932 -812 -1804 -3596 -7180 -7176 -6168 -12312 -8280 -8404 -8420 0
-484 -932 -1828 -3596 -7180 -6160 -4128 -12312 -8280 -8404 -8420 0
-484 -932 -1828 -7180 -6160 -4128 -8224 -8280 -8404 -8420 0
-484 -428 -304 -64 -544 -1560 -3604 0
-484 -428 -304 -560 -1552 -1560 -3604 -7188 -14356 0
-484 -428 -304 -560 -1552 -3592 -7188 -14356 -12372 -8404 0
-484 -428 -812 -560 -1552 -3592 -3096 -7188 -14356 -12372 0
-484 -428 -812 -560 -1552 -3592 -7176 -7188 -14356 -12372 -8404 0
-484 -932 -812 -560 -544 -1056 -3096 -7188 0
-484 -932 -812 -560 -1552 -1056 -3096 -7188 -14356 0
-932 -812 -560 -64 -1056 -3096 -7188 0
-932 -812 -560 -1072 -3088 -3096 -7188 -14356 -12372 0
-932 -812 -1580 -1072 -3088 -7176 -6168 -14356 -12372 -8404 0
-932 -812 -1580 -3116 -3088 -7176 -6168 -12312 -12372 -8404 0
-932 -1828 -1580 -1072 -3088 -2080 -6168 -14356 -12372 0
-932 -1828 -1580 -1072 -3088 -6160 -6168 -14356 -12372 -8404 0
-932 -1828 -1580 -3116 -7180 -6160 -6168 -12312 -8280 -8404 0
-932 -1828 -3620 -3116 -3088 -2080 -4128 -12312 -12372 0
-932 -1828 -3620 -3116 -7180 -6160 -4128 -12312 -8280 -8404 0
-932 -1828 -3620 -7204 -7180 -6160 -4128 -8224 -8280 -8404 0
-1828 -1580 -1072 -64 -2080 -6168 -14356 0
-1828 -1580 -1072 -2096 -2080 -6168 -14356 -12372 0
-1828 -1580 -1072 -2096 -6160 -6168 -14356 -12372 -8404 0
-1828 -3620 -3116 -2096 -2080 -4128 -12312 -12372 0
-3620 -3116 -2096 -64 -4128 -12312 -12372 0
-3620 -3116 -2096 -4144 -4128 -12312 -12372 -8404 0
-3620 -3116 -6188 -4144 -4128 -12312 -8280 -8404 0
-7204 -6188 -4144 -64 -8224 -8280 -8404 0
-64 -96 -216 -456 -14372 -12332 -8252 0
-124 -220 -468 -1800 -3592 -7176 -14344 -14372 -12332 -8252 0
-124 -220 -468 -3592 -7176 -14344 -12328 -12332 -8252 0
-124 -220 -468 -7176 -14344 -12328 -8240 -8252 0
-124 -96 -216 -408 -904 -14372 -12332 -8300 0
-236 -220 -468 -916 -1812 -3592 -7176 -14344 -12328 -12332 -8300 0
-236 -460 -468 -916 -1812 -3604 -7176 -14344 -12328 -8240 -8300 0
-236 -460 -7188 -6168 -12312 -8248 -8240 -8300 0
-124 -96 -160 -408 -904 -14372 -12388 -8300 0
-124 -220 -412 -916 -3592 -7176 -14344 -12328 -12388 -8300 0
-236 -220 -160 -288 -792 -1800 -14372 -12388 -8420 0
-236 -460 -908 -796 -1812 -3604 -3096 -7176 -14344 -12328 -12388 -8420 0
-484 -908 -796 -544 -1056 -3096 -7176 -14372 -12388 -8420 0
-484 -1804 -1564 -1056 -2080 -6168 -14344 -14372 -12388 -8420 0
-484 -1804 -1564 -3100 -2080 -6168 -14344 -12328 -12388 -8420 0
-484 -3596 -3100 -2080 -4128 -12312 -12328 -12388 -8420 0
-484 -7180 -6172 -4128 -8224 -8248 -8296 -8420 0
-124 -64 -160 -408 -904 -12388 -8300 0
-124 -188 -412 -408 -904 -1800 -3592 -12388 -8300 0
-124 -188 -412 -916 -3592 -7176 -14344 -12360 -12388 -8300 0
-124 -188 -412 -916 -7176 -14344 -12360 -8296 -8300 0
-236 -188 -412 -916 -792 -1800 -3592 -7176 -12388 -8300 0
-236 -428 -908 -796 -792 -1560 -3096 -7176 -12388 -8420 0
-484 -428 -412 -796 -1564 -3604 -3592 -7176 -14344 -12360 -12388 -8420 0
-484 -428 -908 -796 -544 -1560 -3096 -7176 -12388 -8420 0
-484 -428 -908 -796 -1564 -3604 -7188 -7176 -14344 -12360 -8296 -8420 0
-484 -428 -908 -1804 -1564 -3604 -3096 -6168 -14344 -12360 -12388 -8420 0
-484 -428 -908 -1804 -1564 -3604 -7188 -6168 -14344 -12360 -8296 -8420 0
-484 -932 -1804 -1564 -1056 -2080 -6168 -14344 -12388 -8420 0
-484 -932 -1804 -3596 -3100 -2080 -6168 -12312 -12360 -12388 -8420 0
-484 -932 -3596 -3100 -6172 -4128 -12312 -12360 -8296 -8420 0
-484 -932 -7180 -6172 -4128 -8224 -8280 -8296 -8420 0
-236 -188 -64 -288 -792 -1800 -8420 0
-236 -188 -316 -796 -1812 -3592 -7176 -14344 -12360 -8420 0
-236 -428 -316 -796 -1812 -3604 -7176 -14344 -12360 -8392 -8420 0
-484 -428 -316 -796 -1564 -3604 -7176 -14344 -12360 -8392 -8420 0
-484 -932 -812 -1804 -1564 -3100 -7188 -6168 -14344 -12360 -8392 -8420 0
-484 -932 -812 -1804 -3596 -3100 -7188 -6168 -12312 -12360 -8392 -8420 0
-484 -932 -1828 -3596 -7180 -6172 -4128 -12312 -8280 -8392 -8420 0
-484 -932 -1828 -7180 -6172 -4128 -8224 -8280 -8392 -8420 0
-484 -428 -316 -64 -544 -1560 -3592 0
-484 -428 -316 -572 -544 -1560 -3592 -7176 0
-484 -428 -316 -572 -1564 -3604 -3592 -7176 -14344 -12360 0
-484 -428 -316 -572 -1564 -3604 -7176 -14344 -12360 -8392 0
-484 -428 -812 -572 -1564 -3604 -3096 -7176 -14344 -12360 0
-484 -932 -812 -572 -1564 -1056 -3096 -7176 -14344 0
-484 -932 -812 -572 -1564 -3100 -3096 -7176 -14344 -12360 0
-932 -812 -572 -64 -1056 -3096 -7176 0
-932 -812 -572 -1084 -1056 -3096 -7176 -14344 0
-932 -812 -1580 -1084 -3100 -7188 -6168 -14344 -12360 -8392 0
-932 -812 -1580 -3116 -7180 -7188 -6168 -12312 -8280 -8392 0
-932 -1828 -1580 -1084 -3100 -2080 -6168 -14344 -12360 0
-932 -1828 -1580 -1084 -3100 -6172 -6168 -14344 -12360 -8392 0
-932 -1828 -1580 -3116 -3100 -2080 -6168 -12312 -12360 0
-932 -1828 -3620 -3116 -7180 -6172 -4128 -12312 -8280 -8392 0
-932 -1828 -3620 -7204 -7180 -6172 -4128 -8224 -8280 -8392 0
-1828 -1580 -1084 -64 -2080 -6168 -14344 0
-1828 -1580 -1084 -2108 -2080 -6168 -14344 -12360 0
-1828 -1580 -1084 -2108 -6172 -6168 -14344 -12360 -8392 0
-1828 -3620 -7204 -6188 -6172 -4128 -8224 -8280 -8392 0
-3620 -3116 -2108 -64 -4128 -12312 -12360 0
-3620 -3116 -2108 -4156 -4128 -12312 -12360 -8392 0
-3620 -3116 -6188 -4156 -4128 -12312 -8280 -8392 0
-7204 -6188 -4156 -64 -8224 -8280 -8392 0
-64 -96 -208 -460 -14372 -12340 -8248 0
-120 -216 -456 -1804 -3596 -7180 -14348 -14372 -12340 -8248 0
-120 -216 -456 -3596 -7180 -14348 -12332 -12340 -8248 0
-120 -216 -456 -7180 -14348 -12332 -8252 -8248 0
-120 -96 -208 -400 -908 -14372 -12340 -8308 0
-244 -216 -456 -904 -1800 -7180 -14348 -12332 -8252 -8308 0
-244 -468 -3592 -7176 -6160 -12304 -12332 -8252 -8308 0
-244 -468 -7176 -6160 -12304 -8240 -8252 -8308 0
-120 -96 -160 -400 -908 -14372 -12388 -8308 0
-120 -216 -408 -904 -1804 -3596 -7180 -14348 -14372 -12388 -8308 0
-120 -216 -408 -904 -3596 -7180 -14348 -12332 -12388 -8308 0
-120 -216 -408 -904 -7180 -14348 -12332 -8300 -8308 0
-244 -468 -916 -7176 -6160 -12304 -8240 -8300 -8308 0
-244 -216 -160 -288 -784 -1804 -14372 -12388 -8420 0
-244 -216 -408 -792 -1800 -3596 -7180 -14348 -12332 -12388 -8420 0
-244 -468 -408 -792 -1800 -1552 -3596 -7180 -14348 -14372 -12388 -8420 0
-244 -468 -916 -792 -1800 -3592 -3088 -7180 -14348 -12332 -12388 -8420 0
-484 -468 -408 -288 -544 -1552 -3596 -14372 -12388 -8420 0
-484 -916 -792 -544 -1056 -3088 -7180 -14372 -12388 -8420 0
-484 -916 -1812 -1560 -3096 -7176 -6160 -14348 -12332 -8300 -8420 0
-484 -1812 -1560 -1056 -2080 -6160 -14348 -14372 -12388 -8420 0
-484 -1812 -1560 -3096 -2080 -6160 -14348 -12332 -12388 -8420 0
-484 -3604 -3096 -2080 -4128 -12304 -12332 -12388 -8420 0
-484 -7188 -6168 -4128 -8224 -8240 -8300 -8420 0
-120 -64 -160 -400 -908 -12388 -8308 0
-120 -184 -408 -904 -3596 -7180 -14348 -12364 -12388 -8308 0
-120 -184 -408 -904 -7180 -14348 -12364 -8300 -8308 0
-244 -184 -408 -904 -784 -1804 -3596 -7180 -12388 -8308 0
-244 -184 -408 -792 -1800 -7180 -14348 -12364 -8300 -8420 0
-244 -436 -916 -792 -1800 -1552 -3088 -7180 -14348 -12388 -8420 0
-244 -436 -916 -1812 -7176 -6160 -12304 -8272 -8300 -8420 0
-484 -436 -408 -288 -544 -1552 -3596 -12388 -8420 0
-484 -436 -408 -792 -1560 -3592 -7180 -14348 -12364 -8300 -8420 0
-484 -436 -916 -1812 -1560 -3592 -7176 -6160 -14348 -12364 -8300 -8420 0
-484 -932 -916 -1812 -1560 -1056 -3088 -6160 -14348 -12388 -8420 0
-484 -932 -1812 -1560 -1056 -2080 -6160 -14348 -12388 -8420 0
-484 -932 -1812 -3604 -3096 -2080 -6160 -12304 -12364 -12388 -8420 0
-484 -932 -3604 -3096 -6168 -4128 -12304 -12364 -8300 -8420 0
-484 -932 -7188 -6168 -4128 -8224 -8272 -8300 -8420 0
-244 -184 -64 -288 -784 -1804 -8420 0
-244 -184 -312 -792 -1800 -7180 -14348 -12364 -8396 -8420 0
-244 -436 -312 -792 -1800 -1552 -3596 -7180 -14348 -8420 0
-484 -436 -820 -1812 -1560 -3592 -3088 -6160 -14348 -12364 -8420 0
-484 -932 -820 -1812 -1560 -1056 -3088 -6160 -14348 -8420 0
-484 -932 -1828 -3604 -7188 -6168 -4128 -12304 -8272 -8396 -8420 0
-484 -436 -312 -64 -544 -1552 -3596 0
-484 -436 -312 -568 -1560 -3592 -7180 -14348 -12364 -8396 0
-484 -932 -820 -568 -1560 -3096 -3088 -7180 -14348 -12364 0
-484 -932 -820 -1588 -3604 -3096 -7176 -6160 -12304 -12364 -8396 0
-484 -932 -1828 -1588 -3604 -3096 -2080 -6160 -12304 -12364 0
-932 -820 -568 -64 -1056 -3088 -7180 0
-932 -820 -568 -1080 -3096 -7176 -7180 -14348 -12364 -8396 0
-932 -820 -1588 -1080 -3096 -3088 -6160 -14348 -12364 0
-932 -820 -1588 -1080 -3096 -7176 -6160 -14348 -12364 -8396 0
-932 -1828 -3620 -3124 -7188 -6168 -4128 -12304 -8272 -8396 0
-1828 -1588 -1080 -64 -2080 -6160 -14348 0
-1828 -1588 -1080 -2104 -6168 -6160 -14348 -12364 -8396 0
-3620 -3124 -2104 -64 -4128 -12304 -12364 0
-3620 -3124 -2104 -4152 -4128 -12304 -12364 -8396 0
-3620 -3124 -6196 -4152 -4128 -12304 -8272 -8396 0
-3620 -7204 -6196 -4152 -4128 -8224 -8272 -8396 0
-7204 -6196 -4152 -64 -8224 -8272 -8396 0
-64 -96 -208 -456 -14372 -12340 -8252 0
-124 -220 -460 -3592 -7176 -14344 -12328 -12340 -8252 0
-124 -220 -460 -7176 -14344 -12328 -8248 -8252 0
-124 -96 -208 -400 -904 -14372 -12340 -8308 0
-124 -220 -460 -908 -1800 -3592 -7176 -14344 -14372 -12340 -8308 0
-124 -220 -460 -908 -7176 -14344 -12328 -8248 -8308 0
-244 -468 -460 -908 -1804 -3596 -7176 -14344 -12328 -8248 -8308 0
-244 -468 -908 -1804 -3596 -3088 -7176 -14344 -12328 -12340 -8308 0
-244 -468 -1804 -3596 -3088 -6160 -14344 -12328 -12340 -8308 0
-244 -468 -1804 -3596 -7180 -6160 -14344 -12328 -8248 -8308 0
-124 -96 -160 -400 -904 -14372 -12388 -8308 0
-124 -220 -412 -908 -904 -1800 -3592 -7176 -14372 -12388 -8308 0
-124 -220 -412 -908 -3592 -7176 -14344 -12328 -12388 -8308 0
-244 -220 -160 -400 -784 -1800 -14372 -12388 -8308 0
-244 -468 -412 -908 -784 -1552 -3592 -7176 -14372 -12388 -8308 0
-244 -468 -916 -7180 -6160 -12304 -8240 -8296 -8308 0
-244 -220 -160 -288 -784 -1800 -14372 -12388 -8420 0
-244 -468 -412 -288 -784 -1552 -3592 -14372 -12388 -8420 0
-244 -468 -412 -796 -1804 -3596 -3592 -7176 -14344 -12328 -12388 -8420 0
-244 -468 -916 -796 -1804 -3596 -3088 -7176 -14344 -12328 -12388 -8420 0
-244 -468 -916 -1812 -7180 -6160 -12304 -8240 -8296 -8420 0
-484 -468 -916 -796 -1564 -3596 -3088 -7176 -14344 -12328 -12388 -8420 0
-484 -916 -796 -544 -1056 -3088 -7176 -14372 -12388 -8420 0
-484 -916 -796 -1564 -1056 -3088 -7176 -14344 -14372 -12388 -8420 0
-484 -3604 -3100 -2080 -4128 -12304 -12328 -12388 -8420 0
-484 -3604 -3100 -6172 -4128 -12304 -12328 -8296 -8420 0
-484 -7188 -6172 -4128 -8224 -8240 -8296 -8420 0
-124 -64 -160 -400 -904 -12388 -8308 0
-124 -188 -412 -908 -3592 -7176 -14344 -12360 -12388 -8308 0
-124 -188 -412 -908 -7176 -14344 -12360 -8296 -8308 0
-244 -188 -412 -908 -784 -1800 -3592 -7176 -12388 -8308 0
-244 -436 -916 -7180 -6160 -12304 -8272 -8296 -8308 0
-244 -188 -160 -288 -784 -1800 -12388 -8420 0
-244 -188 -412 -796 -1804 -3592 -7176 -14344 -12360 -12388 -8420 0
-244 -436 -916 -796 -1804 -1552 -3088 -7176 -14344 -12388 -8420 0
-244 -436 -916 -796 -1804 -3596 -3088 -7176 -14344 -12360 -12388 -8420 0
-244 -436 -916 -796 -1804 -3596 -7180 -7176 -14344 -12360 -8296 -8420 0
-244 -436 -916 -1812 -7180 -6160 -12304 -8272 -8296 -8420 0
-484 -436 -916 -796 -544 -1552 -3088 -7176 -12388 -8420 0
-484 -436 -916 -796 -1564 -3596 -7180 -7176 -14344 -12360 -8296 -8420 0
-484 -436 -916 -1812 -1564 -3596 -7180 -6160 -14344 -12360 -8296 -8420 0
-484 -932 -916 -1812 -1564 -1056 -3088 -6160 -14344 -12388 -8420 0
-484 -932 -1812 -1564 -1056 -2080 -6160 -14344 -12388 -8420 0
-484 -932 -1812 -1564 -3100 -2080 -6160 -14344 -12360 -12388 -8420 0
-484 -932 -1812 -3604 -3100 -2080 -6160 -12304 -12360 -12388 -8420 0
-484 -932 -3604 -3100 -2080 -4128 -12304 -12360 -12388 -8420 0
-484 -932 -3604 -3100 -6172 -4128 -12304 -12360 -8296 -8420 0
-484 -932 -7188 -6172 -4128 -8224 -8272 -8296 -8420 0
-244 -188 -64 -288 -784 -1800 -8420 0
-244 -188 -316 -288 -784 -1800 -3592 -8420 0
-244 -188 -316 -796 -1804 -3592 -7176 -14344 -12360 -8420 0
-244 -188 -316 -796 -1804 -7176 -14344 -12360 -8392 -8420 0
-244 -436 -316 -796 -1804 -1552 -3592 -7176 -14344 -8420 0
-484 -932 -820 -1812 -1564 -1056 -3088 -6160 -14344 -8420 0
-484 -932 -1828 -1812 -1564 -3100 -2080 -6160 -14344 -12360 -8420 0
-484 -932 -1828 -7188 -6172 -4128 -8224 -8272 -8392 -8420 0
-484 -436 -316 -64 -544 -1552 -3592 0
-484 -436 -316 -572 -1564 -3596 -7176 -14344 -12360 -8392 0
-484 -436 -820 -572 -1564 -3596 -3088 -7176 -14344 -12360 0
-484 -436 -820 -1588 -3604 -3596 -7180 -6160 -12304 -12360 -8392 0
-484 -932 -820 -572 -1564 -3100 -7180 -7176 -14344 -12360 -8392 0
-932 -820 -572 -64 -1056 -3088 -7176 0
-932 -820 -572 -1084 -3100 -7180 -7176 -14344 -12360 -8392 0
-932 -820 -1588 -1084 -3100 -7180 -6160 -14344 -12360 -8392 0
-932 -1828 -1588 -1084 -3100 -2080 -6160 -14344 -12360 0
-932 -1828 -1588 -1084 -3100 -6172 -6160 -14344 -12360 -8392 0
-932 -1828 -1588 -3124 -3100 -2080 -6160 -12304 -12360 0
-932 -1828 -3620 -3124 -7188 -6172 -4128 -12304 -8272 -8392 0
-1828 -1588 -1084 -64 -2080 -6160 -14344 0
-1828 -1588 -1084 -2108 -6172 -6160 -14344 -12360 -8392 0
-1828 -3620 -3124 -6196 -6172 -4128 -12304 -8272 -8392 0
-3620 -3124 -2108 -64 -4128 -12304 -12360 0
-3620 -3124 -2108 -4156 -4128 -12304 -12360 -8392 0
-3620 -3124 -6196 -4156 -4128 -12304 -8272 -8392 0
-7204 -6196 -4156 -64 -8224 -8272 -8392 0
