p cnf 64576 12938
-6 0
-10 0
-18 0
-34 0
-66 0
-130 0
-258 0
-514 0
-1026 0
-15 0
-23 0
-39 0
-71 0
-135 0
-263 0
-519 0
-1031 0
-2055 0
-27 0
-43 0
-75 0
-139 0
-267 0
-523 0
-1035 0
-2059 0
-51 0
-83 0
-147 0
-275 0
-531 0
-1043 0
-2067 0
-99 0
-163 0
-291 0
-547 0
-1059 0
-2083 0
-195 0
-323 0
-1091 0
-387 0
-643 0
-771 0
-1283 0
-1539 0
-2563 0
-3075 0
-32 0
-48 0
-80 0
-144 0
-272 0
-528 0
-1040 0
-2064 0
-56 0
-88 0
-152 0
-280 0
-536 0
-1048 0
-2072 0
-104 0
-168 0
-296 0
-552 0
-1064 0
-2088 0
-200 0
-328 0
-584 0
-1096 0
-392 0
-648 0
-1160 0
-776 0
-1288 0
-2312 0
-1544 0
-2568 0
-3080 0
-60 0
-92 0
-156 0
-284 0
-540 0
-1052 0
-2076 0
-108 0
-172 0
-300 0
-556 0
-1068 0
-2092 0
-204 0
-332 0
-588 0
-396 0
-652 0
-1164 0
-2188 0
-780 0
-1292 0
-1548 0
-2572 0
-3084 0
-116 0
-180 0
-308 0
-564 0
-1076 0
-2100 0
-212 0
-340 0
-596 0
-1108 0
-404 0
-660 0
-1172 0
-788 0
-1300 0
-2324 0
-1556 0
-2580 0
-3092 0
-228 0
-356 0
-612 0
-1124 0
-420 0
-676 0
-1188 0
-804 0
-1316 0
-2340 0
-1572 0
-2596 0
-3108 0
-452 0
-708 0
-836 0
-3140 0
-900 0
-1412 0
-1668 0
-3204 0
-1796 0
-3332 0
-3588 0
-784 783 0
-412 411 0
-820 819 0
-14 5 0
-198 70 134 6 -5 0
-326 70 262 6 -5 0
-582 70 518 6 -5 0
-390 134 262 6 -5 0
-646 134 518 6 -5 0
-1158 134 1030 6 -5 0
-774 262 518 6 -5 0
-2310 262 2054 6 -5 0
-1542 518 1030 6 -5 0
-3078 1030 2054 6 -5 0
-14 9 0
-202 74 138 10 -9 0
-330 74 266 10 -9 0
-394 138 266 10 -9 0
-650 138 522 10 -9 0
-1162 138 1034 10 -9 0
-778 266 522 10 -9 0
-1290 266 1034 10 -9 0
-3082 1034 2058 10 -9 0
-22 17 0
-210 82 146 18 -17 0
-338 82 274 18 -17 0
-594 82 530 18 -17 0
-402 146 274 18 -17 0
-658 146 530 18 -17 0
-1170 146 1042 18 -17 0
-786 274 530 18 -17 0
-1298 274 1042 18 -17 0
-2322 274 2066 18 -17 0
-2578 530 2066 18 -17 0
-38 33 0
-226 98 162 34 -33 0
-354 98 290 34 -33 0
-610 98 546 34 -33 0
-418 162 290 34 -33 0
-674 162 546 34 -33 0
-1186 162 1058 34 -33 0
-802 290 546 34 -33 0
-1314 290 1058 34 -33 0
-2338 290 2082 34 -33 0
-78 70 74 66 -65 0
-86 70 82 66 -65 0
-102 70 98 66 -65 0
-1094 70 1090 66 -65 0
-90 74 82 66 -65 0
-106 74 98 66 -65 0
-194 65 0
-142 134 138 130 -129 0
-150 134 146 130 -129 0
-166 134 162 130 -129 0
-154 138 146 130 -129 0
-170 138 162 130 -129 0
-178 146 162 130 -129 0
-194 129 0
-270 262 266 258 -257 0
-278 262 274 258 -257 0
-294 262 290 258 -257 0
-282 266 274 258 -257 0
-298 266 290 258 -257 0
-322 257 0
-554 522 546 514 -513 0
-578 513 0
-1038 1030 1034 1026 -1025 0
-1154 1025 0
-31 14 0
-14 78 0
-207 79 143 15 -14 0
-335 79 271 15 -14 0
-591 79 527 15 -14 0
-14 142 0
-399 143 271 15 -14 0
-655 143 527 15 -14 0
-1167 143 1039 15 -14 0
-14 270 0
-783 271 527 15 -14 0
-1295 271 1039 15 -14 0
-2319 271 2063 15 -14 0
-14 526 0
-1551 527 1039 15 -14 0
-2575 527 2063 15 -14 0
-14 1038 0
-14 2062 0
-31 22 0
-22 86 0
-215 87 151 23 -22 0
-343 87 279 23 -22 0
-599 87 535 23 -22 0
-22 150 0
-407 151 279 23 -22 0
-663 151 535 23 -22 0
-22 278 0
-791 279 535 23 -22 0
-1303 279 1047 23 -22 0
-2327 279 2071 23 -22 0
-1559 535 1047 23 -22 0
-2583 535 2071 23 -22 0
-3095 1047 2071 23 -22 0
-22 2070 0
-47 38 0
-38 102 0
-231 103 167 39 -38 0
-359 103 295 39 -38 0
-615 103 551 39 -38 0
-38 166 0
-423 167 295 39 -38 0
-679 167 551 39 -38 0
-1191 167 1063 39 -38 0
-38 294 0
-807 295 551 39 -38 0
-1319 295 1063 39 -38 0
-2343 295 2087 39 -38 0
-38 550 0
-1575 551 1063 39 -38 0
-2599 551 2087 39 -38 0
-38 1062 0
-3111 1063 2087 39 -38 0
-38 2086 0
-79 70 0
-95 79 87 71 -70 0
-111 79 103 71 -70 0
-207 79 199 71 -70 0
-335 79 327 71 -70 0
-87 70 0
-119 87 103 71 -70 0
-215 87 199 71 -70 0
-343 87 327 71 -70 0
-103 70 0
-231 103 199 71 -70 0
-359 103 327 71 -70 0
-199 70 0
-455 199 327 71 -70 0
-711 199 583 71 -70 0
-327 70 0
-1351 327 1095 71 -70 0
-583 70 0
-143 134 0
-159 143 151 135 -134 0
-175 143 167 135 -134 0
-207 143 199 135 -134 0
-399 143 391 135 -134 0
-151 134 0
-183 151 167 135 -134 0
-215 151 199 135 -134 0
-407 151 391 135 -134 0
-663 151 647 135 -134 0
-167 134 0
-231 167 199 135 -134 0
-423 167 391 135 -134 0
-679 167 647 135 -134 0
-199 134 0
-455 199 391 135 -134 0
-711 199 647 135 -134 0
-391 134 0
-903 391 647 135 -134 0
-1415 391 1159 135 -134 0
-647 134 0
-1159 134 0
-271 262 0
-287 271 279 263 -262 0
-303 271 295 263 -262 0
-335 271 327 263 -262 0
-399 271 391 263 -262 0
-783 271 775 263 -262 0
-1295 271 1287 263 -262 0
-279 262 0
-311 279 295 263 -262 0
-343 279 327 263 -262 0
-407 279 391 263 -262 0
-791 279 775 263 -262 0
-1303 279 1287 263 -262 0
-295 262 0
-359 295 327 263 -262 0
-423 295 391 263 -262 0
-807 295 775 263 -262 0
-1319 295 1287 263 -262 0
-327 262 0
-455 327 391 263 -262 0
-839 327 775 263 -262 0
-391 262 0
-903 391 775 263 -262 0
-1415 391 1287 263 -262 0
-775 262 0
-1799 775 1287 263 -262 0
-2823 775 2311 263 -262 0
-1287 262 0
-3335 1287 2311 263 -262 0
-2311 262 0
-527 518 0
-543 527 535 519 -518 0
-559 527 551 519 -518 0
-783 527 775 519 -518 0
-1551 527 1543 519 -518 0
-2575 527 2567 519 -518 0
-535 518 0
-567 535 551 519 -518 0
-791 535 775 519 -518 0
-551 518 0
-807 551 775 519 -518 0
-2599 551 2567 519 -518 0
-583 518 0
-839 583 775 519 -518 0
-647 518 0
-903 647 775 519 -518 0
-1671 647 1543 519 -518 0
-775 518 0
-1799 775 1543 519 -518 0
-2823 775 2567 519 -518 0
-1543 518 0
-2567 518 0
-1039 1030 0
-1055 1039 1047 1031 -1030 0
-1071 1039 1063 1031 -1030 0
-1167 1039 1159 1031 -1030 0
-1295 1039 1287 1031 -1030 0
-3087 1039 3079 1031 -1030 0
-1047 1030 0
-1079 1047 1063 1031 -1030 0
-1303 1047 1287 1031 -1030 0
-1559 1047 1543 1031 -1030 0
-1063 1030 0
-1191 1063 1159 1031 -1030 0
-1319 1063 1287 1031 -1030 0
-1575 1063 1543 1031 -1030 0
-3111 1063 3079 1031 -1030 0
-1030 1094 0
-1159 1030 0
-1671 1159 1543 1031 -1030 0
-3335 1287 3079 1031 -1030 0
-1543 1030 0
-3591 1543 3079 1031 -1030 0
-3079 1030 0
-2063 2054 0
-2095 2063 2087 2055 -2054 0
-2071 2054 0
-2103 2071 2087 2055 -2054 0
-2087 2054 0
-3111 2087 3079 2055 -2054 0
-2311 2054 0
-2823 2311 2567 2055 -2054 0
-3335 2311 3079 2055 -2054 0
-2567 2054 0
-3079 2054 0
-31 26 0
-26 90 0
-219 91 155 27 -26 0
-347 91 283 27 -26 0
-603 91 539 27 -26 0
-26 154 0
-411 155 283 27 -26 0
-667 155 539 27 -26 0
-1179 155 1051 27 -26 0
-26 282 0
-795 283 539 27 -26 0
-1307 283 1051 27 -26 0
-2331 283 2075 27 -26 0
-1563 539 1051 27 -26 0
-2587 539 2075 27 -26 0
-3099 1051 2075 27 -26 0
-26 2074 0
-47 42 0
-42 106 0
-235 107 171 43 -42 0
-363 107 299 43 -42 0
-619 107 555 43 -42 0
-42 170 0
-427 171 299 43 -42 0
-683 171 555 43 -42 0
-1195 171 1067 43 -42 0
-42 298 0
-811 299 555 43 -42 0
-1323 299 1067 43 -42 0
-2347 299 2091 43 -42 0
-42 554 0
-1579 555 1067 43 -42 0
-2603 555 2091 43 -42 0
-42 1066 0
-42 2090 0
-79 74 0
-95 79 91 75 -74 0
-111 79 107 75 -74 0
-207 79 203 75 -74 0
-335 79 331 75 -74 0
-91 74 0
-123 91 107 75 -74 0
-219 91 203 75 -74 0
-347 91 331 75 -74 0
-107 74 0
-235 107 203 75 -74 0
-363 107 331 75 -74 0
-619 107 587 75 -74 0
-203 74 0
-459 203 331 75 -74 0
-715 203 587 75 -74 0
-331 74 0
-843 331 587 75 -74 0
-143 138 0
-159 143 155 139 -138 0
-175 143 171 139 -138 0
-207 143 203 139 -138 0
-399 143 395 139 -138 0
-2191 143 2187 139 -138 0
-155 138 0
-187 155 171 139 -138 0
-219 155 203 139 -138 0
-411 155 395 139 -138 0
-667 155 651 139 -138 0
-171 138 0
-235 171 203 139 -138 0
-427 171 395 139 -138 0
-683 171 651 139 -138 0
-203 138 0
-459 203 395 139 -138 0
-715 203 651 139 -138 0
-395 138 0
-907 395 651 139 -138 0
-1419 395 1163 139 -138 0
-651 138 0
-1163 138 0
-271 266 0
-287 271 283 267 -266 0
-303 271 299 267 -266 0
-399 271 395 267 -266 0
-783 271 779 267 -266 0
-1295 271 1291 267 -266 0
-283 266 0
-315 283 299 267 -266 0
-347 283 331 267 -266 0
-411 283 395 267 -266 0
-795 283 779 267 -266 0
-1307 283 1291 267 -266 0
-299 266 0
-363 299 331 267 -266 0
-427 299 395 267 -266 0
-811 299 779 267 -266 0
-331 266 0
-459 331 395 267 -266 0
-843 331 779 267 -266 0
-395 266 0
-907 395 779 267 -266 0
-1419 395 1291 267 -266 0
-779 266 0
-2827 779 2315 267 -266 0
-1291 266 0
-2315 266 0
-527 522 0
-543 527 539 523 -522 0
-559 527 555 523 -522 0
-783 527 779 523 -522 0
-1551 527 1547 523 -522 0
-2575 527 2571 523 -522 0
-539 522 0
-795 539 779 523 -522 0
-1563 539 1547 523 -522 0
-2587 539 2571 523 -522 0
-555 522 0
-811 555 779 523 -522 0
-1579 555 1547 523 -522 0
-2603 555 2571 523 -522 0
-587 522 0
-651 522 0
-1675 651 1547 523 -522 0
-779 522 0
-1803 779 1547 523 -522 0
-2827 779 2571 523 -522 0
-1547 522 0
-2571 522 0
-1039 1034 0
-1055 1039 1051 1035 -1034 0
-1071 1039 1067 1035 -1034 0
-1051 1034 0
-1563 1051 1547 1035 -1034 0
-1067 1034 0
-3115 1067 3083 1035 -1034 0
-1099 1034 0
-1163 1034 0
-1675 1163 1547 1035 -1034 0
-1291 1034 0
-1803 1291 1547 1035 -1034 0
-3339 1291 3083 1035 -1034 0
-1547 1034 0
-3595 1547 3083 1035 -1034 0
-3083 1034 0
-2063 2058 0
-2095 2063 2091 2059 -2058 0
-3087 2063 3083 2059 -2058 0
-2075 2058 0
-2091 2058 0
-3115 2091 3083 2059 -2058 0
-2315 2058 0
-2571 2058 0
-55 50 0
-50 114 0
-243 115 179 51 -50 0
-371 115 307 51 -50 0
-627 115 563 51 -50 0
-50 178 0
-435 179 307 51 -50 0
-691 179 563 51 -50 0
-1203 179 1075 51 -50 0
-50 306 0
-819 307 563 51 -50 0
-1331 307 1075 51 -50 0
-2355 307 2099 51 -50 0
-1587 563 1075 51 -50 0
-2611 563 2099 51 -50 0
-50 2098 0
-87 82 0
-95 87 91 83 -82 0
-119 87 115 83 -82 0
-215 87 211 83 -82 0
-343 87 339 83 -82 0
-1111 87 1107 83 -82 0
-91 82 0
-123 91 115 83 -82 0
-219 91 211 83 -82 0
-347 91 339 83 -82 0
-603 91 595 83 -82 0
-115 82 0
-243 115 211 83 -82 0
-371 115 339 83 -82 0
-211 82 0
-467 211 339 83 -82 0
-723 211 595 83 -82 0
-339 82 0
-1363 339 1107 83 -82 0
-595 82 0
-151 146 0
-159 151 155 147 -146 0
-183 151 179 147 -146 0
-215 151 211 147 -146 0
-407 151 403 147 -146 0
-155 146 0
-187 155 179 147 -146 0
-219 155 211 147 -146 0
-411 155 403 147 -146 0
-667 155 659 147 -146 0
-179 146 0
-243 179 211 147 -146 0
-435 179 403 147 -146 0
-691 179 659 147 -146 0
-211 146 0
-467 211 403 147 -146 0
-723 211 659 147 -146 0
-403 146 0
-915 403 659 147 -146 0
-1427 403 1171 147 -146 0
-659 146 0
-279 274 0
-287 279 283 275 -274 0
-311 279 307 275 -274 0
-343 279 339 275 -274 0
-407 279 403 275 -274 0
-791 279 787 275 -274 0
-283 274 0
-315 283 307 275 -274 0
-347 283 339 275 -274 0
-411 283 403 275 -274 0
-795 283 787 275 -274 0
-1307 283 1299 275 -274 0
-307 274 0
-371 307 339 275 -274 0
-435 307 403 275 -274 0
-819 307 787 275 -274 0
-1331 307 1299 275 -274 0
-339 274 0
-467 339 403 275 -274 0
-851 339 787 275 -274 0
-403 274 0
-915 403 787 275 -274 0
-1427 403 1299 275 -274 0
-787 274 0
-1811 787 1299 275 -274 0
-2835 787 2323 275 -274 0
-1299 274 0
-2323 274 0
-535 530 0
-543 535 539 531 -530 0
-567 535 563 531 -530 0
-791 535 787 531 -530 0
-1559 535 1555 531 -530 0
-2583 535 2579 531 -530 0
-539 530 0
-571 539 563 531 -530 0
-795 539 787 531 -530 0
-2587 539 2579 531 -530 0
-563 530 0
-819 563 787 531 -530 0
-2611 563 2579 531 -530 0
-595 530 0
-723 595 659 531 -530 0
-659 530 0
-915 659 787 531 -530 0
-1683 659 1555 531 -530 0
-787 530 0
-1811 787 1555 531 -530 0
-2835 787 2579 531 -530 0
-1555 530 0
-3603 1555 2579 531 -530 0
-2579 530 0
-1047 1042 0
-1055 1047 1051 1043 -1042 0
-1079 1047 1075 1043 -1042 0
-1303 1047 1299 1043 -1042 0
-1559 1047 1555 1043 -1042 0
-1051 1042 0
-1083 1051 1075 1043 -1042 0
-1307 1051 1299 1043 -1042 0
-1563 1051 1555 1043 -1042 0
-3099 1051 3091 1043 -1042 0
-1075 1042 0
-3123 1075 3091 1043 -1042 0
-1171 1042 0
-1427 1171 1299 1043 -1042 0
-1299 1042 0
-1811 1299 1555 1043 -1042 0
-3347 1299 3091 1043 -1042 0
-1555 1042 0
-3603 1555 3091 1043 -1042 0
-3091 1042 0
-2071 2066 0
-3095 2071 3091 2067 -2066 0
-2075 2066 0
-2107 2075 2099 2067 -2066 0
-3099 2075 3091 2067 -2066 0
-2099 2066 0
-2323 2066 0
-3347 2323 3091 2067 -2066 0
-2579 2066 0
-3603 2579 3091 2067 -2066 0
-103 98 0
-111 103 107 99 -98 0
-119 103 115 99 -98 0
-231 103 227 99 -98 0
-359 103 355 99 -98 0
-107 98 0
-123 107 115 99 -98 0
-235 107 227 99 -98 0
-363 107 355 99 -98 0
-115 98 0
-243 115 227 99 -98 0
-371 115 355 99 -98 0
-627 115 611 99 -98 0
-1139 115 1123 99 -98 0
-227 98 0
-483 227 355 99 -98 0
-739 227 611 99 -98 0
-355 98 0
-867 355 611 99 -98 0
-1379 355 1123 99 -98 0
-611 98 0
-167 162 0
-175 167 171 163 -162 0
-183 167 179 163 -162 0
-231 167 227 163 -162 0
-423 167 419 163 -162 0
-679 167 675 163 -162 0
-171 162 0
-187 171 179 163 -162 0
-235 171 227 163 -162 0
-427 171 419 163 -162 0
-683 171 675 163 -162 0
-179 162 0
-243 179 227 163 -162 0
-435 179 419 163 -162 0
-691 179 675 163 -162 0
-227 162 0
-483 227 419 163 -162 0
-739 227 675 163 -162 0
-419 162 0
-931 419 675 163 -162 0
-1443 419 1187 163 -162 0
-675 162 0
-1187 162 0
-295 290 0
-303 295 299 291 -290 0
-311 295 307 291 -290 0
-359 295 355 291 -290 0
-423 295 419 291 -290 0
-807 295 803 291 -290 0
-1319 295 1315 291 -290 0
-299 290 0
-315 299 307 291 -290 0
-363 299 355 291 -290 0
-427 299 419 291 -290 0
-811 299 803 291 -290 0
-1323 299 1315 291 -290 0
-307 290 0
-435 307 419 291 -290 0
-819 307 803 291 -290 0
-355 290 0
-483 355 419 291 -290 0
-867 355 803 291 -290 0
-419 290 0
-931 419 803 291 -290 0
-1443 419 1315 291 -290 0
-803 290 0
-1827 803 1315 291 -290 0
-2851 803 2339 291 -290 0
-1315 290 0
-2339 290 0
-551 546 0
-559 551 555 547 -546 0
-567 551 563 547 -546 0
-615 551 611 547 -546 0
-807 551 803 547 -546 0
-1575 551 1571 547 -546 0
-2599 551 2595 547 -546 0
-555 546 0
-571 555 563 547 -546 0
-619 555 611 547 -546 0
-811 555 803 547 -546 0
-1579 555 1571 547 -546 0
-2603 555 2595 547 -546 0
-563 546 0
-627 563 611 547 -546 0
-691 563 675 547 -546 0
-819 563 803 547 -546 0
-611 546 0
-867 611 803 547 -546 0
-675 546 0
-931 675 803 547 -546 0
-1699 675 1571 547 -546 0
-803 546 0
-1827 803 1571 547 -546 0
-2851 803 2595 547 -546 0
-1571 546 0
-3619 1571 2595 547 -546 0
-2595 546 0
-1063 1058 0
-1319 1063 1315 1059 -1058 0
-1575 1063 1571 1059 -1058 0
-3111 1063 3107 1059 -1058 0
-1323 1067 1315 1059 -1058 0
-1579 1067 1571 1059 -1058 0
-1075 1058 0
-1587 1075 1571 1059 -1058 0
-3123 1075 3107 1059 -1058 0
-1187 1058 0
-1443 1187 1315 1059 -1058 0
-1315 1058 0
-1827 1315 1571 1059 -1058 0
-3363 1315 3107 1059 -1058 0
-1571 1058 0
-3619 1571 3107 1059 -1058 0
-3107 1058 0
-2087 2082 0
-2095 2087 2091 2083 -2082 0
-2103 2087 2099 2083 -2082 0
-3111 2087 3107 2083 -2082 0
-2091 2082 0
-3115 2091 3107 2083 -2082 0
-2099 2082 0
-3123 2099 3107 2083 -2082 0
-2339 2082 0
-2851 2339 2595 2083 -2082 0
-3363 2339 3107 2083 -2082 0
-2595 2082 0
-3107 2082 0
-194 198 0
-207 199 203 195 -194 0
-215 199 211 195 -194 0
-231 199 227 195 -194 0
-194 202 0
-219 203 211 195 -194 0
-235 203 227 195 -194 0
-194 210 0
-243 211 227 195 -194 0
-194 226 0
-451 194 0
-322 326 0
-335 327 331 323 -322 0
-343 327 339 323 -322 0
-322 330 0
-363 331 355 323 -322 0
-1355 331 1347 323 -322 0
-322 338 0
-322 354 0
-451 322 0
-578 582 0
-578 594 0
-578 610 0
-707 578 0
-1127 1095 1123 1091 -1090 0
-386 390 0
-399 391 395 387 -386 0
-407 391 403 387 -386 0
-423 391 419 387 -386 0
-386 394 0
-411 395 403 387 -386 0
-427 395 419 387 -386 0
-386 402 0
-435 403 419 387 -386 0
-386 418 0
-451 386 0
-642 646 0
-663 647 659 643 -642 0
-679 647 675 643 -642 0
-642 650 0
-642 658 0
-642 674 0
-707 642 0
-1154 1158 0
-1154 1162 0
-1154 1170 0
-1154 1186 0
-1411 1154 0
-770 774 0
-783 775 779 771 -770 0
-791 775 787 771 -770 0
-807 775 803 771 -770 0
-770 778 0
-795 779 787 771 -770 0
-811 779 803 771 -770 0
-770 786 0
-819 787 803 771 -770 0
-770 802 0
-835 770 0
-1295 1287 1291 1283 -1282 0
-1303 1287 1299 1283 -1282 0
-1319 1287 1315 1283 -1282 0
-1282 1290 0
-1282 1298 0
-1331 1299 1315 1283 -1282 0
-1282 1314 0
-1411 1282 0
-2306 2310 0
-2306 2322 0
-2306 2338 0
-2819 2306 0
-1538 1542 0
-1551 1543 1547 1539 -1538 0
-1559 1543 1555 1539 -1538 0
-1575 1543 1571 1539 -1538 0
-1563 1547 1555 1539 -1538 0
-1579 1547 1571 1539 -1538 0
-1587 1555 1571 1539 -1538 0
-1538 1570 0
-1667 1538 0
-2583 2567 2579 2563 -2562 0
-2562 2578 0
-2819 2562 0
-3074 3078 0
-3087 3079 3083 3075 -3074 0
-3095 3079 3091 3075 -3074 0
-3111 3079 3107 3075 -3074 0
-3207 3079 3203 3075 -3074 0
-3074 3082 0
-3099 3083 3091 3075 -3074 0
-3115 3083 3107 3075 -3074 0
-3123 3091 3107 3075 -3074 0
-3155 3091 3139 3075 -3074 0
-3331 3074 0
-64 31 0
-31 95 0
-224 96 160 32 -31 0
-352 96 288 32 -31 0
-608 96 544 32 -31 0
-31 159 0
-416 160 288 32 -31 0
-672 160 544 32 -31 0
-1184 160 1056 32 -31 0
-31 287 0
-800 288 544 32 -31 0
-1312 288 1056 32 -31 0
-31 543 0
-1568 544 1056 32 -31 0
-2592 544 2080 32 -31 0
-31 1055 0
-3104 1056 2080 32 -31 0
-31 2079 0
-64 47 0
-47 111 0
-240 112 176 48 -47 0
-368 112 304 48 -47 0
-624 112 560 48 -47 0
-47 175 0
-432 176 304 48 -47 0
-688 176 560 48 -47 0
-47 303 0
-816 304 560 48 -47 0
-1328 304 1072 48 -47 0
-47 559 0
-1584 560 1072 48 -47 0
-2608 560 2096 48 -47 0
-47 1071 0
-3120 1072 2096 48 -47 0
-47 2095 0
-96 79 0
-128 96 112 80 -79 0
-224 96 208 80 -79 0
-352 96 336 80 -79 0
-112 79 0
-240 112 208 80 -79 0
-368 112 336 80 -79 0
-79 207 0
-208 79 0
-463 207 335 79 -78 0
-464 208 336 80 -79 0
-719 207 591 79 -78 0
-720 208 592 80 -79 0
-79 335 0
-336 79 0
-847 335 591 79 -78 0
-79 591 0
-592 79 0
-1104 79 0
-160 143 0
-192 160 176 144 -143 0
-224 160 208 144 -143 0
-416 160 400 144 -143 0
-176 143 0
-240 176 208 144 -143 0
-432 176 400 144 -143 0
-688 176 656 144 -143 0
-143 207 0
-208 143 0
-464 208 400 144 -143 0
-720 208 656 144 -143 0
-143 399 0
-400 143 0
-912 400 656 144 -143 0
-143 655 0
-656 143 0
-1680 656 1168 144 -143 0
-2192 143 0
-288 271 0
-320 288 304 272 -271 0
-352 288 336 272 -271 0
-416 288 400 272 -271 0
-800 288 784 272 -271 0
-304 271 0
-368 304 336 272 -271 0
-432 304 400 272 -271 0
-816 304 784 272 -271 0
-271 335 0
-336 271 0
-464 336 400 272 -271 0
-848 336 784 272 -271 0
-271 399 0
-400 271 0
-911 399 783 271 -270 0
-912 400 784 272 -271 0
-1424 400 1296 272 -271 0
-271 783 0
-784 271 0
-1808 784 1296 272 -271 0
-2831 783 2319 271 -270 0
-1296 271 0
-2320 271 0
-544 527 0
-576 544 560 528 -527 0
-672 544 656 528 -527 0
-800 544 784 528 -527 0
-1568 544 1552 528 -527 0
-560 527 0
-624 560 592 528 -527 0
-688 560 656 528 -527 0
-816 560 784 528 -527 0
-1584 560 1552 528 -527 0
-527 591 0
-592 527 0
-847 591 783 527 -526 0
-848 592 784 528 -527 0
-1616 592 1552 528 -527 0
-656 527 0
-911 655 783 527 -526 0
-912 656 784 528 -527 0
-1680 656 1552 528 -527 0
-527 783 0
-784 527 0
-1808 784 1552 528 -527 0
-2832 784 2576 528 -527 0
-527 1551 0
-1552 527 0
-3600 1552 2576 528 -527 0
-2576 527 0
-1056 1039 0
-1088 1056 1072 1040 -1039 0
-1312 1056 1296 1040 -1039 0
-1568 1056 1552 1040 -1039 0
-3104 1056 3088 1040 -1039 0
-1072 1039 0
-1200 1072 1168 1040 -1039 0
-1328 1072 1296 1040 -1039 0
-1584 1072 1552 1040 -1039 0
-3120 1072 3088 1040 -1039 0
-3152 1104 3088 1040 -1039 0
-1039 1295 0
-1296 1039 0
-1807 1295 1551 1039 -1038 0
-1808 1296 1552 1040 -1039 0
-3344 1296 3088 1040 -1039 0
-1039 1551 0
-1552 1039 0
-3599 1551 3087 1039 -1038 0
-3600 1552 3088 1040 -1039 0
-1039 3087 0
-3088 1039 0
-2080 2063 0
-2112 2080 2096 2064 -2063 0
-2592 2080 2576 2064 -2063 0
-3104 2080 3088 2064 -2063 0
-2096 2063 0
-2608 2096 2576 2064 -2063 0
-3120 2096 3088 2064 -2063 0
-2063 2191 0
-2704 2192 2576 2064 -2063 0
-3343 2319 3087 2063 -2062 0
-3344 2320 3088 2064 -2063 0
-2063 2575 0
-2576 2063 0
-3599 2575 3087 2063 -2062 0
-3600 2576 3088 2064 -2063 0
-2063 3087 0
-3088 2063 0
-64 55 0
-55 119 0
-248 120 184 56 -55 0
-376 120 312 56 -55 0
-632 120 568 56 -55 0
-55 183 0
-440 184 312 56 -55 0
-696 184 568 56 -55 0
-55 311 0
-824 312 568 56 -55 0
-1336 312 1080 56 -55 0
-2360 312 2104 56 -55 0
-55 567 0
-1592 568 1080 56 -55 0
-2616 568 2104 56 -55 0
-55 1079 0
-3128 1080 2104 56 -55 0
-55 2103 0
-96 87 0
-128 96 120 88 -87 0
-224 96 216 88 -87 0
-352 96 344 88 -87 0
-1120 96 1112 88 -87 0
-120 87 0
-248 120 216 88 -87 0
-376 120 344 88 -87 0
-632 120 600 88 -87 0
-87 215 0
-216 87 0
-472 216 344 88 -87 0
-728 216 600 88 -87 0
-87 343 0
-344 87 0
-856 344 600 88 -87 0
-1368 344 1112 88 -87 0
-87 599 0
-600 87 0
-87 1111 0
-160 151 0
-192 160 184 152 -151 0
-224 160 216 152 -151 0
-416 160 408 152 -151 0
-672 160 664 152 -151 0
-184 151 0
-248 184 216 152 -151 0
-440 184 408 152 -151 0
-696 184 664 152 -151 0
-151 215 0
-216 151 0
-472 216 408 152 -151 0
-728 216 664 152 -151 0
-151 407 0
-408 151 0
-920 408 664 152 -151 0
-1432 408 1176 152 -151 0
-151 663 0
-664 151 0
-288 279 0
-320 288 312 280 -279 0
-352 288 344 280 -279 0
-416 288 408 280 -279 0
-800 288 792 280 -279 0
-1312 288 1304 280 -279 0
-312 279 0
-376 312 344 280 -279 0
-440 312 408 280 -279 0
-824 312 792 280 -279 0
-1336 312 1304 280 -279 0
-279 343 0
-344 279 0
-472 344 408 280 -279 0
-855 343 791 279 -278 0
-856 344 792 280 -279 0
-408 279 0
-919 407 791 279 -278 0
-920 408 792 280 -279 0
-1432 408 1304 280 -279 0
-279 791 0
-792 279 0
-1816 792 1304 280 -279 0
-2839 791 2327 279 -278 0
-2840 792 2328 280 -279 0
-279 1303 0
-1304 279 0
-279 2327 0
-544 535 0
-576 544 568 536 -535 0
-608 544 600 536 -535 0
-672 544 664 536 -535 0
-800 544 792 536 -535 0
-1568 544 1560 536 -535 0
-2592 544 2584 536 -535 0
-568 535 0
-696 568 664 536 -535 0
-824 568 792 536 -535 0
-1592 568 1560 536 -535 0
-600 535 0
-856 600 792 536 -535 0
-535 663 0
-664 535 0
-920 664 792 536 -535 0
-1688 664 1560 536 -535 0
-535 791 0
-792 535 0
-1816 792 1560 536 -535 0
-2840 792 2584 536 -535 0
-535 1559 0
-1560 535 0
-3608 1560 2584 536 -535 0
-2584 535 0
-1056 1047 0
-1088 1056 1080 1048 -1047 0
-1312 1056 1304 1048 -1047 0
-1568 1056 1560 1048 -1047 0
-3104 1056 3096 1048 -1047 0
-1080 1047 0
-1208 1080 1176 1048 -1047 0
-1336 1080 1304 1048 -1047 0
-1592 1080 1560 1048 -1047 0
-3128 1080 3096 1048 -1047 0
-1047 1111 0
-3160 1112 3096 1048 -1047 0
-1176 1047 0
-1047 1303 0
-1304 1047 0
-1816 1304 1560 1048 -1047 0
-3352 1304 3096 1048 -1047 0
-1047 1559 0
-1560 1047 0
-3608 1560 3096 1048 -1047 0
-1047 3095 0
-3096 1047 0
-2080 2071 0
-2112 2080 2104 2072 -2071 0
-3104 2080 3096 2072 -2071 0
-2104 2071 0
-2616 2104 2584 2072 -2071 0
-3128 2104 3096 2072 -2071 0
-2328 2071 0
-2071 2583 0
-2584 2071 0
-3608 2584 3096 2072 -2071 0
-2071 3095 0
-3096 2071 0
-112 103 0
-128 112 120 104 -103 0
-240 112 232 104 -103 0
-368 112 360 104 -103 0
-120 103 0
-248 120 232 104 -103 0
-376 120 360 104 -103 0
-103 231 0
-232 103 0
-488 232 360 104 -103 0
-743 231 615 103 -102 0
-744 232 616 104 -103 0
-103 359 0
-360 103 0
-103 615 0
-1128 103 0
-2152 103 0
-176 167 0
-192 176 184 168 -167 0
-240 176 232 168 -167 0
-432 176 424 168 -167 0
-688 176 680 168 -167 0
-184 167 0
-248 184 232 168 -167 0
-440 184 424 168 -167 0
-167 231 0
-232 167 0
-488 232 424 168 -167 0
-744 232 680 168 -167 0
-167 423 0
-424 167 0
-936 424 680 168 -167 0
-1448 424 1192 168 -167 0
-167 679 0
-680 167 0
-1192 167 0
-304 295 0
-320 304 312 296 -295 0
-368 304 360 296 -295 0
-432 304 424 296 -295 0
-816 304 808 296 -295 0
-1328 304 1320 296 -295 0
-312 295 0
-376 312 360 296 -295 0
-440 312 424 296 -295 0
-824 312 808 296 -295 0
-1336 312 1320 296 -295 0
-295 359 0
-360 295 0
-488 360 424 296 -295 0
-871 359 807 295 -294 0
-872 360 808 296 -295 0
-295 423 0
-424 295 0
-935 423 807 295 -294 0
-936 424 808 296 -295 0
-1448 424 1320 296 -295 0
-295 807 0
-808 295 0
-1832 808 1320 296 -295 0
-295 1319 0
-1320 295 0
-3368 1320 2344 296 -295 0
-2344 295 0
-560 551 0
-576 560 568 552 -551 0
-624 560 616 552 -551 0
-688 560 680 552 -551 0
-816 560 808 552 -551 0
-1584 560 1576 552 -551 0
-2608 560 2600 552 -551 0
-568 551 0
-696 568 680 552 -551 0
-824 568 808 552 -551 0
-1592 568 1576 552 -551 0
-2616 568 2600 552 -551 0
-616 551 0
-1640 616 1576 552 -551 0
-551 679 0
-680 551 0
-936 680 808 552 -551 0
-1703 679 1575 551 -550 0
-1704 680 1576 552 -551 0
-551 807 0
-808 551 0
-1831 807 1575 551 -550 0
-1832 808 1576 552 -551 0
-2856 808 2600 552 -551 0
-551 1575 0
-1576 551 0
-3624 1576 2600 552 -551 0
-551 2599 0
-2600 551 0
-1072 1063 0
-1088 1072 1080 1064 -1063 0
-1328 1072 1320 1064 -1063 0
-1584 1072 1576 1064 -1063 0
-3120 1072 3112 1064 -1063 0
-1080 1063 0
-1208 1080 1192 1064 -1063 0
-1336 1080 1320 1064 -1063 0
-1592 1080 1576 1064 -1063 0
-3128 1080 3112 1064 -1063 0
-1063 1127 0
-3176 1128 3112 1064 -1063 0
-1192 1063 0
-1448 1192 1320 1064 -1063 0
-1703 1191 1575 1063 -1062 0
-1063 1319 0
-1320 1063 0
-1832 1320 1576 1064 -1063 0
-3368 1320 3112 1064 -1063 0
-1063 1575 0
-1576 1063 0
-3623 1575 3111 1063 -1062 0
-3624 1576 3112 1064 -1063 0
-1063 3111 0
-3112 1063 0
-2096 2087 0
-2112 2096 2104 2088 -2087 0
-2352 2096 2344 2088 -2087 0
-3120 2096 3112 2088 -2087 0
-2104 2087 0
-2616 2104 2600 2088 -2087 0
-3128 2104 3112 2088 -2087 0
-2344 2087 0
-3367 2343 3111 2087 -2086 0
-3368 2344 3112 2088 -2087 0
-2087 2599 0
-2600 2087 0
-3623 2599 3111 2087 -2086 0
-3624 2600 3112 2088 -2087 0
-2087 3111 0
-3112 2087 0
-199 207 0
-208 199 0
-224 208 216 200 -199 0
-239 207 231 199 -198 0
-240 208 232 200 -199 0
-464 208 456 200 -199 0
-199 215 0
-216 199 0
-247 215 231 199 -198 0
-248 216 232 200 -199 0
-472 216 456 200 -199 0
-199 231 0
-232 199 0
-488 232 456 200 -199 0
-456 199 0
-968 456 712 200 -199 0
-712 199 0
-327 335 0
-336 327 0
-351 335 343 327 -326 0
-352 336 344 328 -327 0
-367 335 359 327 -326 0
-368 336 360 328 -327 0
-464 336 456 328 -327 0
-327 343 0
-344 327 0
-472 344 456 328 -327 0
-856 344 840 328 -327 0
-327 359 0
-360 327 0
-488 360 456 328 -327 0
-872 360 840 328 -327 0
-456 327 0
-968 456 840 328 -327 0
-840 327 0
-1864 840 1352 328 -327 0
-1352 327 0
-583 599 0
-600 583 0
-728 600 712 584 -583 0
-872 616 840 584 -583 0
-712 583 0
-968 712 840 584 -583 0
-840 583 0
-1384 1128 1352 1096 -1095 0
-1864 1352 1608 1096 -1095 0
-391 399 0
-400 391 0
-416 400 408 392 -391 0
-432 400 424 392 -391 0
-464 400 456 392 -391 0
-912 400 904 392 -391 0
-391 407 0
-408 391 0
-439 407 423 391 -390 0
-440 408 424 392 -391 0
-472 408 456 392 -391 0
-920 408 904 392 -391 0
-391 423 0
-424 391 0
-488 424 456 392 -391 0
-936 424 904 392 -391 0
-456 391 0
-968 456 904 392 -391 0
-904 391 0
-1928 904 1416 392 -391 0
-1416 391 0
-2440 391 0
-647 655 0
-656 647 0
-672 656 664 648 -647 0
-688 656 680 648 -647 0
-912 656 904 648 -647 0
-647 663 0
-664 647 0
-696 664 680 648 -647 0
-920 664 904 648 -647 0
-647 679 0
-680 647 0
-936 680 904 648 -647 0
-712 647 0
-968 712 904 648 -647 0
-904 647 0
-1928 904 1672 648 -647 0
-1672 647 0
-1159 1191 0
-1416 1159 0
-1928 1416 1672 1160 -1159 0
-1672 1159 0
-1159 3207 0
-775 783 0
-784 775 0
-799 783 791 775 -774 0
-800 784 792 776 -775 0
-815 783 807 775 -774 0
-816 784 808 776 -775 0
-848 784 840 776 -775 0
-912 784 904 776 -775 0
-1808 784 1800 776 -775 0
-775 791 0
-792 775 0
-823 791 807 775 -774 0
-824 792 808 776 -775 0
-856 792 840 776 -775 0
-920 792 904 776 -775 0
-1816 792 1800 776 -775 0
-2840 792 2824 776 -775 0
-775 807 0
-808 775 0
-872 808 840 776 -775 0
-936 808 904 776 -775 0
-1832 808 1800 776 -775 0
-840 775 0
-968 840 904 776 -775 0
-1864 840 1800 776 -775 0
-904 775 0
-1928 904 1800 776 -775 0
-1800 775 0
-3848 1800 2824 776 -775 0
-2824 775 0
-1287 1295 0
-1296 1287 0
-1808 1296 1800 1288 -1287 0
-3344 1296 3336 1288 -1287 0
-1287 1303 0
-1304 1287 0
-1336 1304 1320 1288 -1287 0
-1816 1304 1800 1288 -1287 0
-1287 1319 0
-1320 1287 0
-1832 1320 1800 1288 -1287 0
-1416 1287 0
-1928 1416 1800 1288 -1287 0
-1800 1287 0
-3848 1800 3336 1288 -1287 0
-3336 1287 0
-2311 2327 0
-2311 2343 0
-3368 2344 3336 2312 -2311 0
-3464 2440 3336 2312 -2311 0
-2824 2311 0
-3848 2824 3336 2312 -2311 0
-3336 2311 0
-1543 1551 0
-1552 1543 0
-1568 1552 1560 1544 -1543 0
-1583 1551 1575 1543 -1542 0
-1584 1552 1576 1544 -1543 0
-1808 1552 1800 1544 -1543 0
-3600 1552 3592 1544 -1543 0
-1543 1559 0
-1560 1543 0
-1592 1560 1576 1544 -1543 0
-1816 1560 1800 1544 -1543 0
-3608 1560 3592 1544 -1543 0
-1543 1575 0
-1576 1543 0
-1832 1576 1800 1544 -1543 0
-3624 1576 3592 1544 -1543 0
-1672 1543 0
-1928 1672 1800 1544 -1543 0
-1800 1543 0
-3848 1800 3592 1544 -1543 0
-3592 1543 0
-2567 2575 0
-2608 2576 2600 2568 -2567 0
-3600 2576 3592 2568 -2567 0
-2567 2583 0
-2584 2567 0
-2616 2584 2600 2568 -2567 0
-2840 2584 2824 2568 -2567 0
-2567 2599 0
-2600 2567 0
-2824 2567 0
-3848 2824 3592 2568 -2567 0
-3592 2567 0
-3079 3087 0
-3088 3079 0
-3104 3088 3096 3080 -3079 0
-3120 3088 3112 3080 -3079 0
-3344 3088 3336 3080 -3079 0
-3600 3088 3592 3080 -3079 0
-3079 3095 0
-3096 3079 0
-3127 3095 3111 3079 -3078 0
-3128 3096 3112 3080 -3079 0
-3160 3096 3144 3080 -3079 0
-3352 3096 3336 3080 -3079 0
-3608 3096 3592 3080 -3079 0
-3079 3111 0
-3112 3079 0
-3368 3112 3336 3080 -3079 0
-3624 3112 3592 3080 -3079 0
-3336 3079 0
-3848 3336 3592 3080 -3079 0
-3592 3079 0
-64 59 0
-59 123 0
-252 124 188 60 -59 0
-380 124 316 60 -59 0
-636 124 572 60 -59 0
-59 187 0
-444 188 316 60 -59 0
-700 188 572 60 -59 0
-59 315 0
-828 316 572 60 -59 0
-1340 316 1084 60 -59 0
-2364 316 2108 60 -59 0
-59 571 0
-1596 572 1084 60 -59 0
-2620 572 2108 60 -59 0
-59 1083 0
-3132 1084 2108 60 -59 0
-59 2107 0
-96 91 0
-128 96 124 92 -91 0
-224 96 220 92 -91 0
-352 96 348 92 -91 0
-124 91 0
-252 124 220 92 -91 0
-380 124 348 92 -91 0
-91 219 0
-220 91 0
-475 219 347 91 -90 0
-476 220 348 92 -91 0
-732 220 604 92 -91 0
-91 347 0
-348 91 0
-860 348 604 92 -91 0
-604 91 0
-1116 91 0
-160 155 0
-192 160 188 156 -155 0
-224 160 220 156 -155 0
-416 160 412 156 -155 0
-672 160 668 156 -155 0
-188 155 0
-252 188 220 156 -155 0
-444 188 412 156 -155 0
-700 188 668 156 -155 0
-155 219 0
-220 155 0
-476 220 412 156 -155 0
-732 220 668 156 -155 0
-155 411 0
-412 155 0
-924 412 668 156 -155 0
-155 667 0
-668 155 0
-1180 155 0
-288 283 0
-320 288 316 284 -283 0
-352 288 348 284 -283 0
-416 288 412 284 -283 0
-800 288 796 284 -283 0
-316 283 0
-380 316 348 284 -283 0
-444 316 412 284 -283 0
-828 316 796 284 -283 0
-1340 316 1308 284 -283 0
-2364 316 2332 284 -283 0
-283 347 0
-348 283 0
-476 348 412 284 -283 0
-859 347 795 283 -282 0
-860 348 796 284 -283 0
-283 411 0
-412 283 0
-923 411 795 283 -282 0
-924 412 796 284 -283 0
-1436 412 1308 284 -283 0
-283 795 0
-796 283 0
-1820 796 1308 284 -283 0
-2844 796 2332 284 -283 0
-283 1307 0
-1308 283 0
-2332 283 0
-544 539 0
-576 544 572 540 -539 0
-672 544 668 540 -539 0
-800 544 796 540 -539 0
-1568 544 1564 540 -539 0
-572 539 0
-700 572 668 540 -539 0
-828 572 796 540 -539 0
-1596 572 1564 540 -539 0
-2620 572 2588 540 -539 0
-539 603 0
-604 539 0
-732 604 668 540 -539 0
-539 667 0
-668 539 0
-924 668 796 540 -539 0
-1692 668 1564 540 -539 0
-2716 668 2588 540 -539 0
-539 795 0
-796 539 0
-1820 796 1564 540 -539 0
-2844 796 2588 540 -539 0
-539 1563 0
-1564 539 0
-3612 1564 2588 540 -539 0
-539 2587 0
-2588 539 0
-1056 1051 0
-1088 1056 1084 1052 -1051 0
-1184 1056 1180 1052 -1051 0
-1312 1056 1308 1052 -1051 0
-1568 1056 1564 1052 -1051 0
-3104 1056 3100 1052 -1051 0
-1084 1051 0
-1340 1084 1308 1052 -1051 0
-1596 1084 1564 1052 -1051 0
-3132 1084 3100 1052 -1051 0
-3164 1116 3100 1052 -1051 0
-1436 1180 1308 1052 -1051 0
-1308 1051 0
-1820 1308 1564 1052 -1051 0
-3356 1308 3100 1052 -1051 0
-1051 1563 0
-1564 1051 0
-3612 1564 3100 1052 -1051 0
-1051 3099 0
-3100 1051 0
-2080 2075 0
-2112 2080 2108 2076 -2075 0
-3104 2080 3100 2076 -2075 0
-2108 2075 0
-2364 2108 2332 2076 -2075 0
-2620 2108 2588 2076 -2075 0
-3132 2108 3100 2076 -2075 0
-2332 2075 0
-3356 2332 3100 2076 -2075 0
-2588 2075 0
-3612 2588 3100 2076 -2075 0
-2075 3099 0
-3100 2075 0
-112 107 0
-128 112 124 108 -107 0
-240 112 236 108 -107 0
-368 112 364 108 -107 0
-124 107 0
-252 124 236 108 -107 0
-380 124 364 108 -107 0
-107 235 0
-236 107 0
-491 235 363 107 -106 0
-492 236 364 108 -107 0
-748 236 620 108 -107 0
-107 363 0
-364 107 0
-876 364 620 108 -107 0
-107 619 0
-620 107 0
-1132 107 0
-2156 107 0
-176 171 0
-192 176 188 172 -171 0
-240 176 236 172 -171 0
-432 176 428 172 -171 0
-188 171 0
-252 188 236 172 -171 0
-444 188 428 172 -171 0
-171 235 0
-236 171 0
-492 236 428 172 -171 0
-748 236 684 172 -171 0
-171 427 0
-428 171 0
-940 428 684 172 -171 0
-171 683 0
-684 171 0
-1196 171 0
-2220 171 0
-304 299 0
-320 304 316 300 -299 0
-368 304 364 300 -299 0
-432 304 428 300 -299 0
-816 304 812 300 -299 0
-1328 304 1324 300 -299 0
-316 299 0
-380 316 364 300 -299 0
-444 316 428 300 -299 0
-828 316 812 300 -299 0
-1340 316 1324 300 -299 0
-299 363 0
-364 299 0
-492 364 428 300 -299 0
-876 364 812 300 -299 0
-1388 364 1324 300 -299 0
-299 427 0
-428 299 0
-939 427 811 299 -298 0
-940 428 812 300 -299 0
-1452 428 1324 300 -299 0
-299 811 0
-812 299 0
-1836 812 1324 300 -299 0
-1324 299 0
-299 2347 0
-2348 299 0
-560 555 0
-576 560 572 556 -555 0
-688 560 684 556 -555 0
-816 560 812 556 -555 0
-1584 560 1580 556 -555 0
-2608 560 2604 556 -555 0
-572 555 0
-700 572 684 556 -555 0
-828 572 812 556 -555 0
-1596 572 1580 556 -555 0
-2620 572 2604 556 -555 0
-555 619 0
-620 555 0
-875 619 811 555 -554 0
-1644 620 1580 556 -555 0
-555 683 0
-684 555 0
-939 683 811 555 -554 0
-940 684 812 556 -555 0
-1708 684 1580 556 -555 0
-555 811 0
-812 555 0
-1836 812 1580 556 -555 0
-2860 812 2604 556 -555 0
-555 1579 0
-1580 555 0
-3628 1580 2604 556 -555 0
-2604 555 0
-1072 1067 0
-1088 1072 1084 1068 -1067 0
-1200 1072 1196 1068 -1067 0
-1328 1072 1324 1068 -1067 0
-1584 1072 1580 1068 -1067 0
-3120 1072 3116 1068 -1067 0
-1084 1067 0
-1340 1084 1324 1068 -1067 0
-1596 1084 1580 1068 -1067 0
-3132 1084 3116 1068 -1067 0
-1388 1132 1324 1068 -1067 0
-1708 1196 1580 1068 -1067 0
-1324 1067 0
-1835 1323 1579 1067 -1066 0
-1836 1324 1580 1068 -1067 0
-3372 1324 3116 1068 -1067 0
-1067 1579 0
-1580 1067 0
-3627 1579 3115 1067 -1066 0
-3628 1580 3116 1068 -1067 0
-1067 3115 0
-3116 1067 0
-2096 2091 0
-2112 2096 2108 2092 -2091 0
-2608 2096 2604 2092 -2091 0
-3120 2096 3116 2092 -2091 0
-2108 2091 0
-2364 2108 2348 2092 -2091 0
-2620 2108 2604 2092 -2091 0
-3132 2108 3116 2092 -2091 0
-3180 2156 3116 2092 -2091 0
-3244 2220 3116 2092 -2091 0
-3371 2347 3115 2091 -2090 0
-2604 2091 0
-3628 2604 3116 2092 -2091 0
-2091 3115 0
-3116 2091 0
-203 207 0
-208 203 0
-224 208 220 204 -203 0
-240 208 236 204 -203 0
-464 208 460 204 -203 0
-203 219 0
-220 203 0
-252 220 236 204 -203 0
-476 220 460 204 -203 0
-203 235 0
-236 203 0
-492 236 460 204 -203 0
-460 203 0
-972 460 716 204 -203 0
-716 203 0
-331 335 0
-336 331 0
-351 335 347 331 -330 0
-352 336 348 332 -331 0
-367 335 363 331 -330 0
-368 336 364 332 -331 0
-464 336 460 332 -331 0
-331 347 0
-348 331 0
-379 347 363 331 -330 0
-380 348 364 332 -331 0
-476 348 460 332 -331 0
-860 348 844 332 -331 0
-331 363 0
-364 331 0
-492 364 460 332 -331 0
-876 364 844 332 -331 0
-460 331 0
-972 460 844 332 -331 0
-844 331 0
-1868 844 1356 332 -331 0
-587 591 0
-587 603 0
-732 604 716 588 -587 0
-587 619 0
-876 620 844 588 -587 0
-716 587 0
-972 716 844 588 -587 0
-844 587 0
-1356 1099 0
-395 399 0
-400 395 0
-415 399 411 395 -394 0
-416 400 412 396 -395 0
-431 399 427 395 -394 0
-432 400 428 396 -395 0
-464 400 460 396 -395 0
-912 400 908 396 -395 0
-395 411 0
-412 395 0
-443 411 427 395 -394 0
-444 412 428 396 -395 0
-476 412 460 396 -395 0
-924 412 908 396 -395 0
-395 427 0
-428 395 0
-492 428 460 396 -395 0
-940 428 908 396 -395 0
-1452 428 1420 396 -395 0
-460 395 0
-972 460 908 396 -395 0
-908 395 0
-1932 908 1420 396 -395 0
-1420 395 0
-651 655 0
-656 651 0
-912 656 908 652 -651 0
-651 667 0
-668 651 0
-732 668 716 652 -651 0
-924 668 908 652 -651 0
-651 683 0
-684 651 0
-940 684 908 652 -651 0
-1708 684 1676 652 -651 0
-2732 684 2700 652 -651 0
-716 651 0
-972 716 908 652 -651 0
-908 651 0
-1932 908 1676 652 -651 0
-1163 1167 0
-1168 1163 0
-1163 1179 0
-1163 1195 0
-1420 1163 0
-1932 1420 1676 1164 -1163 0
-1676 1163 0
-3216 2192 3212 2188 -2187 0
-779 783 0
-784 779 0
-800 784 796 780 -779 0
-815 783 811 779 -778 0
-816 784 812 780 -779 0
-848 784 844 780 -779 0
-912 784 908 780 -779 0
-1808 784 1804 780 -779 0
-779 795 0
-796 779 0
-827 795 811 779 -778 0
-828 796 812 780 -779 0
-860 796 844 780 -779 0
-924 796 908 780 -779 0
-1820 796 1804 780 -779 0
-779 811 0
-812 779 0
-876 812 844 780 -779 0
-940 812 908 780 -779 0
-1836 812 1804 780 -779 0
-844 779 0
-972 844 908 780 -779 0
-1868 844 1804 780 -779 0
-908 779 0
-1932 908 1804 780 -779 0
-1804 779 0
-3852 1804 2828 780 -779 0
-2828 779 0
-1291 1295 0
-1296 1291 0
-1312 1296 1308 1292 -1291 0
-1424 1296 1420 1292 -1291 0
-1808 1296 1804 1292 -1291 0
-1291 1307 0
-1340 1308 1324 1292 -1291 0
-1820 1308 1804 1292 -1291 0
-1291 1323 0
-1324 1291 0
-1836 1324 1804 1292 -1291 0
-1291 1355 0
-1868 1356 1804 1292 -1291 0
-1420 1291 0
-1932 1420 1804 1292 -1291 0
-1804 1291 0
-3852 1804 3340 1292 -1291 0
-3340 1291 0
-2315 2331 0
-2315 2347 0
-2828 2315 0
-1547 1551 0
-1552 1547 0
-1568 1552 1564 1548 -1547 0
-1584 1552 1580 1548 -1547 0
-1808 1552 1804 1548 -1547 0
-3600 1552 3596 1548 -1547 0
-1547 1563 0
-1564 1547 0
-1596 1564 1580 1548 -1547 0
-1820 1564 1804 1548 -1547 0
-3612 1564 3596 1548 -1547 0
-1547 1579 0
-1580 1547 0
-1836 1580 1804 1548 -1547 0
-3628 1580 3596 1548 -1547 0
-1676 1547 0
-3724 1676 3596 1548 -1547 0
-1804 1547 0
-3852 1804 3596 1548 -1547 0
-3596 1547 0
-2571 2575 0
-3600 2576 3596 2572 -2571 0
-2571 2587 0
-2588 2571 0
-2844 2588 2828 2572 -2571 0
-3612 2588 3596 2572 -2571 0
-2571 2603 0
-2604 2571 0
-3628 2604 3596 2572 -2571 0
-3724 2700 3596 2572 -2571 0
-2828 2571 0
-3852 2828 3596 2572 -2571 0
-3596 2571 0
-3083 3087 0
-3088 3083 0
-3104 3088 3100 3084 -3083 0
-3120 3088 3116 3084 -3083 0
-3344 3088 3340 3084 -3083 0
-3600 3088 3596 3084 -3083 0
-3100 3083 0
-3131 3099 3115 3083 -3082 0
-3132 3100 3116 3084 -3083 0
-3356 3100 3340 3084 -3083 0
-3612 3100 3596 3084 -3083 0
-3083 3115 0
-3116 3083 0
-3372 3116 3340 3084 -3083 0
-3628 3116 3596 3084 -3083 0
-3340 3083 0
-3852 3340 3596 3084 -3083 0
-3596 3083 0
-120 115 0
-128 120 124 116 -115 0
-248 120 244 116 -115 0
-376 120 372 116 -115 0
-124 115 0
-252 124 244 116 -115 0
-380 124 372 116 -115 0
-1148 124 1140 116 -115 0
-115 243 0
-244 115 0
-500 244 372 116 -115 0
-756 244 628 116 -115 0
-115 371 0
-372 115 0
-884 372 628 116 -115 0
-1396 372 1140 116 -115 0
-1140 115 0
-184 179 0
-192 184 188 180 -179 0
-248 184 244 180 -179 0
-440 184 436 180 -179 0
-696 184 692 180 -179 0
-188 179 0
-252 188 244 180 -179 0
-444 188 436 180 -179 0
-700 188 692 180 -179 0
-179 243 0
-244 179 0
-500 244 436 180 -179 0
-756 244 692 180 -179 0
-179 435 0
-436 179 0
-948 436 692 180 -179 0
-1460 436 1204 180 -179 0
-179 691 0
-692 179 0
-1204 179 0
-312 307 0
-320 312 316 308 -307 0
-376 312 372 308 -307 0
-440 312 436 308 -307 0
-824 312 820 308 -307 0
-1336 312 1332 308 -307 0
-316 307 0
-380 316 372 308 -307 0
-444 316 436 308 -307 0
-828 316 820 308 -307 0
-1340 316 1332 308 -307 0
-2364 316 2356 308 -307 0
-307 371 0
-372 307 0
-499 371 435 307 -306 0
-500 372 436 308 -307 0
-884 372 820 308 -307 0
-307 435 0
-436 307 0
-948 436 820 308 -307 0
-1460 436 1332 308 -307 0
-307 819 0
-820 307 0
-1844 820 1332 308 -307 0
-2868 820 2356 308 -307 0
-307 1331 0
-1332 307 0
-3380 1332 2356 308 -307 0
-2356 307 0
-568 563 0
-576 568 572 564 -563 0
-632 568 628 564 -563 0
-696 568 692 564 -563 0
-824 568 820 564 -563 0
-1592 568 1588 564 -563 0
-2616 568 2612 564 -563 0
-572 563 0
-636 572 628 564 -563 0
-700 572 692 564 -563 0
-828 572 820 564 -563 0
-1596 572 1588 564 -563 0
-563 627 0
-563 691 0
-692 563 0
-948 692 820 564 -563 0
-1716 692 1588 564 -563 0
-563 819 0
-820 563 0
-1844 820 1588 564 -563 0
-2868 820 2612 564 -563 0
-563 1587 0
-1588 563 0
-3636 1588 2612 564 -563 0
-2612 563 0
-1080 1075 0
-1088 1080 1084 1076 -1075 0
-1336 1080 1332 1076 -1075 0
-1592 1080 1588 1076 -1075 0
-3128 1080 3124 1076 -1075 0
-1084 1075 0
-1340 1084 1332 1076 -1075 0
-1596 1084 1588 1076 -1075 0
-3132 1084 3124 1076 -1075 0
-1075 1139 0
-1204 1075 0
-1716 1204 1588 1076 -1075 0
-1075 1331 0
-1332 1075 0
-1844 1332 1588 1076 -1075 0
-3380 1332 3124 1076 -1075 0
-1075 1587 0
-1588 1075 0
-3636 1588 3124 1076 -1075 0
-1075 3123 0
-3124 1075 0
-2104 2099 0
-2112 2104 2108 2100 -2099 0
-2616 2104 2612 2100 -2099 0
-3128 2104 3124 2100 -2099 0
-2108 2099 0
-2620 2108 2612 2100 -2099 0
-3132 2108 3124 2100 -2099 0
-2356 2099 0
-3380 2356 3124 2100 -2099 0
-2099 2611 0
-2612 2099 0
-3636 2612 3124 2100 -2099 0
-2099 3123 0
-3124 2099 0
-211 215 0
-216 211 0
-223 215 219 211 -210 0
-224 216 220 212 -211 0
-248 216 244 212 -211 0
-472 216 468 212 -211 0
-728 216 724 212 -211 0
-211 219 0
-220 211 0
-251 219 243 211 -210 0
-252 220 244 212 -211 0
-476 220 468 212 -211 0
-211 243 0
-244 211 0
-500 244 468 212 -211 0
-756 244 724 212 -211 0
-468 211 0
-980 468 724 212 -211 0
-724 211 0
-339 343 0
-344 339 0
-352 344 348 340 -339 0
-376 344 372 340 -339 0
-472 344 468 340 -339 0
-339 347 0
-348 339 0
-380 348 372 340 -339 0
-476 348 468 340 -339 0
-339 371 0
-372 339 0
-500 372 468 340 -339 0
-468 339 0
-980 468 852 340 -339 0
-852 339 0
-1364 339 0
-595 599 0
-1624 600 1620 596 -595 0
-595 603 0
-732 604 724 596 -595 0
-595 627 0
-724 595 0
-980 724 852 596 -595 0
-852 595 0
-1620 595 0
-1368 1112 1364 1108 -1107 0
-1107 3155 0
-403 407 0
-408 403 0
-415 407 411 403 -402 0
-416 408 412 404 -403 0
-440 408 436 404 -403 0
-472 408 468 404 -403 0
-920 408 916 404 -403 0
-403 411 0
-412 403 0
-444 412 436 404 -403 0
-476 412 468 404 -403 0
-924 412 916 404 -403 0
-403 435 0
-436 403 0
-500 436 468 404 -403 0
-948 436 916 404 -403 0
-468 403 0
-980 468 916 404 -403 0
-916 403 0
-1940 916 1428 404 -403 0
-1428 403 0
-659 663 0
-664 659 0
-920 664 916 660 -659 0
-659 667 0
-668 659 0
-700 668 692 660 -659 0
-732 668 724 660 -659 0
-924 668 916 660 -659 0
-659 691 0
-692 659 0
-756 692 724 660 -659 0
-948 692 916 660 -659 0
-724 659 0
-980 724 916 660 -659 0
-916 659 0
-1940 916 1684 660 -659 0
-1684 659 0
-1940 1428 1684 1172 -1171 0
-787 791 0
-792 787 0
-799 791 795 787 -786 0
-800 792 796 788 -787 0
-824 792 820 788 -787 0
-856 792 852 788 -787 0
-920 792 916 788 -787 0
-1816 792 1812 788 -787 0
-787 795 0
-796 787 0
-828 796 820 788 -787 0
-860 796 852 788 -787 0
-924 796 916 788 -787 0
-1820 796 1812 788 -787 0
-2844 796 2836 788 -787 0
-787 819 0
-820 787 0
-884 820 852 788 -787 0
-948 820 916 788 -787 0
-1844 820 1812 788 -787 0
-2868 820 2836 788 -787 0
-852 787 0
-980 852 916 788 -787 0
-1876 852 1812 788 -787 0
-916 787 0
-1940 916 1812 788 -787 0
-2964 916 2836 788 -787 0
-1812 787 0
-3860 1812 2836 788 -787 0
-2836 787 0
-1299 1303 0
-1304 1299 0
-1336 1304 1332 1300 -1299 0
-1432 1304 1428 1300 -1299 0
-1816 1304 1812 1300 -1299 0
-1299 1307 0
-1308 1299 0
-1340 1308 1332 1300 -1299 0
-1820 1308 1812 1300 -1299 0
-1299 1331 0
-1332 1299 0
-1844 1332 1812 1300 -1299 0
-1428 1299 0
-1940 1428 1812 1300 -1299 0
-1812 1299 0
-3860 1812 3348 1300 -1299 0
-3348 1299 0
-2323 2327 0
-2323 2331 0
-2323 2355 0
-2836 2323 0
-3860 2836 3348 2324 -2323 0
-3348 2323 0
-1555 1559 0
-1560 1555 0
-1568 1560 1564 1556 -1555 0
-1592 1560 1588 1556 -1555 0
-1688 1560 1684 1556 -1555 0
-1816 1560 1812 1556 -1555 0
-3608 1560 3604 1556 -1555 0
-1555 1563 0
-1564 1555 0
-1596 1564 1588 1556 -1555 0
-1692 1564 1684 1556 -1555 0
-1820 1564 1812 1556 -1555 0
-3612 1564 3604 1556 -1555 0
-1555 1587 0
-1588 1555 0
-1844 1588 1812 1556 -1555 0
-3636 1588 3604 1556 -1555 0
-1620 1555 0
-3668 1620 3604 1556 -1555 0
-1684 1555 0
-1940 1684 1812 1556 -1555 0
-1812 1555 0
-3860 1812 3604 1556 -1555 0
-3604 1555 0
-2579 2583 0
-2584 2579 0
-2592 2584 2588 2580 -2579 0
-3608 2584 3604 2580 -2579 0
-2579 2587 0
-3612 2588 3604 2580 -2579 0
-2579 2611 0
-2612 2579 0
-3636 2612 3604 2580 -2579 0
-2836 2579 0
-3860 2836 3604 2580 -2579 0
-3604 2579 0
-3096 3091 0
-3104 3096 3100 3092 -3091 0
-3128 3096 3124 3092 -3091 0
-3160 3096 3156 3092 -3091 0
-3608 3096 3604 3092 -3091 0
-3091 3099 0
-3100 3091 0
-3132 3100 3124 3092 -3091 0
-3612 3100 3604 3092 -3091 0
-3091 3123 0
-3124 3091 0
-3636 3124 3604 3092 -3091 0
-3156 3091 0
-3348 3091 0
-3604 3091 0
-227 231 0
-232 227 0
-240 232 236 228 -227 0
-248 232 244 228 -227 0
-488 232 484 228 -227 0
-744 232 740 228 -227 0
-227 235 0
-236 227 0
-252 236 244 228 -227 0
-492 236 484 228 -227 0
-227 243 0
-244 227 0
-500 244 484 228 -227 0
-756 244 740 228 -227 0
-484 227 0
-996 484 740 228 -227 0
-740 227 0
-355 359 0
-360 355 0
-367 359 363 355 -354 0
-376 360 372 356 -355 0
-488 360 484 356 -355 0
-872 360 868 356 -355 0
-355 363 0
-364 355 0
-380 364 372 356 -355 0
-492 364 484 356 -355 0
-876 364 868 356 -355 0
-355 371 0
-372 355 0
-500 372 484 356 -355 0
-884 372 868 356 -355 0
-484 355 0
-996 484 868 356 -355 0
-868 355 0
-616 611 0
-611 619 0
-611 627 0
-740 611 0
-996 740 868 612 -611 0
-868 611 0
-1892 868 1636 612 -611 0
-1144 1128 1140 1124 -1123 0
-3684 1636 3172 1124 -1123 0
-1123 3171 0
-419 423 0
-424 419 0
-432 424 428 420 -419 0
-440 424 436 420 -419 0
-488 424 484 420 -419 0
-936 424 932 420 -419 0
-419 427 0
-428 419 0
-444 428 436 420 -419 0
-492 428 484 420 -419 0
-940 428 932 420 -419 0
-419 435 0
-436 419 0
-500 436 484 420 -419 0
-948 436 932 420 -419 0
-484 419 0
-996 484 932 420 -419 0
-932 419 0
-1956 932 1444 420 -419 0
-1444 419 0
-675 679 0
-680 675 0
-688 680 684 676 -675 0
-744 680 740 676 -675 0
-936 680 932 676 -675 0
-675 683 0
-684 675 0
-748 684 740 676 -675 0
-940 684 932 676 -675 0
-675 691 0
-692 675 0
-948 692 932 676 -675 0
-740 675 0
-996 740 932 676 -675 0
-932 675 0
-1956 932 1700 676 -675 0
-1700 675 0
-3748 1700 2724 676 -675 0
-1187 1191 0
-1187 1203 0
-1444 1187 0
-1956 1444 1700 1188 -1187 0
-1700 1187 0
-803 807 0
-808 803 0
-815 807 811 803 -802 0
-816 808 812 804 -803 0
-824 808 820 804 -803 0
-872 808 868 804 -803 0
-936 808 932 804 -803 0
-1832 808 1828 804 -803 0
-803 811 0
-812 803 0
-827 811 819 803 -802 0
-828 812 820 804 -803 0
-876 812 868 804 -803 0
-940 812 932 804 -803 0
-1836 812 1828 804 -803 0
-2860 812 2852 804 -803 0
-803 819 0
-820 803 0
-884 820 868 804 -803 0
-948 820 932 804 -803 0
-1844 820 1828 804 -803 0
-868 803 0
-996 868 932 804 -803 0
-932 803 0
-1956 932 1828 804 -803 0
-1828 803 0
-3876 1828 2852 804 -803 0
-2852 803 0
-1315 1319 0
-1320 1315 0
-1336 1320 1332 1316 -1315 0
-1832 1320 1828 1316 -1315 0
-1315 1323 0
-1340 1324 1332 1316 -1315 0
-1836 1324 1828 1316 -1315 0
-1315 1331 0
-1844 1332 1828 1316 -1315 0
-1315 1379 0
-1444 1315 0
-1956 1444 1828 1316 -1315 0
-1828 1315 0
-3876 1828 3364 1316 -1315 0
-3364 1315 0
-2352 2344 2348 2340 -2339 0
-2339 2347 0
-2339 2355 0
-2868 2356 2852 2340 -2339 0
-2852 2339 0
-3876 2852 3364 2340 -2339 0
-3364 2339 0
-1571 1575 0
-1576 1571 0
-1583 1575 1579 1571 -1570 0
-1584 1576 1580 1572 -1571 0
-1592 1576 1588 1572 -1571 0
-1704 1576 1700 1572 -1571 0
-1832 1576 1828 1572 -1571 0
-3624 1576 3620 1572 -1571 0
-1571 1579 0
-1580 1571 0
-1596 1580 1588 1572 -1571 0
-1836 1580 1828 1572 -1571 0
-3628 1580 3620 1572 -1571 0
-1571 1587 0
-1588 1571 0
-1652 1588 1636 1572 -1571 0
-1716 1588 1700 1572 -1571 0
-1844 1588 1828 1572 -1571 0
-3636 1588 3620 1572 -1571 0
-1700 1571 0
-1956 1700 1828 1572 -1571 0
-1828 1571 0
-3876 1828 3620 1572 -1571 0
-3620 1571 0
-2595 2599 0
-2600 2595 0
-2616 2600 2612 2596 -2595 0
-3624 2600 3620 2596 -2595 0
-2595 2603 0
-2604 2595 0
-3628 2604 3620 2596 -2595 0
-2595 2611 0
-2612 2595 0
-3636 2612 3620 2596 -2595 0
-2852 2595 0
-3876 2852 3620 2596 -2595 0
-3620 2595 0
-3107 3111 0
-3112 3107 0
-3120 3112 3116 3108 -3107 0
-3128 3112 3124 3108 -3107 0
-3624 3112 3620 3108 -3107 0
-3107 3115 0
-3116 3107 0
-3132 3116 3124 3108 -3107 0
-3372 3116 3364 3108 -3107 0
-3628 3116 3620 3108 -3107 0
-3107 3123 0
-3124 3107 0
-3636 3124 3620 3108 -3107 0
-3364 3107 0
-3876 3364 3620 3108 -3107 0
-3620 3107 0
-451 455 0
-464 456 460 452 -451 0
-472 456 468 452 -451 0
-488 456 484 452 -451 0
-451 459 0
-476 460 468 452 -451 0
-492 460 484 452 -451 0
-451 467 0
-500 468 484 452 -451 0
-451 483 0
-964 451 0
-707 711 0
-707 715 0
-748 716 740 708 -707 0
-707 723 0
-707 739 0
-964 707 0
-835 839 0
-848 840 844 836 -835 0
-856 840 852 836 -835 0
-872 840 868 836 -835 0
-835 843 0
-860 844 852 836 -835 0
-876 844 868 836 -835 0
-1868 844 1860 836 -835 0
-835 851 0
-1876 852 1860 836 -835 0
-835 867 0
-1892 868 1860 836 -835 0
-964 835 0
-1347 1351 0
-1347 1363 0
-1860 1347 0
-3188 3156 3172 3140 -3139 0
-899 903 0
-912 904 908 900 -899 0
-920 904 916 900 -899 0
-936 904 932 900 -899 0
-899 907 0
-924 908 916 900 -899 0
-940 908 932 900 -899 0
-899 915 0
-948 916 932 900 -899 0
-899 931 0
-964 899 0
-1411 1415 0
-1411 1419 0
-1436 1420 1428 1412 -1411 0
-1452 1420 1444 1412 -1411 0
-1411 1427 0
-1411 1443 0
-1924 1411 0
-1667 1671 0
-3720 1672 3716 1668 -1667 0
-1667 1675 0
-1708 1676 1700 1668 -1667 0
-1667 1683 0
-3732 1684 3716 1668 -1667 0
-1667 1699 0
-1924 1667 0
-3492 3236 3460 3204 -3203 0
-1795 1799 0
-1808 1800 1804 1796 -1795 0
-1816 1800 1812 1796 -1795 0
-1832 1800 1828 1796 -1795 0
-1864 1800 1860 1796 -1795 0
-1795 1803 0
-1820 1804 1812 1796 -1795 0
-1836 1804 1828 1796 -1795 0
-1795 1811 0
-1844 1812 1828 1796 -1795 0
-1795 1827 0
-1892 1828 1860 1796 -1795 0
-1924 1795 0
-2819 2823 0
-2819 2827 0
-2819 2835 0
-2819 2851 0
-3844 2819 0
-3331 3335 0
-3352 3336 3348 3332 -3331 0
-3368 3336 3364 3332 -3331 0
-3331 3339 0
-3331 3347 0
-3331 3363 0
-3844 3331 0
-3587 3591 0
-3600 3592 3596 3588 -3587 0
-3608 3592 3604 3588 -3587 0
-3624 3592 3620 3588 -3587 0
-3587 3595 0
-3612 3596 3604 3588 -3587 0
-3628 3596 3620 3588 -3587 0
-3660 3596 3652 3588 -3587 0
-3587 3603 0
-3636 3604 3620 3588 -3587 0
-3587 3619 0
-3684 3620 3652 3588 -3587 0
-3748 3620 3716 3588 -3587 0
-3844 3587 0
-64 128 0
-64 192 0
-64 320 0
-64 576 0
-64 1088 0
-64 2112 0
-95 223 0
-96 224 0
-480 224 352 96 -95 0
-95 351 0
-96 352 0
-96 608 0
-160 224 0
-480 224 416 160 -159 0
-159 415 0
-160 416 0
-928 416 672 160 -159 0
-160 672 0
-160 1184 0
-288 352 0
-288 416 0
-928 416 800 288 -287 0
-287 799 0
-288 800 0
-1824 800 1312 288 -287 0
-2848 800 2336 288 -287 0
-288 1312 0
-287 2335 0
-1632 608 1568 544 -543 0
-544 672 0
-544 800 0
-1824 800 1568 544 -543 0
-544 1568 0
-3616 1568 2592 544 -543 0
-544 2592 0
-1056 1120 0
-1056 1568 0
-3616 1568 3104 1056 -1055 0
-1055 3103 0
-1056 3104 0
-2080 2592 0
-2080 3104 0
-111 239 0
-112 240 0
-496 240 368 112 -111 0
-111 367 0
-112 368 0
-112 624 0
-112 1136 0
-176 240 0
-496 240 432 176 -175 0
-752 240 688 176 -175 0
-175 431 0
-176 432 0
-944 432 688 176 -175 0
-176 688 0
-176 1200 0
-304 368 0
-496 368 432 304 -303 0
-880 368 816 304 -303 0
-304 432 0
-944 432 816 304 -303 0
-303 815 0
-304 816 0
-1840 816 1328 304 -303 0
-303 1327 0
-560 688 0
-560 816 0
-1840 816 1584 560 -559 0
-559 1583 0
-560 1584 0
-3632 1584 2608 560 -559 0
-560 2608 0
-1072 1328 0
-1840 1328 1584 1072 -1071 0
-3376 1328 3120 1072 -1071 0
-1072 1584 0
-1071 3119 0
-1072 3120 0
-2096 2352 0
-2096 2608 0
-2096 3120 0
-224 207 0
-208 224 0
-256 224 240 208 -207 0
-480 224 464 208 -207 0
-240 207 0
-208 240 0
-496 240 464 208 -207 0
-464 207 0
-208 464 0
-976 464 720 208 -207 0
-720 207 0
-208 720 0
-352 335 0
-336 352 0
-384 352 368 336 -335 0
-480 352 464 336 -335 0
-368 335 0
-336 368 0
-496 368 464 336 -335 0
-464 335 0
-336 464 0
-976 464 848 336 -335 0
-608 591 0
-592 608 0
-880 624 848 592 -591 0
-720 591 0
-976 720 848 592 -591 0
-592 848 0
-416 399 0
-400 416 0
-448 416 432 400 -399 0
-480 416 464 400 -399 0
-928 416 912 400 -399 0
-432 399 0
-400 432 0
-496 432 464 400 -399 0
-944 432 912 400 -399 0
-464 399 0
-400 464 0
-976 464 912 400 -399 0
-400 912 0
-1936 912 1424 400 -399 0
-656 672 0
-656 688 0
-912 655 0
-656 912 0
-1936 912 1680 656 -655 0
-1168 1200 0
-1168 1424 0
-800 783 0
-784 800 0
-832 800 816 784 -783 0
-864 800 848 784 -783 0
-928 800 912 784 -783 0
-816 783 0
-784 816 0
-1840 816 1808 784 -783 0
-848 783 0
-912 783 0
-784 912 0
-1936 912 1808 784 -783 0
-784 1808 0
-2832 783 0
-1312 1295 0
-1296 1312 0
-1328 1295 0
-1296 1328 0
-1808 1295 0
-1296 1808 0
-3856 1808 3344 1296 -1295 0
-1296 3344 0
-3856 2832 3344 2320 -2319 0
-2320 3344 0
-1568 1551 0
-1552 1568 0
-1600 1568 1584 1552 -1551 0
-3616 1568 3600 1552 -1551 0
-1584 1551 0
-1552 1584 0
-1840 1584 1808 1552 -1551 0
-3632 1584 3600 1552 -1551 0
-3728 1680 3600 1552 -1551 0
-1808 1551 0
-1552 1808 0
-3856 1808 3600 1552 -1551 0
-1552 3600 0
-2576 2592 0
-2576 2608 0
-2576 3600 0
-3088 3104 0
-3136 3104 3120 3088 -3087 0
-3120 3087 0
-3088 3120 0
-3376 3120 3344 3088 -3087 0
-3632 3120 3600 3088 -3087 0
-3088 3216 0
-3088 3344 0
-3856 3344 3600 3088 -3087 0
-3600 3087 0
-3088 3600 0
-119 247 0
-120 248 0
-504 248 376 120 -119 0
-120 376 0
-120 632 0
-120 2168 0
-184 248 0
-504 248 440 184 -183 0
-183 439 0
-184 440 0
-952 440 696 184 -183 0
-184 696 0
-184 1208 0
-312 376 0
-888 376 824 312 -311 0
-312 440 0
-952 440 824 312 -311 0
-311 823 0
-312 824 0
-1848 824 1336 312 -311 0
-2872 824 2360 312 -311 0
-311 1335 0
-312 1336 0
-3384 1336 2360 312 -311 0
-311 2359 0
-312 2360 0
-568 696 0
-568 824 0
-1848 824 1592 568 -567 0
-568 1592 0
-3640 1592 2616 568 -567 0
-1080 1144 0
-1080 1336 0
-1080 1592 0
-3640 1592 3128 1080 -1079 0
-1079 3127 0
-1080 3128 0
-2104 2360 0
-3384 2360 3128 2104 -2103 0
-2104 2616 0
-3640 2616 3128 2104 -2103 0
-2104 3128 0
-224 215 0
-216 224 0
-256 224 248 216 -215 0
-480 224 472 216 -215 0
-248 215 0
-216 248 0
-504 248 472 216 -215 0
-472 215 0
-216 472 0
-352 343 0
-344 352 0
-480 352 472 344 -343 0
-376 343 0
-344 376 0
-472 343 0
-344 472 0
-984 472 856 344 -343 0
-856 343 0
-344 856 0
-600 608 0
-640 608 632 600 -599 0
-600 632 0
-600 728 0
-856 599 0
-599 1623 0
-1112 1624 0
-3672 1624 3160 1112 -1111 0
-1112 3160 0
-416 407 0
-408 416 0
-448 416 440 408 -407 0
-480 416 472 408 -407 0
-928 416 920 408 -407 0
-440 407 0
-408 440 0
-504 440 472 408 -407 0
-952 440 920 408 -407 0
-472 407 0
-408 472 0
-984 472 920 408 -407 0
-920 407 0
-408 920 0
-1944 920 1432 408 -407 0
-664 672 0
-704 672 696 664 -663 0
-928 672 920 664 -663 0
-664 696 0
-952 696 920 664 -663 0
-984 728 920 664 -663 0
-920 663 0
-664 920 0
-1176 1184 0
-800 791 0
-792 800 0
-832 800 824 792 -791 0
-928 800 920 792 -791 0
-1824 800 1816 792 -791 0
-792 824 0
-952 824 920 792 -791 0
-1848 824 1816 792 -791 0
-856 791 0
-792 856 0
-984 856 920 792 -791 0
-920 791 0
-792 920 0
-1944 920 1816 792 -791 0
-1816 791 0
-792 1816 0
-3864 1816 2840 792 -791 0
-1304 1312 0
-1336 1303 0
-1304 1336 0
-1848 1336 1816 1304 -1303 0
-1816 1303 0
-1304 1816 0
-3864 1816 3352 1304 -1303 0
-1304 3352 0
-2840 2327 0
-1560 1568 0
-1600 1568 1592 1560 -1559 0
-1824 1568 1816 1560 -1559 0
-1560 1592 0
-1848 1592 1816 1560 -1559 0
-1560 1816 0
-3864 1816 3608 1560 -1559 0
-1560 3608 0
-2584 2592 0
-2584 2616 0
-2584 3608 0
-3096 3104 0
-3136 3104 3128 3096 -3095 0
-3096 3128 0
-3608 3095 0
-3096 3608 0
-240 231 0
-232 240 0
-256 240 248 232 -231 0
-496 240 488 232 -231 0
-248 231 0
-232 248 0
-504 248 488 232 -231 0
-488 231 0
-232 488 0
-1000 488 744 232 -231 0
-232 744 0
-360 368 0
-384 368 376 360 -359 0
-496 368 488 360 -359 0
-360 376 0
-488 359 0
-360 488 0
-1000 488 872 360 -359 0
-360 872 0
-616 624 0
-744 615 0
-616 744 0
-616 872 0
-432 423 0
-424 432 0
-448 432 440 424 -423 0
-496 432 488 424 -423 0
-944 432 936 424 -423 0
-440 423 0
-424 440 0
-952 440 936 424 -423 0
-488 423 0
-424 488 0
-1000 488 936 424 -423 0
-936 423 0
-424 936 0
-1960 936 1448 424 -423 0
-680 688 0
-944 688 936 680 -679 0
-696 679 0
-680 696 0
-952 696 936 680 -679 0
-680 744 0
-1000 744 936 680 -679 0
-936 679 0
-680 936 0
-1960 936 1704 680 -679 0
-816 807 0
-808 816 0
-832 816 824 808 -807 0
-944 816 936 808 -807 0
-1840 816 1832 808 -807 0
-824 807 0
-808 824 0
-952 824 936 808 -807 0
-1848 824 1832 808 -807 0
-872 807 0
-808 872 0
-936 807 0
-808 936 0
-1960 936 1832 808 -807 0
-1832 807 0
-808 1832 0
-1320 1328 0
-1840 1328 1832 1320 -1319 0
-1336 1319 0
-1320 1336 0
-1320 1384 0
-1960 1448 1832 1320 -1319 0
-1832 1319 0
-1320 1832 0
-3880 1832 3368 1320 -1319 0
-2344 2360 0
-2344 2856 0
-1584 1575 0
-1576 1584 0
-1600 1584 1592 1576 -1575 0
-3632 1584 3624 1576 -1575 0
-1592 1575 0
-1576 1592 0
-1848 1592 1832 1576 -1575 0
-1704 1575 0
-1832 1575 0
-1576 1832 0
-3880 1832 3624 1576 -1575 0
-1576 3624 0
-2600 2608 0
-2624 2608 2616 2600 -2599 0
-2600 2616 0
-3624 2599 0
-2600 3624 0
-3120 3111 0
-3112 3120 0
-3136 3120 3128 3112 -3111 0
-3376 3120 3368 3112 -3111 0
-3632 3120 3624 3112 -3111 0
-3128 3111 0
-3112 3128 0
-3624 3111 0
-3112 3624 0
-455 463 0
-456 464 0
-480 464 472 456 -455 0
-496 464 488 456 -455 0
-456 472 0
-504 472 488 456 -455 0
-455 487 0
-456 488 0
-711 719 0
-712 728 0
-711 743 0
-712 744 0
-839 847 0
-840 848 0
-864 848 856 840 -839 0
-880 848 872 840 -839 0
-839 855 0
-840 856 0
-888 856 872 840 -839 0
-1880 856 1864 840 -839 0
-839 871 0
-840 872 0
-840 1864 0
-1352 1368 0
-1608 1640 0
-3144 3152 0
-903 911 0
-904 912 0
-928 912 920 904 -903 0
-944 912 936 904 -903 0
-903 919 0
-904 920 0
-952 920 936 904 -903 0
-903 935 0
-904 936 0
-1416 1432 0
-1416 1448 0
-1672 1680 0
-1672 1688 0
-1671 1703 0
-1672 1704 0
-1799 1807 0
-1800 1808 0
-1824 1808 1816 1800 -1799 0
-1840 1808 1832 1800 -1799 0
-1799 1815 0
-1800 1816 0
-1848 1816 1832 1800 -1799 0
-1799 1831 0
-1800 1832 0
-2823 2831 0
-2824 2832 0
-2823 2839 0
-2824 2840 0
-2824 2856 0
-3335 3343 0
-3336 3344 0
-3360 3344 3352 3336 -3335 0
-3376 3344 3368 3336 -3335 0
-3336 3352 0
-3384 3352 3368 3336 -3335 0
-3335 3367 0
-3336 3368 0
-3591 3599 0
-3592 3600 0
-3616 3600 3608 3592 -3591 0
-3632 3600 3624 3592 -3591 0
-3592 3608 0
-3640 3608 3624 3592 -3591 0
-3591 3623 0
-3592 3624 0
-3592 3720 0
-123 251 0
-124 252 0
-508 252 380 124 -123 0
-123 379 0
-124 380 0
-124 636 0
-188 252 0
-508 252 444 188 -187 0
-764 252 700 188 -187 0
-187 443 0
-188 444 0
-956 444 700 188 -187 0
-187 699 0
-188 700 0
-316 380 0
-508 380 444 316 -315 0
-316 444 0
-956 444 828 316 -315 0
-1468 444 1340 316 -315 0
-315 827 0
-316 828 0
-1852 828 1340 316 -315 0
-316 1340 0
-316 2364 0
-892 636 828 572 -571 0
-572 700 0
-956 700 828 572 -571 0
-572 828 0
-1852 828 1596 572 -571 0
-571 1595 0
-572 1596 0
-3644 1596 2620 572 -571 0
-572 2620 0
-1084 1148 0
-1084 1340 0
-1852 1340 1596 1084 -1083 0
-1084 1596 0
-3644 1596 3132 1084 -1083 0
-1083 3131 0
-1084 3132 0
-2108 2364 0
-3388 2364 3132 2108 -2107 0
-2108 2620 0
-3644 2620 3132 2108 -2107 0
-2108 3132 0
-224 219 0
-220 224 0
-256 224 252 220 -219 0
-480 224 476 220 -219 0
-252 219 0
-220 252 0
-508 252 476 220 -219 0
-220 476 0
-988 476 732 220 -219 0
-348 352 0
-384 352 380 348 -347 0
-480 352 476 348 -347 0
-864 352 860 348 -347 0
-348 380 0
-508 380 476 348 -347 0
-892 380 860 348 -347 0
-476 347 0
-348 476 0
-988 476 860 348 -347 0
-348 860 0
-604 608 0
-604 636 0
-732 603 0
-604 860 0
-416 411 0
-412 416 0
-448 416 444 412 -411 0
-480 416 476 412 -411 0
-928 416 924 412 -411 0
-444 411 0
-412 444 0
-508 444 476 412 -411 0
-956 444 924 412 -411 0
-476 411 0
-412 476 0
-988 476 924 412 -411 0
-924 411 0
-412 924 0
-1948 924 1436 412 -411 0
-668 672 0
-700 667 0
-668 700 0
-764 700 732 668 -667 0
-988 732 924 668 -667 0
-924 667 0
-668 924 0
-668 1692 0
-1180 1692 0
-800 795 0
-796 800 0
-832 800 828 796 -795 0
-864 800 860 796 -795 0
-928 800 924 796 -795 0
-1824 800 1820 796 -795 0
-828 795 0
-796 828 0
-956 828 924 796 -795 0
-1852 828 1820 796 -795 0
-860 795 0
-796 860 0
-988 860 924 796 -795 0
-924 795 0
-796 924 0
-1948 924 1820 796 -795 0
-796 1820 0
-1312 1307 0
-1308 1312 0
-1340 1307 0
-1308 1340 0
-1852 1340 1820 1308 -1307 0
-1948 1436 1820 1308 -1307 0
-1308 1820 0
-1308 3356 0
-2332 2844 0
-1564 1568 0
-1600 1568 1596 1564 -1563 0
-1824 1568 1820 1564 -1563 0
-3616 1568 3612 1564 -1563 0
-1564 1596 0
-1852 1596 1820 1564 -1563 0
-3740 1692 3612 1564 -1563 0
-1564 1820 0
-3868 1820 3612 1564 -1563 0
-1564 3612 0
-2592 2587 0
-2588 2592 0
-2588 2620 0
-3644 2620 3612 2588 -2587 0
-2588 2716 0
-2588 2844 0
-2588 3612 0
-3104 3099 0
-3100 3104 0
-3136 3104 3132 3100 -3099 0
-3616 3104 3612 3100 -3099 0
-3132 3099 0
-3100 3132 0
-3612 3099 0
-3100 3612 0
-240 235 0
-236 240 0
-256 240 252 236 -235 0
-496 240 492 236 -235 0
-252 235 0
-236 252 0
-508 252 492 236 -235 0
-492 235 0
-236 492 0
-1004 492 748 236 -235 0
-236 748 0
-368 363 0
-364 368 0
-384 368 380 364 -363 0
-496 368 492 364 -363 0
-380 363 0
-364 380 0
-364 492 0
-1004 492 876 364 -363 0
-364 876 0
-1900 876 1388 364 -363 0
-748 619 0
-1772 748 1644 620 -619 0
-620 876 0
-1900 876 1644 620 -619 0
-620 1644 0
-432 427 0
-428 432 0
-448 432 444 428 -427 0
-496 432 492 428 -427 0
-944 432 940 428 -427 0
-1456 432 1452 428 -427 0
-444 427 0
-428 444 0
-508 444 492 428 -427 0
-956 444 940 428 -427 0
-492 427 0
-428 492 0
-1004 492 940 428 -427 0
-940 427 0
-428 940 0
-1964 940 1452 428 -427 0
-428 1452 0
-684 688 0
-684 700 0
-1004 748 940 684 -683 0
-940 683 0
-684 940 0
-684 1708 0
-1196 1452 0
-1708 1195 0
-812 816 0
-832 816 828 812 -811 0
-944 816 940 812 -811 0
-1840 816 1836 812 -811 0
-828 811 0
-812 828 0
-956 828 940 812 -811 0
-1852 828 1836 812 -811 0
-812 876 0
-940 811 0
-812 940 0
-1964 940 1836 812 -811 0
-812 1836 0
-3884 1836 2860 812 -811 0
-1324 1328 0
-1840 1328 1836 1324 -1323 0
-1340 1323 0
-1324 1340 0
-1324 1452 0
-1836 1323 0
-1324 1836 0
-3372 1323 0
-1324 3372 0
-2348 2352 0
-2348 2364 0
-2876 2364 2860 2348 -2347 0
-2348 2860 0
-1584 1579 0
-1580 1584 0
-1600 1584 1596 1580 -1579 0
-1840 1584 1836 1580 -1579 0
-3632 1584 3628 1580 -1579 0
-1596 1579 0
-1580 1596 0
-3644 1596 3628 1580 -1579 0
-1580 1836 0
-3884 1836 3628 1580 -1579 0
-3628 1579 0
-1580 3628 0
-2604 2620 0
-2860 2603 0
-2604 2860 0
-3884 2860 3628 2604 -2603 0
-3628 2603 0
-2604 3628 0
-3116 3120 0
-3136 3120 3132 3116 -3115 0
-3132 3115 0
-3116 3132 0
-3644 3132 3628 3116 -3115 0
-3372 3115 0
-3628 3115 0
-3116 3628 0
-460 464 0
-480 464 476 460 -459 0
-496 464 492 460 -459 0
-459 475 0
-460 476 0
-508 476 492 460 -459 0
-459 491 0
-460 492 0
-716 720 0
-716 732 0
-716 748 0
-844 848 0
-864 848 860 844 -843 0
-880 848 876 844 -843 0
-843 859 0
-844 860 0
-892 860 876 844 -843 0
-843 875 0
-844 876 0
-1900 876 1868 844 -843 0
-844 1868 0
-1356 1388 0
-1648 1616 1644 1612 -1611 0
-1868 1611 0
-1612 3660 0
-908 912 0
-928 912 924 908 -907 0
-944 912 940 908 -907 0
-907 923 0
-908 924 0
-956 924 940 908 -907 0
-907 939 0
-908 940 0
-1420 1424 0
-1420 1436 0
-1420 1452 0
-1676 1680 0
-1744 1680 1740 1676 -1675 0
-1676 1692 0
-1676 1740 0
-2700 2704 0
-2700 2716 0
-3212 3724 0
-1804 1808 0
-1824 1808 1820 1804 -1803 0
-1840 1808 1836 1804 -1803 0
-1804 1820 0
-1852 1820 1836 1804 -1803 0
-1803 1835 0
-1804 1836 0
-1804 1868 0
-2828 2832 0
-2828 2844 0
-3340 3344 0
-3360 3344 3356 3340 -3339 0
-3376 3344 3372 3340 -3339 0
-3340 3356 0
-3339 3371 0
-3340 3372 0
-3596 3600 0
-3616 3600 3612 3596 -3595 0
-3632 3600 3628 3596 -3595 0
-3595 3611 0
-3596 3612 0
-3644 3612 3628 3596 -3595 0
-3595 3627 0
-3596 3628 0
-248 243 0
-244 248 0
-256 248 252 244 -243 0
-504 248 500 244 -243 0
-252 243 0
-244 252 0
-508 252 500 244 -243 0
-244 500 0
-372 376 0
-384 376 380 372 -371 0
-504 376 500 372 -371 0
-372 380 0
-500 371 0
-372 500 0
-1012 500 884 372 -371 0
-372 884 0
-628 632 0
-628 636 0
-628 884 0
-1140 1396 0
-1140 1652 0
-1140 3188 0
-440 435 0
-436 440 0
-448 440 444 436 -435 0
-504 440 500 436 -435 0
-952 440 948 436 -435 0
-444 435 0
-436 444 0
-508 444 500 436 -435 0
-956 444 948 436 -435 0
-500 435 0
-436 500 0
-1012 500 948 436 -435 0
-948 435 0
-436 948 0
-1972 948 1460 436 -435 0
-696 691 0
-692 696 0
-692 700 0
-956 700 948 692 -691 0
-692 756 0
-1012 756 948 692 -691 0
-948 691 0
-692 948 0
-692 1716 0
-824 819 0
-820 824 0
-832 824 828 820 -819 0
-888 824 884 820 -819 0
-952 824 948 820 -819 0
-1848 824 1844 820 -819 0
-820 828 0
-956 828 948 820 -819 0
-1852 828 1844 820 -819 0
-820 884 0
-1012 884 948 820 -819 0
-948 819 0
-820 948 0
-1972 948 1844 820 -819 0
-820 1844 0
-3892 1844 2868 820 -819 0
-820 2868 0
-1336 1331 0
-1332 1336 0
-1848 1336 1844 1332 -1331 0
-1332 1340 0
-1332 1396 0
-1972 1460 1844 1332 -1331 0
-1332 1844 0
-1332 3380 0
-2356 2360 0
-2356 2364 0
-2868 2355 0
-1592 1587 0
-1588 1592 0
-1600 1592 1596 1588 -1587 0
-1848 1592 1844 1588 -1587 0
-3640 1592 3636 1588 -1587 0
-1588 1596 0
-1660 1596 1652 1588 -1587 0
-1852 1596 1844 1588 -1587 0
-3644 1596 3636 1588 -1587 0
-1588 1844 0
-3892 1844 3636 1588 -1587 0
-1588 3636 0
-2612 2616 0
-2620 2611 0
-2612 2620 0
-2868 2611 0
-3636 2611 0
-2612 3636 0
-3124 3128 0
-3136 3128 3132 3124 -3123 0
-3132 3123 0
-3124 3132 0
-3388 3132 3380 3124 -3123 0
-3644 3132 3636 3124 -3123 0
-3636 3123 0
-3124 3636 0
-468 472 0
-480 472 476 468 -467 0
-504 472 500 468 -467 0
-468 476 0
-508 476 500 468 -467 0
-467 499 0
-468 500 0
-724 728 0
-724 732 0
-724 756 0
-852 856 0
-852 860 0
-852 884 0
-3156 3164 0
-916 920 0
-928 920 924 916 -915 0
-952 920 948 916 -915 0
-916 924 0
-956 924 948 916 -915 0
-2972 924 2964 916 -915 0
-915 947 0
-916 948 0
-1428 1432 0
-1428 1436 0
-1428 1460 0
-1684 1692 0
-1684 1716 0
-1812 1816 0
-1824 1816 1820 1812 -1811 0
-1848 1816 1844 1812 -1811 0
-1812 1820 0
-1852 1820 1844 1812 -1811 0
-1811 1843 0
-1812 1844 0
-1812 1876 0
-2836 2840 0
-2836 2844 0
-2836 2868 0
-3348 3352 0
-3348 3380 0
-3604 3608 0
-3616 3608 3612 3604 -3603 0
-3640 3608 3636 3604 -3603 0
-3604 3612 0
-3644 3612 3636 3604 -3603 0
-3603 3635 0
-3604 3636 0
-3604 3732 0
-484 488 0
-496 488 492 484 -483 0
-504 488 500 484 -483 0
-484 492 0
-508 492 500 484 -483 0
-484 500 0
-740 744 0
-752 744 748 740 -739 0
-740 748 0
-740 756 0
-868 872 0
-880 872 876 868 -867 0
-888 872 884 868 -867 0
-868 876 0
-868 884 0
-868 1892 0
-1636 1892 0
-1636 3684 0
-3172 3176 0
-3172 3180 0
-932 936 0
-944 936 940 932 -931 0
-952 936 948 932 -931 0
-932 940 0
-956 940 948 932 -931 0
-932 948 0
-1444 1448 0
-1444 1460 0
-1444 3492 0
-1700 1704 0
-1768 1704 1764 1700 -1699 0
-1700 1708 0
-1700 1716 0
-1700 1764 0
-1700 3748 0
-2724 2732 0
-3236 3244 0
-1828 1832 0
-1840 1832 1836 1828 -1827 0
-1848 1832 1844 1828 -1827 0
-1828 1836 0
-1852 1836 1844 1828 -1827 0
-1828 1844 0
-1908 1844 1892 1828 -1827 0
-1828 1892 0
-2852 2860 0
-2852 2868 0
-3364 3368 0
-3376 3368 3372 3364 -3363 0
-3364 3372 0
-3364 3380 0
-3620 3624 0
-3632 3624 3628 3620 -3619 0
-3640 3624 3636 3620 -3619 0
-3620 3628 0
-3644 3628 3636 3620 -3619 0
-3692 3628 3684 3620 -3619 0
-3620 3636 0
-3700 3636 3684 3620 -3619 0
-3620 3684 0
-3620 3748 0
-964 968 0
-964 972 0
-964 980 0
-964 996 0
-1860 1864 0
-1860 1868 0
-1860 1876 0
-1860 1892 0
-3652 3668 0
-1924 1928 0
-1924 1932 0
-1924 1940 0
-1924 1956 0
-3460 3464 0
-3716 3720 0
-3716 3724 0
-3844 3848 0
-3844 3852 0
-3844 3860 0
-3844 3876 0
-128 256 0
-128 384 0
-128 640 0
-192 448 0
-192 704 0
-320 832 0
-320 1344 0
-576 1600 0
-576 2624 0
-1088 3136 0
-224 480 0
-352 480 0
-352 864 0
-416 480 0
-992 480 928 416 -415 0
-416 928 0
-672 928 0
-800 864 0
-800 928 0
-1952 928 1824 800 -799 0
-800 1824 0
-3872 2848 3360 2336 -2335 0
-2336 3360 0
-1568 1824 0
-1568 3616 0
-2592 3616 0
-3104 3616 0
-240 496 0
-240 752 0
-368 496 0
-368 880 0
-624 1648 0
-624 2672 0
-1136 3184 0
-432 496 0
-1008 496 944 432 -431 0
-432 944 0
-1968 944 1456 432 -431 0
-816 880 0
-816 944 0
-1968 944 1840 816 -815 0
-816 1840 0
-1328 1840 0
-3888 1840 3376 1328 -1327 0
-1328 3376 0
-1584 1840 0
-3888 1840 3632 1584 -1583 0
-1584 3632 0
-2608 3632 0
-3888 3376 3632 3120 -3119 0
-3120 3632 0
-464 480 0
-464 496 0
-720 1744 0
-848 880 0
-912 928 0
-960 928 944 912 -911 0
-912 944 0
-1808 1824 0
-1808 1840 0
-3600 3616 0
-3648 3616 3632 3600 -3599 0
-3600 3632 0
-3600 3664 0
-248 504 0
-376 504 0
-376 888 0
-440 504 0
-440 952 0
-696 952 0
-824 952 0
-1976 952 1848 824 -823 0
-824 1848 0
-1336 1848 0
-3896 1848 3384 1336 -1335 0
-1336 3384 0
-3896 2872 3384 2360 -2359 0
-2360 3384 0
-1592 1848 0
-1592 3640 0
-2616 3640 0
-3896 3384 3640 3128 -3127 0
-3128 3640 0
-472 480 0
-472 504 0
-856 888 0
-3680 1632 3672 1624 -1623 0
-920 928 0
-920 952 0
-1816 1824 0
-1856 1824 1848 1816 -1815 0
-1816 1848 0
-1816 1880 0
-3608 3640 0
-488 496 0
-512 496 504 488 -487 0
-488 504 0
-744 752 0
-744 1768 0
-872 880 0
-936 944 0
-936 952 0
-1832 1840 0
-1856 1840 1848 1832 -1831 0
-1832 1848 0
-3624 3640 0
-968 976 0
-968 984 0
-968 1000 0
-1928 1936 0
-1928 1944 0
-1928 1960 0
-3720 3728 0
-3848 3856 0
-3848 3864 0
-3848 3880 0
-252 508 0
-380 508 0
-1020 508 892 380 -379 0
-380 892 0
-636 1660 0
-444 508 0
-1020 508 956 444 -443 0
-444 956 0
-1020 764 956 700 -699 0
-700 956 0
-700 2748 0
-828 956 0
-1980 956 1852 828 -827 0
-828 1852 0
-1340 3388 0
-1596 1852 0
-1596 3644 0
-2620 3644 0
-3900 3388 3644 3132 -3131 0
-3132 3644 0
-476 480 0
-476 508 0
-924 928 0
-960 928 956 924 -923 0
-924 956 0
-2716 2972 0
-1820 1824 0
-1820 1852 0
-2844 2876 0
-3356 3360 0
-3612 3616 0
-3648 3616 3644 3612 -3611 0
-3612 3644 0
-3772 3644 3740 3612 -3611 0
-3612 3740 0
-492 496 0
-492 508 0
-748 764 0
-876 892 0
-1644 3692 0
-960 944 956 940 -939 0
-940 956 0
-1452 1468 0
-1836 1840 0
-1856 1840 1852 1836 -1835 0
-1836 1852 0
-1836 1900 0
-3372 3388 0
-3628 3632 0
-3696 3632 3692 3628 -3627 0
-3628 3644 0
-972 988 0
-972 1004 0
-1740 1772 0
-1932 1948 0
-1932 1964 0
-3852 3868 0
-3852 3884 0
-500 504 0
-500 508 0
-1396 1908 0
-1652 3700 0
-948 952 0
-960 952 956 948 -947 0
-1844 1848 0
-1856 1848 1852 1844 -1843 0
-1844 1852 0
-3648 3640 3644 3636 -3635 0
-3636 3644 0
-980 1012 0
-1940 1972 0
-3860 3892 0
-1764 1772 0
-256 512 0
-448 960 0
-1344 1856 0
-2624 3648 0
-2672 3696 0
-3664 3680 0
-984 992 0
-1944 1952 0
-3864 3872 0
-1000 1008 0
-1960 1968 0
-1960 1976 0
-3880 3888 0
-3880 3896 0
-2748 3772 0
-1004 1020 0
-1964 1980 0
-3884 3900 0
-4098 0
-4103 0
-4107 0
-4115 0
-4131 0
-4611 0
-6147 0
-4112 0
-4120 0
-4136 0
-4616 0
-5128 0
-6152 0
-4124 0
-4140 0
-4364 0
-4620 0
-5132 0
-6156 0
-4148 0
-4372 0
-4628 0
-5140 0
-6164 0
-4644 0
-5156 0
-6180 0
-6404 0
-6660 0
-7172 0
-4614 518 4102 6 -5 0
-4618 522 4106 10 -9 0
-5130 1034 4106 10 -9 0
-6154 2058 4106 10 -9 0
-4626 530 4114 18 -17 0
-5138 1042 4114 18 -17 0
-4642 546 4130 34 -33 0
-5154 1058 4130 34 -33 0
-4138 4106 4130 4098 -4097 0
-4610 4097 0
-4623 527 4111 15 -14 0
-5135 1039 4111 15 -14 0
-14 4110 0
-4631 535 4119 23 -22 0
-5143 1047 4119 23 -22 0
-6167 2071 4119 23 -22 0
-22 4118 0
-4647 551 4135 39 -38 0
-5159 1063 4135 39 -38 0
-6183 2087 4135 39 -38 0
-38 4134 0
-5639 1543 4615 519 -518 0
-6663 2567 4615 519 -518 0
-4615 518 0
-5135 1039 5127 1031 -1030 0
-5127 1030 0
-6159 2063 6151 2055 -2054 0
-6167 2071 6151 2055 -2054 0
-6183 2087 6151 2055 -2054 0
-6663 2567 6151 2055 -2054 0
-7175 3079 6151 2055 -2054 0
-6151 2054 0
-4111 4102 0
-4143 4111 4135 4103 -4102 0
-6159 4111 6151 4103 -4102 0
-4119 4102 0
-4151 4119 4135 4103 -4102 0
-6167 4119 6151 4103 -4102 0
-4135 4102 0
-6183 4135 6151 4103 -4102 0
-4615 4102 0
-6663 4615 6151 4103 -4102 0
-5127 4102 0
-7175 5127 6151 4103 -4102 0
-6151 4102 0
-4251 155 4123 27 -26 0
-4379 283 4123 27 -26 0
-4635 539 4123 27 -26 0
-5147 1051 4123 27 -26 0
-6171 2075 4123 27 -26 0
-26 4122 0
-4651 555 4139 43 -42 0
-5163 1067 4139 43 -42 0
-6187 2091 4139 43 -42 0
-42 4138 0
-4623 527 4619 523 -522 0
-5643 1547 4619 523 -522 0
-5643 1547 5131 1035 -1034 0
-7179 3083 5131 1035 -1034 0
-5131 1034 0
-6159 2063 6155 2059 -2058 0
-6187 2091 6155 2059 -2058 0
-6667 2571 6155 2059 -2058 0
-7179 3083 6155 2059 -2058 0
-6155 2058 0
-4111 4106 0
-4127 4111 4123 4107 -4106 0
-4143 4111 4139 4107 -4106 0
-4367 4111 4363 4107 -4106 0
-4623 4111 4619 4107 -4106 0
-6159 4111 6155 4107 -4106 0
-4123 4106 0
-4155 4123 4139 4107 -4106 0
-6171 4123 6155 4107 -4106 0
-4139 4106 0
-4619 4106 0
-6667 4619 6155 4107 -4106 0
-5131 4106 0
-4659 563 4147 51 -50 0
-5171 1075 4147 51 -50 0
-6195 2099 4147 51 -50 0
-50 4146 0
-4243 146 0
-5395 1299 4371 275 -274 0
-5651 1555 4627 531 -530 0
-6675 2579 4627 531 -530 0
-4627 530 0
-5147 1051 5139 1043 -1042 0
-5651 1555 5139 1043 -1042 0
-7187 3091 5139 1043 -1042 0
-5139 1042 0
-6167 2071 6163 2067 -2066 0
-6171 2075 6163 2067 -2066 0
-6195 2099 6163 2067 -2066 0
-6675 2579 6163 2067 -2066 0
-7187 3091 6163 2067 -2066 0
-6163 2066 0
-4119 4114 0
-4127 4119 4123 4115 -4114 0
-4151 4119 4147 4115 -4114 0
-6167 4119 6163 4115 -4114 0
-4123 4114 0
-6171 4123 6163 4115 -4114 0
-4147 4114 0
-6195 4147 6163 4115 -4114 0
-4627 4114 0
-6675 4627 6163 4115 -4114 0
-5139 4114 0
-7187 5139 6163 4115 -4114 0
-5411 1315 4387 291 -290 0
-5667 1571 4643 547 -546 0
-6691 2595 4643 547 -546 0
-4643 546 0
-5667 1571 5155 1059 -1058 0
-7203 3107 5155 1059 -1058 0
-5155 1058 0
-6183 2087 6179 2083 -2082 0
-6187 2091 6179 2083 -2082 0
-6195 2099 6179 2083 -2082 0
-6691 2595 6179 2083 -2082 0
-7203 3107 6179 2083 -2082 0
-6179 2082 0
-4135 4130 0
-4143 4135 4139 4131 -4130 0
-4151 4135 4147 4131 -4130 0
-6183 4135 6179 4131 -4130 0
-4139 4130 0
-4155 4139 4147 4131 -4130 0
-6187 4139 6179 4131 -4130 0
-4147 4130 0
-6195 4147 6179 4131 -4130 0
-4259 4130 0
-4643 4130 0
-6691 4643 6179 4131 -4130 0
-5155 4130 0
-7203 5155 6179 4131 -4130 0
-6179 4130 0
-4610 4614 0
-4647 4615 4643 4611 -4610 0
-4610 4618 0
-4610 4626 0
-4610 4642 0
-5635 4610 0
-5122 5130 0
-5122 5138 0
-5122 5154 0
-5635 5122 0
-6159 6151 6155 6147 -6146 0
-6167 6151 6163 6147 -6146 0
-6183 6151 6179 6147 -6146 0
-6146 6154 0
-6171 6155 6163 6147 -6146 0
-6187 6155 6179 6147 -6146 0
-6195 6163 6179 6147 -6146 0
-6146 6178 0
-6659 6146 0
-4640 544 4128 32 -31 0
-5152 1056 4128 32 -31 0
-6176 2080 4128 32 -31 0
-31 4127 0
-4656 560 4144 48 -47 0
-5168 1072 4144 48 -47 0
-6192 2096 4144 48 -47 0
-47 4143 0
-271 4367 0
-5647 1551 4623 527 -526 0
-5648 1552 4624 528 -527 0
-527 4623 0
-4624 527 0
-5152 1056 5136 1040 -1039 0
-5168 1072 5136 1040 -1039 0
-5648 1552 5136 1040 -1039 0
-7184 3088 5136 1040 -1039 0
-1039 5135 0
-5136 1039 0
-6176 2080 6160 2064 -2063 0
-6192 2096 6160 2064 -2063 0
-6671 2575 6159 2063 -2062 0
-6672 2576 6160 2064 -2063 0
-7184 3088 6160 2064 -2063 0
-2063 6159 0
-6160 2063 0
-4128 4111 0
-4160 4128 4144 4112 -4111 0
-5152 4128 5136 4112 -4111 0
-6176 4128 6160 4112 -4111 0
-4144 4111 0
-4272 4144 4240 4112 -4111 0
-5168 4144 5136 4112 -4111 0
-6192 4144 6160 4112 -4111 0
-4368 4111 0
-4624 4111 0
-5648 4624 5136 4112 -4111 0
-6672 4624 6160 4112 -4111 0
-5136 4111 0
-7183 5135 6159 4111 -4110 0
-7184 5136 6160 4112 -4111 0
-4111 6159 0
-6160 4111 0
-4408 312 4152 56 -55 0
-4664 568 4152 56 -55 0
-5176 1080 4152 56 -55 0
-6200 2104 4152 56 -55 0
-55 4151 0
-4632 535 0
-5152 1056 5144 1048 -1047 0
-5176 1080 5144 1048 -1047 0
-5656 1560 5144 1048 -1047 0
-7192 3096 5144 1048 -1047 0
-1047 5143 0
-5144 1047 0
-6176 2080 6168 2072 -2071 0
-6200 2104 6168 2072 -2071 0
-6679 2583 6167 2071 -2070 0
-6680 2584 6168 2072 -2071 0
-7191 3095 6167 2071 -2070 0
-7192 3096 6168 2072 -2071 0
-2071 6167 0
-6168 2071 0
-4128 4119 0
-4160 4128 4152 4120 -4119 0
-4384 4128 4376 4120 -4119 0
-5152 4128 5144 4120 -4119 0
-6176 4128 6168 4120 -4119 0
-4152 4119 0
-4664 4152 4632 4120 -4119 0
-5176 4152 5144 4120 -4119 0
-6200 4152 6168 4120 -4119 0
-6680 4632 6168 4120 -4119 0
-4119 5143 0
-5144 4119 0
-7191 5143 6167 4119 -4118 0
-7192 5144 6168 4120 -4119 0
-4119 6167 0
-6168 4119 0
-4264 167 0
-4520 424 4392 296 -295 0
-4904 808 4648 552 -551 0
-5672 1576 4648 552 -551 0
-551 4647 0
-4648 551 0
-5168 1072 5160 1064 -1063 0
-5176 1080 5160 1064 -1063 0
-5672 1576 5160 1064 -1063 0
-7208 3112 5160 1064 -1063 0
-5160 1063 0
-6192 2096 6184 2088 -2087 0
-6200 2104 6184 2088 -2087 0
-6440 2344 6184 2088 -2087 0
-6696 2600 6184 2088 -2087 0
-7207 3111 6183 2087 -2086 0
-7208 3112 6184 2088 -2087 0
-2087 6183 0
-6184 2087 0
-4144 4135 0
-4160 4144 4152 4136 -4135 0
-5168 4144 5160 4136 -4135 0
-6192 4144 6184 4136 -4135 0
-4152 4135 0
-6200 4152 6184 4136 -4135 0
-5288 4264 5160 4136 -4135 0
-4392 4135 0
-4648 4135 0
-5672 4648 5160 4136 -4135 0
-6695 4647 6183 4135 -4134 0
-6696 4648 6184 4136 -4135 0
-4135 5159 0
-5160 4135 0
-7208 5160 6184 4136 -4135 0
-4135 6183 0
-6184 4135 0
-6408 2311 0
-5672 1576 5640 1544 -1543 0
-7688 3592 5640 1544 -1543 0
-5640 1543 0
-6672 2576 6664 2568 -2567 0
-7688 3592 6664 2568 -2567 0
-6664 2567 0
-4615 4623 0
-6672 4624 6664 4616 -4615 0
-4615 4631 0
-6680 4632 6664 4616 -4615 0
-4615 4647 0
-4615 4871 0
-5640 4615 0
-7688 5640 6664 4616 -4615 0
-6664 4615 0
-7184 3088 7176 3080 -3079 0
-7192 3096 7176 3080 -3079 0
-7208 3112 7176 3080 -3079 0
-7432 3336 7176 3080 -3079 0
-7688 3592 7176 3080 -3079 0
-7176 3079 0
-5127 5135 0
-5136 5127 0
-7184 5136 7176 5128 -5127 0
-5127 5143 0
-5176 5144 5160 5128 -5127 0
-7192 5144 7176 5128 -5127 0
-5127 5159 0
-5640 5127 0
-7688 5640 7176 5128 -5127 0
-7176 5127 0
-6151 6159 0
-6160 6151 0
-6176 6160 6168 6152 -6151 0
-6192 6160 6184 6152 -6151 0
-7184 6160 7176 6152 -6151 0
-6151 6167 0
-6168 6151 0
-6200 6168 6184 6152 -6151 0
-7192 6168 7176 6152 -6151 0
-6151 6183 0
-6184 6151 0
-6696 6184 6664 6152 -6151 0
-7208 6184 7176 6152 -6151 0
-6664 6151 0
-7688 6664 7176 6152 -6151 0
-7176 6151 0
-4668 572 4156 60 -59 0
-5180 1084 4156 60 -59 0
-6204 2108 4156 60 -59 0
-59 4155 0
-4284 188 4252 156 -155 0
-4384 288 4380 284 -283 0
-4380 283 0
-6684 2588 4636 540 -539 0
-4636 539 0
-5180 1084 5148 1052 -1051 0
-5660 1564 5148 1052 -1051 0
-7196 3100 5148 1052 -1051 0
-1051 5147 0
-5148 1051 0
-6176 2080 6172 2076 -2075 0
-6204 2108 6172 2076 -2075 0
-6684 2588 6172 2076 -2075 0
-7195 3099 6171 2075 -2074 0
-7196 3100 6172 2076 -2075 0
-2075 6171 0
-6172 2075 0
-4128 4123 0
-4160 4128 4156 4124 -4123 0
-5152 4128 5148 4124 -4123 0
-6176 4128 6172 4124 -4123 0
-4156 4123 0
-5180 4156 5148 4124 -4123 0
-6204 4156 6172 4124 -4123 0
-6428 4380 6172 4124 -4123 0
-4636 4123 0
-5660 4636 5148 4124 -4123 0
-4123 5147 0
-5148 4123 0
-7195 5147 6171 4123 -4122 0
-7196 5148 6172 4124 -4123 0
-4123 6171 0
-6172 4123 0
-4780 684 4268 172 -171 0
-4396 299 0
-6700 2604 4652 556 -555 0
-4652 555 0
-5168 1072 5164 1068 -1067 0
-5180 1084 5164 1068 -1067 0
-5676 1580 5164 1068 -1067 0
-7212 3116 5164 1068 -1067 0
-1067 5163 0
-6192 2096 6188 2092 -2091 0
-6204 2108 6188 2092 -2091 0
-6444 2348 6188 2092 -2091 0
-6699 2603 6187 2091 -2090 0
-6700 2604 6188 2092 -2091 0
-7212 3116 6188 2092 -2091 0
-2091 6187 0
-6188 2091 0
-4144 4139 0
-4160 4144 4156 4140 -4139 0
-4656 4144 4652 4140 -4139 0
-6192 4144 6188 4140 -4139 0
-4156 4139 0
-4412 4156 4396 4140 -4139 0
-5180 4156 5164 4140 -4139 0
-6204 4156 6188 4140 -4139 0
-6444 4396 6188 4140 -4139 0
-4652 4139 0
-6700 4652 6188 4140 -4139 0
-4139 5163 0
-5164 4139 0
-7211 5163 6187 4139 -4138 0
-7212 5164 6188 4140 -4139 0
-4139 6187 0
-6188 4139 0
-4240 4235 0
-4235 4251 0
-4748 4235 0
-4876 779 0
-6412 2315 0
-4880 4368 4876 4364 -4363 0
-7692 3596 5644 1548 -1547 0
-5644 1547 0
-6700 2604 6668 2572 -2571 0
-7692 3596 6668 2572 -2571 0
-6668 2571 0
-4619 4623 0
-4752 4624 4748 4620 -4619 0
-4880 4624 4876 4620 -4619 0
-6672 4624 6668 4620 -4619 0
-4619 4635 0
-4668 4636 4652 4620 -4619 0
-4619 4651 0
-4908 4652 4876 4620 -4619 0
-6700 4652 6668 4620 -4619 0
-5644 4619 0
-7692 5644 6668 4620 -4619 0
-6668 4619 0
-7184 3088 7180 3084 -3083 0
-7196 3100 7180 3084 -3083 0
-7212 3116 7180 3084 -3083 0
-7436 3340 7180 3084 -3083 0
-7692 3596 7180 3084 -3083 0
-7180 3083 0
-5131 5135 0
-5131 5147 0
-5148 5131 0
-7196 5148 7180 5132 -5131 0
-5131 5163 0
-5644 5131 0
-7692 5644 7180 5132 -5131 0
-7180 5131 0
-6155 6159 0
-6160 6155 0
-6176 6160 6172 6156 -6155 0
-6192 6160 6188 6156 -6155 0
-6672 6160 6668 6156 -6155 0
-7184 6160 7180 6156 -6155 0
-6155 6171 0
-6172 6155 0
-6204 6172 6188 6156 -6155 0
-6428 6172 6412 6156 -6155 0
-7196 6172 7180 6156 -6155 0
-6155 6187 0
-6188 6155 0
-6700 6188 6668 6156 -6155 0
-7212 6188 7180 6156 -6155 0
-6668 6155 0
-7692 6668 7180 6156 -6155 0
-7180 6155 0
-4276 179 0
-5684 1588 4660 564 -563 0
-4660 563 0
-5176 1080 5172 1076 -1075 0
-5180 1084 5172 1076 -1075 0
-5684 1588 5172 1076 -1075 0
-7220 3124 5172 1076 -1075 0
-5172 1075 0
-6200 2104 6196 2100 -2099 0
-6204 2108 6196 2100 -2099 0
-6708 2612 6196 2100 -2099 0
-7219 3123 6195 2099 -2098 0
-7220 3124 6196 2100 -2099 0
-2099 6195 0
-6196 2099 0
-4152 4147 0
-4160 4152 4156 4148 -4147 0
-4664 4152 4660 4148 -4147 0
-6200 4152 6196 4148 -4147 0
-4156 4147 0
-4668 4156 4660 4148 -4147 0
-5180 4156 5172 4148 -4147 0
-6204 4156 6196 4148 -4147 0
-6324 4276 6196 4148 -4147 0
-4660 4147 0
-5684 4660 5172 4148 -4147 0
-6708 4660 6196 4148 -4147 0
-4147 5171 0
-5172 4147 0
-7219 5171 6195 4147 -4146 0
-7220 5172 6196 4148 -4147 0
-4147 6195 0
-6196 4147 0
-4884 787 0
-7444 3348 6420 2324 -2323 0
-4376 4371 0
-4371 4379 0
-6932 4884 6420 4372 -4371 0
-7700 3604 5652 1556 -1555 0
-5652 1555 0
-6684 2588 6676 2580 -2579 0
-7700 3604 6676 2580 -2579 0
-4888 4632 4884 4628 -4627 0
-6680 4632 6676 4628 -4627 0
-4627 4659 0
-5652 4627 0
-7700 5652 6676 4628 -4627 0
-6676 4627 0
-7192 3096 7188 3092 -3091 0
-7196 3100 7188 3092 -3091 0
-7220 3124 7188 3092 -3091 0
-7444 3348 7188 3092 -3091 0
-7700 3604 7188 3092 -3091 0
-7188 3091 0
-5139 5143 0
-5144 5139 0
-5139 5147 0
-5148 5139 0
-5180 5148 5172 5140 -5139 0
-7196 5148 7188 5140 -5139 0
-5139 5171 0
-5172 5139 0
-5684 5172 5652 5140 -5139 0
-5652 5139 0
-7700 5652 7188 5140 -5139 0
-7188 5139 0
-6163 6167 0
-6168 6163 0
-6176 6168 6172 6164 -6163 0
-6200 6168 6196 6164 -6163 0
-7192 6168 7188 6164 -6163 0
-6163 6171 0
-6172 6163 0
-6204 6172 6196 6164 -6163 0
-6300 6172 6292 6164 -6163 0
-6684 6172 6676 6164 -6163 0
-7196 6172 7188 6164 -6163 0
-6163 6195 0
-6196 6163 0
-7220 6196 7188 6164 -6163 0
-6420 6163 0
-6676 6163 0
-7700 6676 7188 6164 -6163 0
-7188 6163 0
-4532 436 4516 420 -419 0
-419 4515 0
-4516 4259 0
-4900 803 0
-7460 3364 6436 2340 -2339 0
-2339 6435 0
-6436 2339 0
-4387 4395 0
-7716 3620 5668 1572 -1571 0
-5668 1571 0
-6696 2600 6692 2596 -2595 0
-6708 2612 6692 2596 -2595 0
-7716 3620 6692 2596 -2595 0
-6692 2595 0
-4643 4647 0
-4648 4643 0
-4643 4651 0
-4652 4643 0
-6700 4652 6692 4644 -4643 0
-4643 4659 0
-5668 4643 0
-7716 5668 6692 4644 -4643 0
-6692 4643 0
-7208 3112 7204 3108 -3107 0
-7212 3116 7204 3108 -3107 0
-7220 3124 7204 3108 -3107 0
-7716 3620 7204 3108 -3107 0
-7204 3107 0
-5155 5159 0
-5168 5160 5164 5156 -5155 0
-5176 5160 5172 5156 -5155 0
-5155 5163 0
-7212 5164 7204 5156 -5155 0
-5155 5171 0
-5668 5155 0
-7716 5668 7204 5156 -5155 0
-7204 5155 0
-6179 6183 0
-6184 6179 0
-6192 6184 6188 6180 -6179 0
-6199 6183 6195 6179 -6178 0
-6200 6184 6196 6180 -6179 0
-6696 6184 6692 6180 -6179 0
-7208 6184 7204 6180 -6179 0
-6179 6187 0
-6188 6179 0
-6204 6188 6196 6180 -6179 0
-6700 6188 6692 6180 -6179 0
-7212 6188 7204 6180 -6179 0
-6179 6195 0
-6196 6179 0
-6708 6196 6692 6180 -6179 0
-7220 6196 7204 6180 -6179 0
-6692 6179 0
-7716 6692 7204 6180 -6179 0
-7204 6179 0
-5896 1800 5892 1796 -1795 0
-5379 5395 0
-5379 5411 0
-7428 5379 0
-7428 6403 0
-5635 5639 0
-5635 5643 0
-5635 5651 0
-5635 5667 0
-7684 5635 0
-6659 6663 0
-6659 6667 0
-6924 6668 6916 6660 -6659 0
-6659 6675 0
-6659 6691 0
-7684 6659 0
-7171 7175 0
-7184 7176 7180 7172 -7171 0
-7192 7176 7188 7172 -7171 0
-7208 7176 7204 7172 -7171 0
-7432 7176 7428 7172 -7171 0
-7171 7179 0
-7196 7180 7188 7172 -7171 0
-7212 7180 7204 7172 -7171 0
-7171 7187 0
-7220 7188 7204 7172 -7171 0
-7444 7188 7428 7172 -7171 0
-7171 7203 0
-7684 7171 0
-64 4160 0
-288 4384 0
-7200 3104 5152 1056 -1055 0
-1056 5152 0
-6688 2592 6176 2080 -2079 0
-7200 3104 6176 2080 -2079 0
-2079 6175 0
-2080 6176 0
-4128 4384 0
-4128 5152 0
-7200 5152 6176 4128 -4127 0
-4128 6176 0
-176 4272 0
-560 4656 0
-1072 5168 0
-7216 3120 6192 2096 -2095 0
-2095 6191 0
-2096 6192 0
-4144 4400 0
-4144 4656 0
-6704 4656 6192 4144 -4143 0
-4144 5168 0
-4144 6192 0
-656 4752 0
-784 4880 0
-7696 3600 6672 2576 -2575 0
-2576 6672 0
-4624 4656 0
-7696 3600 7184 3088 -3087 0
-3088 7184 0
-5136 5152 0
-5136 5168 0
-7216 5168 7184 5136 -5135 0
-5136 7184 0
-6176 6159 0
-6160 6176 0
-6208 6176 6192 6160 -6159 0
-7200 6176 7184 6160 -6159 0
-6192 6159 0
-6160 6192 0
-7216 6192 7184 6160 -6159 0
-6672 6159 0
-7696 6672 7184 6160 -6159 0
-6160 7184 0
-4920 824 4408 312 -311 0
-7224 3128 5176 1080 -1079 0
-1080 5176 0
-6712 2616 6200 2104 -2103 0
-7224 3128 6200 2104 -2103 0
-2103 6199 0
-2104 6200 0
-6712 4664 6200 4152 -4151 0
-4152 5176 0
-7224 5176 6200 4152 -4151 0
-4152 6200 0
-4376 4888 0
-7704 3608 5656 1560 -1559 0
-7704 3608 6680 2584 -2583 0
-2584 6680 0
-4632 4640 0
-4632 4664 0
-7200 3104 7192 3096 -3095 0
-7224 3128 7192 3096 -3095 0
-7704 3608 7192 3096 -3095 0
-7192 3095 0
-3096 7192 0
-5152 5143 0
-5144 5152 0
-5184 5152 5176 5144 -5143 0
-5144 5176 0
-7704 5656 7192 5144 -5143 0
-5144 7192 0
-6168 6176 0
-6208 6176 6200 6168 -6167 0
-6168 6200 0
-7224 6200 7192 6168 -6167 0
-6680 6167 0
-7704 6680 7192 6168 -6167 0
-6168 7192 0
-5304 1208 5288 1192 -1191 0
-1192 5288 0
-4912 816 4904 808 -807 0
-2600 6696 0
-4648 4656 0
-4648 4664 0
-6696 4647 0
-7216 3120 7208 3112 -3111 0
-7224 3128 7208 3112 -3111 0
-7720 3624 7208 3112 -3111 0
-7208 3111 0
-3112 7208 0
-5160 5168 0
-7216 5168 7208 5160 -5159 0
-5160 5176 0
-5160 5672 0
-7720 5672 7208 5160 -5159 0
-5160 7208 0
-6192 6183 0
-6184 6192 0
-6208 6192 6200 6184 -6183 0
-6448 6192 6440 6184 -6183 0
-7216 6192 7208 6184 -6183 0
-6200 6183 0
-6184 6200 0
-6456 6200 6440 6184 -6183 0
-7208 6183 0
-6184 7208 0
-4872 4904 0
-5928 4904 5896 4872 -4871 0
-3336 7432 0
-5639 5647 0
-5640 5648 0
-5640 5656 0
-5640 5672 0
-5640 5896 0
-6663 6671 0
-6664 6672 0
-6663 6679 0
-6664 6680 0
-6663 6695 0
-6664 6696 0
-7175 7183 0
-7176 7184 0
-7200 7184 7192 7176 -7175 0
-7216 7184 7208 7176 -7175 0
-7175 7191 0
-7176 7192 0
-7224 7192 7208 7176 -7175 0
-7175 7207 0
-7176 7208 0
-7228 3132 5180 1084 -1083 0
-1083 5179 0
-1084 5180 0
-7228 3132 6204 2108 -2107 0
-2107 6203 0
-2108 6204 0
-4156 4284 0
-6716 4668 6204 4156 -4155 0
-4156 5180 0
-7228 5180 6204 4156 -4155 0
-4156 6204 0
-4252 6300 0
-4380 6428 0
-2588 6684 0
-4636 4668 0
-7200 3104 7196 3100 -3099 0
-7708 3612 7196 3100 -3099 0
-3100 7196 0
-5148 5152 0
-5148 5180 0
-7228 5180 7196 5148 -5147 0
-7708 5660 7196 5148 -5147 0
-5148 7196 0
-6176 6171 0
-6172 6176 0
-6208 6176 6204 6172 -6171 0
-7200 6176 7196 6172 -6171 0
-6204 6171 0
-6172 6204 0
-7228 6204 7196 6172 -6171 0
-7196 6171 0
-6172 7196 0
-5932 1836 4908 812 -811 0
-5420 1323 0
-5436 4412 5420 4396 -4395 0
-7724 3628 5676 1580 -1579 0
-7724 3628 6700 2604 -2603 0
-2604 6700 0
-4656 4651 0
-4652 4656 0
-4672 4656 4668 4652 -4651 0
-4652 4668 0
-4652 4780 0
-7724 3628 7212 3116 -3115 0
-3116 7212 0
-5164 5168 0
-5164 5180 0
-5164 7212 0
-6192 6187 0
-6188 6192 0
-6208 6192 6204 6188 -6187 0
-6188 6204 0
-6460 6204 6444 6188 -6187 0
-7228 6204 7212 6188 -6187 0
-6444 6187 0
-6700 6187 0
-7724 6700 7212 6188 -6187 0
-6188 7212 0
-4876 4908 0
-4876 6924 0
-7440 3344 7436 3340 -3339 0
-5644 5648 0
-5644 5676 0
-6668 6672 0
-6668 6684 0
-6667 6699 0
-6668 6700 0
-7180 7184 0
-7200 7184 7196 7180 -7179 0
-7216 7184 7212 7180 -7179 0
-7179 7195 0
-7180 7196 0
-7228 7196 7212 7180 -7179 0
-7179 7211 0
-7180 7212 0
-5692 1596 5684 1588 -1587 0
-1588 5684 0
-7732 3636 6708 2612 -2611 0
-2612 6708 0
-4660 4664 0
-4668 4659 0
-4660 4668 0
-5684 4659 0
-4660 5684 0
-7224 3128 7220 3124 -3123 0
-7732 3636 7220 3124 -3123 0
-3124 7220 0
-5176 5171 0
-5172 5176 0
-5180 5171 0
-5172 5180 0
-7732 5684 7220 5172 -5171 0
-5172 7220 0
-6200 6195 0
-6196 6200 0
-6208 6200 6204 6196 -6195 0
-6196 6204 0
-7228 6204 7220 6196 -6195 0
-6196 6708 0
-7732 6708 7220 6196 -6195 0
-7220 6195 0
-6196 7220 0
-6292 6324 0
-7448 3352 7444 3348 -3347 0
-3348 7444 0
-6420 6428 0
-5652 5660 0
-5652 5684 0
-6676 6680 0
-6676 6684 0
-6676 6708 0
-7188 7192 0
-7200 7192 7196 7188 -7187 0
-7224 7192 7220 7188 -7187 0
-7188 7196 0
-7228 7196 7220 7188 -7187 0
-7187 7219 0
-7188 7220 0
-4536 4520 4532 4516 -4515 0
-2852 6948 0
-6436 6444 0
-5668 5672 0
-5668 5684 0
-6692 6696 0
-6692 6700 0
-6692 6708 0
-7204 7208 0
-7216 7208 7212 7204 -7203 0
-7224 7208 7220 7204 -7203 0
-7204 7212 0
-7228 7212 7220 7204 -7203 0
-7204 7220 0
-5892 5908 0
-6916 6932 0
-7428 7432 0
-7428 7444 0
-7428 7460 0
-7684 7688 0
-7684 7692 0
-7684 7700 0
-7684 7716 0
-320 4416 0
-576 4672 0
-1088 5184 0
-2112 6208 0
-2592 6688 0
-7712 3616 7200 3104 -3103 0
-3104 7200 0
-5152 7200 0
-7712 6688 7200 6176 -6175 0
-6176 7200 0
-4400 4912 0
-3120 7216 0
-5168 7216 0
-7728 6704 7216 6192 -6191 0
-6192 7216 0
-7184 7200 0
-7232 7200 7216 7184 -7183 0
-7184 7216 0
-7184 7440 0
-440 4536 0
-4280 5304 0
-5944 1848 4920 824 -823 0
-7736 3640 7224 3128 -3127 0
-3128 7224 0
-5176 5688 0
-5176 7224 0
-6200 7224 0
-5656 5688 0
-7192 7200 0
-7192 7224 0
-7192 7448 0
-1832 5928 0
-3368 7464 0
-6464 6448 6456 6440 -6439 0
-7464 6439 0
-6696 6712 0
-7208 7216 0
-7208 7224 0
-7688 7696 0
-7688 7704 0
-7688 7720 0
-1340 5436 0
-7740 3644 5692 1596 -1595 0
-3132 7228 0
-5180 5436 0
-5180 7228 0
-7484 6460 7228 6204 -6203 0
-7740 6716 7228 6204 -6203 0
-6204 7228 0
-7232 7200 7228 7196 -7195 0
-7196 7228 0
-5676 5932 0
-7212 7216 0
-7212 7228 0
-7692 7708 0
-7692 7724 0
-7220 7228 0
-7700 7732 0
-4416 6464 0
-5184 7232 0
-5688 5944 0
-7704 7712 0
-7720 7728 0
-7720 7736 0
-5436 7484 0
-7724 7740 0
-8194 0
-8199 0
-8203 0
-8211 0
-8227 0
-12291 0
-8208 0
-8216 0
-8232 0
-8712 0
-9224 0
-10248 0
-12296 0
-8220 0
-8236 0
-9228 0
-10252 0
-12300 0
-8244 0
-9236 0
-10260 0
-12308 0
-8484 0
-8740 0
-9252 0
-10276 0
-12324 0
-9732 0
-11268 0
-14340 0
-9222 1030 8198 6 -5 0
-9226 1034 8202 10 -9 0
-10250 2058 8202 10 -9 0
-9234 1042 8210 18 -17 0
-10258 2066 8210 18 -17 0
-9250 1058 8226 34 -33 0
-8214 8198 8210 8194 -8193 0
-8230 8198 8226 8194 -8193 0
-9218 8193 0
-9231 1039 8207 15 -14 0
-10255 2063 8207 15 -14 0
-12303 4111 8207 15 -14 0
-14 8206 0
-8727 535 8215 23 -22 0
-9239 1047 8215 23 -22 0
-10263 2071 8215 23 -22 0
-12311 4119 8215 23 -22 0
-22 8214 0
-9255 1063 8231 39 -38 0
-10279 2087 8231 39 -38 0
-12327 4135 8231 39 -38 0
-38 8230 0
-9735 1543 8711 519 -518 0
-11271 3079 9223 1031 -1030 0
-13319 5127 9223 1031 -1030 0
-9223 1030 0
-10263 2071 10247 2055 -2054 0
-10279 2087 10247 2055 -2054 0
-11271 3079 10247 2055 -2054 0
-12303 4111 12295 4103 -4102 0
-12311 4119 12295 4103 -4102 0
-12327 4135 12295 4103 -4102 0
-13319 5127 12295 4103 -4102 0
-14343 6151 12295 4103 -4102 0
-12295 4102 0
-8207 8198 0
-8223 8207 8215 8199 -8198 0
-8239 8207 8231 8199 -8198 0
-12303 8207 12295 8199 -8198 0
-8215 8198 0
-8247 8215 8231 8199 -8198 0
-10263 8215 10247 8199 -8198 0
-12311 8215 12295 8199 -8198 0
-8231 8198 0
-12327 8231 12295 8199 -8198 0
-8711 8198 0
-9223 8198 0
-13319 9223 12295 8199 -8198 0
-10247 8198 0
-14343 10247 12295 8199 -8198 0
-12295 8198 0
-9243 1051 8219 27 -26 0
-10267 2075 8219 27 -26 0
-12315 4123 8219 27 -26 0
-26 8218 0
-10283 2091 8235 43 -42 0
-12331 4139 8235 43 -42 0
-42 8234 0
-11275 3083 9227 1035 -1034 0
-13323 5131 9227 1035 -1034 0
-9227 1034 0
-11275 3083 10251 2059 -2058 0
-14347 6155 10251 2059 -2058 0
-10251 2058 0
-12303 4111 12299 4107 -4106 0
-12315 4123 12299 4107 -4106 0
-13323 5131 12299 4107 -4106 0
-14347 6155 12299 4107 -4106 0
-12299 4106 0
-8207 8202 0
-8239 8207 8235 8203 -8202 0
-10255 8207 10251 8203 -8202 0
-12303 8207 12299 8203 -8202 0
-8219 8202 0
-8251 8219 8235 8203 -8202 0
-12315 8219 12299 8203 -8202 0
-8235 8202 0
-10283 8235 10251 8203 -8202 0
-12331 8235 12299 8203 -8202 0
-8715 8202 0
-9227 8202 0
-13323 9227 12299 8203 -8202 0
-10251 8202 0
-14347 10251 12299 8203 -8202 0
-12299 8202 0
-10291 2099 8243 51 -50 0
-12339 4147 8243 51 -50 0
-50 8242 0
-8499 307 8467 275 -274 0
-8731 539 8723 531 -530 0
-11283 3091 9235 1043 -1042 0
-9235 1042 0
-11283 3091 10259 2067 -2066 0
-14355 6163 10259 2067 -2066 0
-10259 2066 0
-12311 4119 12307 4115 -4114 0
-12315 4123 12307 4115 -4114 0
-12339 4147 12307 4115 -4114 0
-13331 5139 12307 4115 -4114 0
-14355 6163 12307 4115 -4114 0
-12307 4114 0
-8215 8210 0
-8223 8215 8219 8211 -8210 0
-8247 8215 8243 8211 -8210 0
-12311 8215 12307 8211 -8210 0
-8219 8210 0
-8251 8219 8243 8211 -8210 0
-12315 8219 12307 8211 -8210 0
-8243 8210 0
-12339 8243 12307 8211 -8210 0
-9235 8210 0
-11283 9235 10259 8211 -8210 0
-13331 9235 12307 8211 -8210 0
-10259 8210 0
-14355 10259 12307 8211 -8210 0
-12307 8210 0
-11299 3107 9251 1059 -1058 0
-9251 1058 0
-11299 3107 10275 2083 -2082 0
-14371 6179 10275 2083 -2082 0
-10275 2082 0
-12327 4135 12323 4131 -4130 0
-12331 4139 12323 4131 -4130 0
-12339 4147 12323 4131 -4130 0
-13347 5155 12323 4131 -4130 0
-14371 6179 12323 4131 -4130 0
-12323 4130 0
-8231 8226 0
-8239 8231 8235 8227 -8226 0
-8247 8231 8243 8227 -8226 0
-8235 8226 0
-8251 8235 8243 8227 -8226 0
-8491 8235 8483 8227 -8226 0
-10283 8235 10275 8227 -8226 0
-12331 8235 12323 8227 -8226 0
-8243 8226 0
-10291 8243 10275 8227 -8226 0
-12339 8243 12323 8227 -8226 0
-9251 8226 0
-13347 9251 12323 8227 -8226 0
-10275 8226 0
-14371 10275 12323 8227 -8226 0
-12323 8226 0
-9735 1543 9731 1539 -1538 0
-9218 9222 0
-9218 9226 0
-9218 9234 0
-9218 9250 0
-11267 9218 0
-10242 10250 0
-10242 10258 0
-11267 10242 0
-12290 12294 0
-12303 12295 12299 12291 -12290 0
-12311 12295 12307 12291 -12290 0
-12327 12295 12323 12291 -12290 0
-12290 12298 0
-12315 12299 12307 12291 -12290 0
-12331 12299 12323 12291 -12290 0
-12290 12306 0
-12339 12307 12323 12291 -12290 0
-12290 12322 0
-13315 12290 0
-9248 1056 8224 32 -31 0
-10272 2080 8224 32 -31 0
-12320 4128 8224 32 -31 0
-31 8223 0
-8752 560 8240 48 -47 0
-9264 1072 8240 48 -47 0
-10288 2096 8240 48 -47 0
-12336 4144 8240 48 -47 0
-47 8239 0
-8464 271 0
-8976 784 8720 528 -527 0
-11280 3088 9232 1040 -1039 0
-9232 1039 0
-10272 2080 10256 2064 -2063 0
-10288 2096 10256 2064 -2063 0
-11280 3088 10256 2064 -2063 0
-14351 6159 10255 2063 -2062 0
-14352 6160 10256 2064 -2063 0
-2063 10255 0
-10256 2063 0
-12320 4128 12304 4112 -4111 0
-12336 4144 12304 4112 -4111 0
-13328 5136 12304 4112 -4111 0
-14351 6159 12303 4111 -4110 0
-14352 6160 12304 4112 -4111 0
-4111 12303 0
-12304 4111 0
-8224 8207 0
-8256 8224 8240 8208 -8207 0
-10272 8224 10256 8208 -8207 0
-12320 8224 12304 8208 -8207 0
-8240 8207 0
-8496 8240 8464 8208 -8207 0
-10288 8240 10256 8208 -8207 0
-12336 8240 12304 8208 -8207 0
-12560 8464 12304 8208 -8207 0
-9232 8207 0
-13327 9231 12303 8207 -8206 0
-13328 9232 12304 8208 -8207 0
-8207 10255 0
-10256 8207 0
-14351 10255 12303 8207 -8206 0
-14352 10256 12304 8208 -8207 0
-8207 12303 0
-12304 8207 0
-9272 1080 8248 56 -55 0
-10296 2104 8248 56 -55 0
-12344 4152 8248 56 -55 0
-55 8247 0
-9496 1304 8472 280 -279 0
-279 8471 0
-8728 535 0
-9272 1080 9240 1048 -1047 0
-11288 3096 9240 1048 -1047 0
-9240 1047 0
-10272 2080 10264 2072 -2071 0
-10296 2104 10264 2072 -2071 0
-11288 3096 10264 2072 -2071 0
-14359 6167 10263 2071 -2070 0
-14360 6168 10264 2072 -2071 0
-10264 2071 0
-12320 4128 12312 4120 -4119 0
-12344 4152 12312 4120 -4119 0
-13335 5143 12311 4119 -4118 0
-13336 5144 12312 4120 -4119 0
-14360 6168 12312 4120 -4119 0
-4119 12311 0
-12312 4119 0
-8224 8215 0
-8256 8224 8248 8216 -8215 0
-8480 8224 8472 8216 -8215 0
-9248 8224 9240 8216 -8215 0
-10272 8224 10264 8216 -8215 0
-12320 8224 12312 8216 -8215 0
-8248 8215 0
-10296 8248 10264 8216 -8215 0
-12344 8248 12312 8216 -8215 0
-12824 8728 12312 8216 -8215 0
-11288 9240 10264 8216 -8215 0
-13336 9240 12312 8216 -8215 0
-8215 10263 0
-10264 8215 0
-14359 10263 12311 8215 -8214 0
-14360 10264 12312 8216 -8215 0
-8215 12311 0
-12312 8215 0
-8488 295 0
-8744 551 0
-11303 3111 9255 1063 -1062 0
-11304 3112 9256 1064 -1063 0
-9256 1063 0
-10288 2096 10280 2088 -2087 0
-10296 2104 10280 2088 -2087 0
-10792 2600 10280 2088 -2087 0
-11304 3112 10280 2088 -2087 0
-14375 6183 10279 2087 -2086 0
-14376 6184 10280 2088 -2087 0
-10280 2087 0
-12336 4144 12328 4136 -4135 0
-12344 4152 12328 4136 -4135 0
-13352 5160 12328 4136 -4135 0
-14375 6183 12327 4135 -4134 0
-14376 6184 12328 4136 -4135 0
-4135 12327 0
-12328 4135 0
-8240 8231 0
-8256 8240 8248 8232 -8231 0
-9264 8240 9256 8232 -8231 0
-10288 8240 10280 8232 -8231 0
-12336 8240 12328 8232 -8231 0
-8248 8231 0
-10296 8248 10280 8232 -8231 0
-12344 8248 12328 8232 -8231 0
-9256 8231 0
-11304 9256 10280 8232 -8231 0
-13351 9255 12327 8231 -8230 0
-13352 9256 12328 8232 -8231 0
-8231 10279 0
-10280 8231 0
-14376 10280 12328 8232 -8231 0
-8231 12327 0
-12328 8231 0
-9768 1576 9736 1544 -1543 0
-9992 1800 9736 1544 -1543 0
-1543 9735 0
-9736 1543 0
-9736 8711 0
-13832 9736 12808 8712 -8711 0
-11280 3088 11272 3080 -3079 0
-11784 3592 11272 3080 -3079 0
-15368 7176 11272 3080 -3079 0
-11272 3079 0
-15368 7176 13320 5128 -5127 0
-13320 5127 0
-9223 9239 0
-9223 9735 0
-11272 9223 0
-15368 11272 13320 9224 -9223 0
-13320 9223 0
-14352 6160 14344 6152 -6151 0
-14360 6168 14344 6152 -6151 0
-14376 6184 14344 6152 -6151 0
-14600 6408 14344 6152 -6151 0
-15368 7176 14344 6152 -6151 0
-14344 6151 0
-10247 10255 0
-10256 10247 0
-10288 10256 10280 10248 -10247 0
-14352 10256 14344 10248 -10247 0
-10247 10263 0
-10264 10247 0
-10296 10264 10280 10248 -10247 0
-14360 10264 14344 10248 -10247 0
-10247 10279 0
-10280 10247 0
-11304 10280 11272 10248 -10247 0
-14376 10280 14344 10248 -10247 0
-11272 10247 0
-15368 11272 14344 10248 -10247 0
-14344 10247 0
-12295 12303 0
-12304 12295 0
-12320 12304 12312 12296 -12295 0
-12336 12304 12328 12296 -12295 0
-14352 12304 14344 12296 -12295 0
-12295 12311 0
-12312 12295 0
-12343 12311 12327 12295 -12294 0
-12344 12312 12328 12296 -12295 0
-13336 12312 13320 12296 -12295 0
-14360 12312 14344 12296 -12295 0
-12295 12327 0
-12328 12295 0
-12840 12328 12808 12296 -12295 0
-14376 12328 14344 12296 -12295 0
-12808 12295 0
-13320 12295 0
-15368 13320 14344 12296 -12295 0
-14344 12295 0
-8508 316 8252 60 -59 0
-9276 1084 8252 60 -59 0
-10300 2108 8252 60 -59 0
-12348 4156 8252 60 -59 0
-59 8251 0
-283 8475 0
-8732 539 0
-11292 3100 9244 1052 -1051 0
-13340 5148 9244 1052 -1051 0
-9244 1051 0
-10272 2080 10268 2076 -2075 0
-11292 3100 10268 2076 -2075 0
-14364 6172 10268 2076 -2075 0
-2075 10267 0
-10268 2075 0
-12320 4128 12316 4124 -4123 0
-12348 4156 12316 4124 -4123 0
-13340 5148 12316 4124 -4123 0
-14364 6172 12316 4124 -4123 0
-4123 12315 0
-12316 4123 0
-8224 8219 0
-8256 8224 8252 8220 -8219 0
-9248 8224 9244 8220 -8219 0
-10272 8224 10268 8220 -8219 0
-12320 8224 12316 8220 -8219 0
-8252 8219 0
-12348 8252 12316 8220 -8219 0
-12572 8476 12316 8220 -8219 0
-8219 8731 0
-12828 8732 12316 8220 -8219 0
-9244 8219 0
-11292 9244 10268 8220 -8219 0
-13340 9244 12316 8220 -8219 0
-8219 10267 0
-10268 8219 0
-14364 10268 12316 8220 -8219 0
-8219 12315 0
-12316 8219 0
-299 8491 0
-8492 299 0
-9004 812 8748 556 -555 0
-9276 1084 9260 1068 -1067 0
-11308 3116 9260 1068 -1067 0
-9260 1067 0
-10288 2096 10284 2092 -2091 0
-10300 2108 10284 2092 -2091 0
-14380 6188 10284 2092 -2091 0
-2091 10283 0
-10284 2091 0
-12336 4144 12332 4140 -4139 0
-12348 4156 12332 4140 -4139 0
-12844 4652 12332 4140 -4139 0
-13355 5163 12331 4139 -4138 0
-13356 5164 12332 4140 -4139 0
-14380 6188 12332 4140 -4139 0
-4139 12331 0
-12332 4139 0
-8240 8235 0
-8256 8240 8252 8236 -8235 0
-10288 8240 10284 8236 -8235 0
-12336 8240 12332 8236 -8235 0
-8252 8235 0
-10300 8252 10284 8236 -8235 0
-12348 8252 12332 8236 -8235 0
-8492 8235 0
-10540 8492 10284 8236 -8235 0
-8748 8235 0
-9260 8235 0
-11308 9260 10284 8236 -8235 0
-13355 9259 12331 8235 -8234 0
-13356 9260 12332 8236 -8235 0
-8235 10283 0
-10284 8235 0
-14380 10284 12332 8236 -8235 0
-8235 12331 0
-12332 8235 0
-9996 1804 9740 1548 -1547 0
-9740 8715 0
-11788 3596 11276 3084 -3083 0
-15372 7180 11276 3084 -3083 0
-11276 3083 0
-13328 5136 13324 5132 -5131 0
-13340 5148 13324 5132 -5131 0
-15372 7180 13324 5132 -5131 0
-13324 5131 0
-9227 9231 0
-9227 9243 0
-11292 9244 11276 9228 -9227 0
-13356 9260 13324 9228 -9227 0
-11276 9227 0
-15372 11276 13324 9228 -9227 0
-13324 9227 0
-14352 6160 14348 6156 -6155 0
-14364 6172 14348 6156 -6155 0
-14380 6188 14348 6156 -6155 0
-14604 6412 14348 6156 -6155 0
-14860 6668 14348 6156 -6155 0
-15372 7180 14348 6156 -6155 0
-14348 6155 0
-10251 10255 0
-10256 10251 0
-14352 10256 14348 10252 -10251 0
-10251 10267 0
-10300 10268 10284 10252 -10251 0
-14364 10268 14348 10252 -10251 0
-10251 10283 0
-10284 10251 0
-14380 10284 14348 10252 -10251 0
-11276 10251 0
-15372 11276 14348 10252 -10251 0
-14348 10251 0
-12299 12303 0
-12304 12299 0
-12320 12304 12316 12300 -12299 0
-12336 12304 12332 12300 -12299 0
-14352 12304 14348 12300 -12299 0
-12299 12315 0
-12316 12299 0
-12347 12315 12331 12299 -12298 0
-12348 12316 12332 12300 -12299 0
-12572 12316 12556 12300 -12299 0
-12828 12316 12812 12300 -12299 0
-14364 12316 14348 12300 -12299 0
-12299 12331 0
-12332 12299 0
-14380 12332 14348 12300 -12299 0
-13324 12299 0
-15372 13324 14348 12300 -12299 0
-14348 12299 0
-8500 307 0
-9780 1588 8756 564 -563 0
-563 8755 0
-8756 563 0
-11316 3124 9268 1076 -1075 0
-13364 5172 9268 1076 -1075 0
-9268 1075 0
-10296 2104 10292 2100 -2099 0
-10300 2108 10292 2100 -2099 0
-11316 3124 10292 2100 -2099 0
-14388 6196 10292 2100 -2099 0
-2099 10291 0
-10292 2099 0
-12344 4152 12340 4148 -4147 0
-12348 4156 12340 4148 -4147 0
-13364 5172 12340 4148 -4147 0
-14388 6196 12340 4148 -4147 0
-4147 12339 0
-12340 4147 0
-8248 8243 0
-8256 8248 8252 8244 -8243 0
-10296 8248 10292 8244 -8243 0
-12344 8248 12340 8244 -8243 0
-8252 8243 0
-10300 8252 10292 8244 -8243 0
-12348 8252 12340 8244 -8243 0
-12596 8500 12340 8244 -8243 0
-12852 8756 12340 8244 -8243 0
-9268 8243 0
-11316 9268 10292 8244 -8243 0
-8243 10291 0
-10292 8243 0
-14388 10292 12340 8244 -8243 0
-8243 12339 0
-12340 8243 0
-8467 12563 0
-11796 3604 9748 1556 -1555 0
-8723 12819 0
-15380 7188 11284 3092 -3091 0
-11284 3091 0
-13336 5144 13332 5140 -5139 0
-15380 7188 13332 5140 -5139 0
-13332 5139 0
-9235 9239 0
-9235 9243 0
-9244 9235 0
-9235 9267 0
-9268 9235 0
-11284 9235 0
-15380 11284 13332 9236 -9235 0
-13332 9235 0
-14360 6168 14356 6164 -6163 0
-14364 6172 14356 6164 -6163 0
-14388 6196 14356 6164 -6163 0
-15380 7188 14356 6164 -6163 0
-14356 6163 0
-10259 10263 0
-10271 10263 10267 10259 -10258 0
-10296 10264 10292 10260 -10259 0
-14360 10264 14356 10260 -10259 0
-10259 10267 0
-10268 10259 0
-10259 10291 0
-10292 10259 0
-11316 10292 11284 10260 -10259 0
-14388 10292 14356 10260 -10259 0
-11284 10259 0
-15380 11284 14356 10260 -10259 0
-14356 10259 0
-12307 12311 0
-12312 12307 0
-12320 12312 12316 12308 -12307 0
-12343 12311 12339 12307 -12306 0
-12344 12312 12340 12308 -12307 0
-12824 12312 12820 12308 -12307 0
-14360 12312 14356 12308 -12307 0
-12307 12315 0
-12316 12307 0
-12348 12316 12340 12308 -12307 0
-14364 12316 14356 12308 -12307 0
-12307 12339 0
-12340 12307 0
-14388 12340 14356 12308 -12307 0
-14612 12564 14356 12308 -12307 0
-13332 12307 0
-15380 13332 14356 12308 -12307 0
-14356 12307 0
-9012 820 8996 804 -803 0
-803 8995 0
-8496 8488 8492 8484 -8483 0
-11812 3620 10788 2596 -2595 0
-8760 8744 8756 8740 -8739 0
-15396 7204 11300 3108 -3107 0
-11300 3107 0
-13352 5160 13348 5156 -5155 0
-13364 5172 13348 5156 -5155 0
-15396 7204 13348 5156 -5155 0
-13348 5155 0
-9251 9255 0
-13364 9268 13348 9252 -9251 0
-11300 9251 0
-15396 11300 13348 9252 -9251 0
-13348 9251 0
-14376 6184 14372 6180 -6179 0
-14380 6188 14372 6180 -6179 0
-14388 6196 14372 6180 -6179 0
-14628 6436 14372 6180 -6179 0
-15396 7204 14372 6180 -6179 0
-14372 6179 0
-10275 10279 0
-10288 10280 10284 10276 -10275 0
-10296 10280 10292 10276 -10275 0
-14376 10280 14372 10276 -10275 0
-10275 10283 0
-10284 10275 0
-10300 10284 10292 10276 -10275 0
-14380 10284 14372 10276 -10275 0
-10275 10291 0
-10292 10275 0
-11316 10292 11300 10276 -10275 0
-14388 10292 14372 10276 -10275 0
-11300 10275 0
-15396 11300 14372 10276 -10275 0
-14372 10275 0
-12323 12327 0
-12328 12323 0
-12336 12328 12332 12324 -12323 0
-12343 12327 12339 12323 -12322 0
-12344 12328 12340 12324 -12323 0
-14376 12328 14372 12324 -12323 0
-12323 12331 0
-12332 12323 0
-12348 12332 12340 12324 -12323 0
-14380 12332 14372 12324 -12323 0
-12323 12339 0
-12340 12323 0
-14388 12340 14372 12324 -12323 0
-13348 12323 0
-15396 13348 14372 12324 -12323 0
-14372 12323 0
-9992 1800 9988 1796 -1795 0
-10020 1828 9988 1796 -1795 0
-14612 6420 14596 6404 -6403 0
-11788 3596 11780 3588 -3587 0
-11784 9736 11780 9732 -9731 0
-11267 11271 0
-11288 11272 11284 11268 -11267 0
-11784 11272 11780 11268 -11267 0
-11267 11275 0
-11308 11276 11300 11268 -11267 0
-11267 11283 0
-11316 11284 11300 11268 -11267 0
-11267 11299 0
-15364 11267 0
-13315 13319 0
-13315 13323 0
-13315 13331 0
-13315 13347 0
-15364 13315 0
-14339 14343 0
-14352 14344 14348 14340 -14339 0
-14360 14344 14356 14340 -14339 0
-14376 14344 14372 14340 -14339 0
-14339 14347 0
-14364 14348 14356 14340 -14339 0
-14380 14348 14372 14340 -14339 0
-14604 14348 14596 14340 -14339 0
-14339 14355 0
-14388 14356 14372 14340 -14339 0
-14612 14356 14596 14340 -14339 0
-14339 14371 0
-14628 14372 14596 14340 -14339 0
-14884 14372 14852 14340 -14339 0
-14339 14595 0
-15364 14339 0
-64 8256 0
-288 8480 0
-11296 3104 10272 2080 -2079 0
-2079 10271 0
-2080 10272 0
-14368 6176 12320 4128 -4127 0
-4128 12320 0
-8224 9248 0
-11296 9248 10272 8224 -8223 0
-8224 10272 0
-14368 10272 12320 8224 -8223 0
-8224 12320 0
-304 8496 0
-14384 6192 10288 2096 -2095 0
-2096 10288 0
-13360 5168 12336 4144 -4143 0
-14384 6192 12336 4144 -4143 0
-4143 12335 0
-4144 12336 0
-8240 10288 0
-14384 10288 12336 8240 -8239 0
-8240 12336 0
-8464 8976 0
-8720 8752 0
-9232 9248 0
-14384 6192 14352 6160 -6159 0
-15376 7184 14352 6160 -6159 0
-14352 6159 0
-6160 14352 0
-10256 10272 0
-10256 10288 0
-14384 10288 14352 10256 -10255 0
-15376 11280 14352 10256 -10255 0
-10256 14352 0
-12320 12303 0
-12304 12320 0
-12352 12320 12336 12304 -12303 0
-14368 12320 14352 12304 -12303 0
-12336 12303 0
-12304 12336 0
-14384 12336 14352 12304 -12303 0
-14352 12303 0
-12304 14352 0
-312 8504 0
-11320 3128 9272 1080 -1079 0
-11320 3128 10296 2104 -2103 0
-2103 10295 0
-2104 10296 0
-14392 6200 12344 4152 -4151 0
-4151 12343 0
-4152 12344 0
-8248 8760 0
-8248 9272 0
-11320 9272 10296 8248 -8247 0
-8248 10296 0
-14392 10296 12344 8248 -8247 0
-8248 12344 0
-12824 8727 0
-3096 11288 0
-13368 5176 13336 5144 -5143 0
-15384 7192 13336 5144 -5143 0
-13336 5143 0
-9240 9248 0
-9504 9248 9496 9240 -9239 0
-11296 9248 11288 9240 -9239 0
-9240 9272 0
-9240 11288 0
-9240 13336 0
-14392 6200 14360 6168 -6167 0
-15384 7192 14360 6168 -6167 0
-6168 14360 0
-10272 10263 0
-10264 10272 0
-10304 10272 10296 10264 -10263 0
-10296 10263 0
-10264 10296 0
-11320 10296 11288 10264 -10263 0
-15384 11288 14360 10264 -10263 0
-14360 10263 0
-10264 14360 0
-12320 12311 0
-12312 12320 0
-12352 12320 12344 12312 -12311 0
-14368 12320 14360 12312 -12311 0
-12312 12344 0
-14392 12344 14360 12312 -12311 0
-13336 12311 0
-15384 13336 14360 12312 -12311 0
-14360 12311 0
-12312 14360 0
-8488 9000 0
-4648 12840 0
-9280 9264 9272 9256 -9255 0
-13368 9272 13352 9256 -9255 0
-15400 7208 14376 6184 -6183 0
-6184 14376 0
-10288 10279 0
-10280 10288 0
-14384 10288 14376 10280 -10279 0
-10296 10279 0
-10280 10296 0
-14392 10296 14376 10280 -10279 0
-10280 14376 0
-12328 12336 0
-12352 12336 12344 12328 -12327 0
-14384 12336 14376 12328 -12327 0
-12344 12327 0
-12328 12344 0
-14392 12344 14376 12328 -12327 0
-15400 13352 14376 12328 -12327 0
-14376 12327 0
-12328 14376 0
-3592 11784 0
-10024 9768 9992 9736 -9735 0
-9736 9992 0
-12808 12824 0
-11272 11280 0
-11272 11288 0
-11271 11303 0
-11272 11304 0
-11272 11784 0
-13319 13327 0
-13320 13328 0
-13319 13335 0
-13320 13336 0
-13848 13336 13832 13320 -13319 0
-13319 13351 0
-13320 13352 0
-14343 14351 0
-14344 14352 0
-14368 14352 14360 14344 -14343 0
-14384 14352 14376 14344 -14343 0
-14343 14359 0
-14344 14360 0
-14392 14360 14376 14344 -14343 0
-14343 14375 0
-14344 14376 0
-13372 5180 9276 1084 -1083 0
-11324 3132 10300 2108 -2107 0
-2107 10299 0
-2108 10300 0
-13372 5180 12348 4156 -4155 0
-14396 6204 12348 4156 -4155 0
-4155 12347 0
-4156 12348 0
-8252 8508 0
-8252 9276 0
-11324 9276 10300 8252 -8251 0
-8252 10300 0
-14396 10300 12348 8252 -8251 0
-8252 12348 0
-8476 8480 0
-12576 8480 12572 8476 -8475 0
-8476 8508 0
-12604 8508 12572 8476 -8475 0
-8476 12572 0
-4636 12828 0
-15388 7196 13340 5148 -5147 0
-5148 13340 0
-9248 9243 0
-9244 9248 0
-9276 9243 0
-9244 9276 0
-9244 13340 0
-14368 6176 14364 6172 -6171 0
-14396 6204 14364 6172 -6171 0
-14876 6684 14364 6172 -6171 0
-15388 7196 14364 6172 -6171 0
-6172 14364 0
-10268 10272 0
-10304 10272 10300 10268 -10267 0
-14368 10272 14364 10268 -10267 0
-10268 10300 0
-14396 10300 14364 10268 -10267 0
-10268 11292 0
-15388 11292 14364 10268 -10267 0
-10268 14364 0
-12316 12320 0
-12352 12320 12348 12316 -12315 0
-12576 12320 12572 12316 -12315 0
-12348 12315 0
-12316 12348 0
-14396 12348 14364 12316 -12315 0
-13340 12315 0
-15388 13340 14364 12316 -12315 0
-14364 12315 0
-12316 14364 0
-10556 2364 10540 2348 -2347 0
-12860 4668 12844 4652 -4651 0
-15404 7212 11308 3116 -3115 0
-15404 7212 13356 5164 -5163 0
-9260 9264 0
-9260 9276 0
-9260 11308 0
-15404 11308 13356 9260 -9259 0
-14384 6192 14380 6188 -6187 0
-14396 6204 14380 6188 -6187 0
-15404 7212 14380 6188 -6187 0
-6188 14380 0
-10288 10283 0
-10284 10288 0
-14384 10288 14380 10284 -10283 0
-10300 10283 0
-10284 10300 0
-14396 10300 14380 10284 -10283 0
-10284 11308 0
-14380 10283 0
-10284 14380 0
-12336 12331 0
-12332 12336 0
-12352 12336 12348 12332 -12331 0
-14384 12336 14380 12332 -12331 0
-12348 12331 0
-12332 12348 0
-14396 12348 14380 12332 -12331 0
-13356 12331 0
-15404 13356 14380 12332 -12331 0
-12332 14380 0
-6412 14604 0
-12556 12560 0
-12812 12844 0
-11276 11280 0
-11276 11292 0
-11276 11308 0
-11276 11788 0
-13324 13328 0
-13324 13340 0
-13323 13355 0
-14348 14352 0
-14368 14352 14364 14348 -14347 0
-14384 14352 14380 14348 -14347 0
-14348 14364 0
-14396 14364 14380 14348 -14347 0
-14348 14380 0
-8504 8499 0
-8756 9012 0
-13108 9012 12852 8756 -8755 0
-15412 7220 11316 3124 -3123 0
-15412 7220 13364 5172 -5171 0
-9268 9272 0
-9784 9272 9780 9268 -9267 0
-9268 9780 0
-14392 6200 14388 6196 -6195 0
-15412 7220 14388 6196 -6195 0
-14388 6195 0
-6196 14388 0
-10296 10291 0
-10292 10296 0
-10304 10296 10300 10292 -10291 0
-10292 10300 0
-10292 10804 0
-10292 11316 0
-15412 11316 14388 10292 -10291 0
-10292 14388 0
-12344 12339 0
-12340 12344 0
-12352 12344 12348 12340 -12339 0
-14392 12344 14388 12340 -12339 0
-12348 12339 0
-12340 12348 0
-12340 13364 0
-15412 13364 14388 12340 -12339 0
-14388 12339 0
-12340 14388 0
-12564 12596 0
-14644 12596 14612 12564 -12563 0
-9748 9752 0
-14872 12824 14868 12820 -12819 0
-12820 12828 0
-11284 11288 0
-11284 11292 0
-11324 11292 11316 11284 -11283 0
-11284 11316 0
-13332 13336 0
-13332 13340 0
-13332 13364 0
-14356 14360 0
-14368 14360 14364 14356 -14355 0
-14392 14360 14388 14356 -14355 0
-14356 14364 0
-14396 14364 14388 14356 -14355 0
-14355 14387 0
-14356 14388 0
-10028 1836 10020 1828 -1827 0
-10036 1844 10020 1828 -1827 0
-1827 10019 0
-8996 9004 0
-13100 9004 13092 8996 -8995 0
-10788 10792 0
-11300 11304 0
-11300 11308 0
-11300 11316 0
-11300 11812 0
-13348 13352 0
-13348 13356 0
-13348 13364 0
-14372 14376 0
-14384 14376 14380 14372 -14371 0
-14392 14376 14388 14372 -14371 0
-14372 14380 0
-14396 14380 14388 14372 -14371 0
-14372 14388 0
-15140 14628 14884 14372 -14371 0
-9988 9992 0
-9988 9996 0
-14596 14600 0
-14596 14604 0
-14620 14604 14612 14596 -14595 0
-14644 14612 14628 14596 -14595 0
-14596 14628 0
-11780 11784 0
-11780 11788 0
-11780 11796 0
-14852 14860 0
-15364 15368 0
-15364 15372 0
-15364 15380 0
-15364 15396 0
-1088 9280 0
-2112 10304 0
-4160 12352 0
-1312 9504 0
-4384 12576 0
-15392 7200 14368 6176 -6175 0
-6176 14368 0
-15392 11296 14368 10272 -10271 0
-10272 14368 0
-12320 12576 0
-12320 14368 0
-15408 7216 14384 6192 -6191 0
-6192 14384 0
-10288 14384 0
-8976 10000 0
-11280 11296 0
-14352 14368 0
-14400 14368 14384 14352 -14351 0
-14352 14384 0
-1592 9784 0
-3128 11320 0
-15416 7224 14392 6200 -6199 0
-6200 14392 0
-15416 11320 14392 10296 -10295 0
-10296 14392 0
-12344 13368 0
-12344 14392 0
-9752 13848 0
-11288 11320 0
-14360 14368 0
-14400 14368 14392 14360 -14359 0
-14360 14392 0
-14360 14872 0
-9000 10024 0
-11304 11320 0
-13352 13360 0
-14376 14384 0
-14400 14384 14392 14376 -14375 0
-14376 14392 0
-15368 15376 0
-15368 15384 0
-15368 15400 0
-2364 10556 0
-8508 9532 0
-15420 7228 13372 5180 -5179 0
-5180 13372 0
-15420 7228 14396 6204 -6203 0
-6204 14396 0
-10300 10556 0
-10300 11324 0
-15420 11324 14396 10300 -10299 0
-10300 14396 0
-12348 12604 0
-12348 12860 0
-12348 14396 0
-12572 14620 0
-11292 11296 0
-13340 13372 0
-14364 14396 0
-4908 13100 0
-6700 14892 0
-11308 11324 0
-13356 13372 0
-14380 14384 0
-14380 14396 0
-15372 15388 0
-15372 15404 0
-10804 11828 0
-11316 11320 0
-13364 13368 0
-14388 14392 0
-14388 14396 0
-14652 14396 14644 14388 -14387 0
-14388 14644 0
-14868 14876 0
-15380 15412 0
-10044 10028 10036 10020 -10019 0
-6948 15140 0
-13092 13108 0
-10304 14400 0
-15384 15392 0
-15400 15408 0
-15400 15416 0
-9532 10044 0
-10556 14652 0
-15404 15420 0
-16386 0
-16391 0
-16395 0
-16403 0
-16419 0
-20483 0
-24579 0
-16400 0
-16408 0
-16424 0
-16904 0
-18440 0
-20488 0
-24584 0
-16412 0
-16428 0
-16908 0
-17420 0
-18444 0
-20492 0
-24588 0
-16436 0
-17428 0
-18452 0
-20500 0
-24596 0
-16932 0
-18468 0
-20516 0
-24612 0
-25092 0
-19460 0
-22532 0
-26628 0
-28676 0
-18438 2054 16390 6 -5 0
-20486 4102 16390 6 -5 0
-18442 2058 16394 10 -9 0
-20490 4106 16394 10 -9 0
-18450 2066 16402 18 -17 0
-20498 4114 16402 18 -17 0
-24594 8210 16402 18 -17 0
-18466 2082 16418 34 -33 0
-20514 4130 16418 34 -33 0
-24610 8226 16418 34 -33 0
-16398 16390 16394 16386 -16385 0
-16406 16390 16402 16386 -16385 0
-16410 16394 16402 16386 -16385 0
-16426 16394 16418 16386 -16385 0
-16434 16402 16418 16386 -16385 0
-18434 16385 0
-18447 2063 16399 15 -14 0
-20495 4111 16399 15 -14 0
-24591 8207 16399 15 -14 0
-14 16398 0
-18455 2071 16407 23 -22 0
-20503 4119 16407 23 -22 0
-24599 8215 16407 23 -22 0
-22 16406 0
-18471 2087 16423 39 -38 0
-20519 4135 16423 39 -38 0
-24615 8231 16423 39 -38 0
-38 16422 0
-16919 535 16903 519 -518 0
-22535 6151 18439 2055 -2054 0
-18439 2054 0
-22535 6151 20487 4103 -4102 0
-28679 12295 20487 4103 -4102 0
-20487 4102 0
-24591 8207 24583 8199 -8198 0
-24599 8215 24583 8199 -8198 0
-24615 8231 24583 8199 -8198 0
-26631 10247 24583 8199 -8198 0
-28679 12295 24583 8199 -8198 0
-24583 8198 0
-16399 16390 0
-16415 16399 16407 16391 -16390 0
-16431 16399 16423 16391 -16390 0
-20495 16399 20487 16391 -16390 0
-24591 16399 24583 16391 -16390 0
-16407 16390 0
-16439 16407 16423 16391 -16390 0
-20503 16407 20487 16391 -16390 0
-24599 16407 24583 16391 -16390 0
-16423 16390 0
-24615 16423 24583 16391 -16390 0
-18439 16390 0
-26631 18439 24583 16391 -16390 0
-20487 16390 0
-28679 20487 24583 16391 -16390 0
-24583 16390 0
-18459 2075 16411 27 -26 0
-20507 4123 16411 27 -26 0
-24603 8219 16411 27 -26 0
-26 16410 0
-18475 2091 16427 43 -42 0
-20523 4139 16427 43 -42 0
-24619 8235 16427 43 -42 0
-42 16426 0
-22539 6155 18443 2059 -2058 0
-18443 2058 0
-22539 6155 20491 4107 -4106 0
-20491 4106 0
-24591 8207 24587 8203 -8202 0
-24603 8219 24587 8203 -8202 0
-24619 8235 24587 8203 -8202 0
-26635 10251 24587 8203 -8202 0
-28683 12299 24587 8203 -8202 0
-24587 8202 0
-16399 16394 0
-16415 16399 16411 16395 -16394 0
-16431 16399 16427 16395 -16394 0
-16411 16394 0
-16443 16411 16427 16395 -16394 0
-20507 16411 20491 16395 -16394 0
-24603 16411 24587 16395 -16394 0
-16427 16394 0
-17451 16427 17419 16395 -16394 0
-24619 16427 24587 16395 -16394 0
-18443 16394 0
-26635 18443 24587 16395 -16394 0
-20491 16394 0
-28683 20491 24587 16395 -16394 0
-24587 16394 0
-18483 2099 16435 51 -50 0
-20531 4147 16435 51 -50 0
-24627 8243 16435 51 -50 0
-50 16434 0
-18459 2075 18451 2067 -2066 0
-22547 6163 18451 2067 -2066 0
-26643 10259 18451 2067 -2066 0
-22547 6163 20499 4115 -4114 0
-28691 12307 20499 4115 -4114 0
-20499 4114 0
-24599 8215 24595 8211 -8210 0
-24603 8219 24595 8211 -8210 0
-24627 8243 24595 8211 -8210 0
-26643 10259 24595 8211 -8210 0
-28691 12307 24595 8211 -8210 0
-24595 8210 0
-16407 16402 0
-16415 16407 16411 16403 -16402 0
-16439 16407 16435 16403 -16402 0
-20503 16407 20499 16403 -16402 0
-24599 16407 24595 16403 -16402 0
-16411 16402 0
-16443 16411 16435 16403 -16402 0
-24603 16411 24595 16403 -16402 0
-16435 16402 0
-17459 16435 17427 16403 -16402 0
-20531 16435 20499 16403 -16402 0
-24627 16435 24595 16403 -16402 0
-18451 16402 0
-26643 18451 24595 16403 -16402 0
-20499 16402 0
-28691 20499 24595 16403 -16402 0
-24595 16402 0
-22563 6179 18467 2083 -2082 0
-26659 10275 18467 2083 -2082 0
-18467 2082 0
-22563 6179 20515 4131 -4130 0
-28707 12323 20515 4131 -4130 0
-20515 4130 0
-24615 8231 24611 8227 -8226 0
-24619 8235 24611 8227 -8226 0
-24627 8243 24611 8227 -8226 0
-26659 10275 24611 8227 -8226 0
-28707 12323 24611 8227 -8226 0
-24611 8226 0
-16423 16418 0
-16431 16423 16427 16419 -16418 0
-16439 16423 16435 16419 -16418 0
-16935 16423 16931 16419 -16418 0
-24615 16423 24611 16419 -16418 0
-16427 16418 0
-16443 16427 16435 16419 -16418 0
-24619 16427 24611 16419 -16418 0
-16435 16418 0
-20531 16435 20515 16419 -16418 0
-24627 16435 24611 16419 -16418 0
-16931 16418 0
-18467 16418 0
-26659 18467 24611 16419 -16418 0
-20515 16418 0
-28707 20515 24611 16419 -16418 0
-24611 16418 0
-19467 3083 19459 3075 -3074 0
-18434 18438 0
-18434 18442 0
-18434 18450 0
-18434 18466 0
-22531 18434 0
-20482 20486 0
-20495 20487 20491 20483 -20482 0
-20503 20487 20499 20483 -20482 0
-20482 20490 0
-20507 20491 20499 20483 -20482 0
-20523 20491 20515 20483 -20482 0
-20482 20498 0
-20482 20514 0
-22531 20482 0
-24578 24582 0
-24591 24583 24587 24579 -24578 0
-24599 24583 24595 24579 -24578 0
-24615 24583 24611 24579 -24578 0
-24603 24587 24595 24579 -24578 0
-24619 24587 24611 24579 -24578 0
-25099 24587 25091 24579 -24578 0
-24578 24594 0
-24627 24595 24611 24579 -24578 0
-24578 24610 0
-26627 24578 0
-18464 2080 16416 32 -31 0
-20512 4128 16416 32 -31 0
-24608 8224 16416 32 -31 0
-31 16415 0
-18480 2096 16432 48 -47 0
-20528 4144 16432 48 -47 0
-24624 8240 16432 48 -47 0
-47 16431 0
-17440 1056 17424 1040 -1039 0
-18464 2080 18448 2064 -2063 0
-18480 2096 18448 2064 -2063 0
-18448 2063 0
-20512 4128 20496 4112 -4111 0
-20528 4144 20496 4112 -4111 0
-22544 6160 20496 4112 -4111 0
-28688 12304 20496 4112 -4111 0
-4111 20495 0
-20496 4111 0
-24608 8224 24592 8208 -8207 0
-24624 8240 24592 8208 -8207 0
-26639 10255 24591 8207 -8206 0
-26640 10256 24592 8208 -8207 0
-28688 12304 24592 8208 -8207 0
-8207 24591 0
-24592 8207 0
-16416 16399 0
-16448 16416 16432 16400 -16399 0
-18464 16416 18448 16400 -16399 0
-20512 16416 20496 16400 -16399 0
-24608 16416 24592 16400 -16399 0
-16432 16399 0
-24624 16432 24592 16400 -16399 0
-16912 16399 0
-17424 16399 0
-16399 18447 0
-18448 16399 0
-22544 18448 20496 16400 -16399 0
-26640 18448 24592 16400 -16399 0
-16399 20495 0
-20496 16399 0
-28687 20495 24591 16399 -16398 0
-28688 20496 24592 16400 -16399 0
-16399 24591 0
-24592 16399 0
-17464 1080 16440 56 -55 0
-18488 2104 16440 56 -55 0
-20536 4152 16440 56 -55 0
-24632 8248 16440 56 -55 0
-55 16439 0
-16920 535 0
-19480 3096 17432 1048 -1047 0
-17432 1047 0
-22551 6167 18455 2071 -2070 0
-22552 6168 18456 2072 -2071 0
-26648 10264 18456 2072 -2071 0
-18456 2071 0
-20512 4128 20504 4120 -4119 0
-20536 4152 20504 4120 -4119 0
-22552 6168 20504 4120 -4119 0
-28696 12312 20504 4120 -4119 0
-4119 20503 0
-20504 4119 0
-24608 8224 24600 8216 -8215 0
-24632 8248 24600 8216 -8215 0
-26648 10264 24600 8216 -8215 0
-28696 12312 24600 8216 -8215 0
-8215 24599 0
-24600 8215 0
-16416 16407 0
-16448 16416 16440 16408 -16407 0
-20512 16416 20504 16408 -16407 0
-24608 16416 24600 16408 -16407 0
-16440 16407 0
-18488 16440 18456 16408 -16407 0
-24632 16440 24600 16408 -16407 0
-16407 16919 0
-25624 17432 24600 16408 -16407 0
-16407 18455 0
-18456 16407 0
-26648 18456 24600 16408 -16407 0
-16407 20503 0
-20504 16407 0
-28696 20504 24600 16408 -16407 0
-16407 24599 0
-24600 16407 0
-17960 1576 16936 552 -551 0
-551 16935 0
-16936 551 0
-17448 1063 0
-18480 2096 18472 2088 -2087 0
-18488 2104 18472 2088 -2087 0
-19496 3112 18472 2088 -2087 0
-22567 6183 18471 2087 -2086 0
-22568 6184 18472 2088 -2087 0
-18472 2087 0
-20528 4144 20520 4136 -4135 0
-20536 4152 20520 4136 -4135 0
-22567 6183 20519 4135 -4134 0
-22568 6184 20520 4136 -4135 0
-28712 12328 20520 4136 -4135 0
-20520 4135 0
-24624 8240 24616 8232 -8231 0
-24632 8248 24616 8232 -8231 0
-26664 10280 24616 8232 -8231 0
-28712 12328 24616 8232 -8231 0
-8231 24615 0
-24616 8231 0
-16432 16423 0
-16448 16432 16440 16424 -16423 0
-24624 16432 24616 16424 -16423 0
-16440 16423 0
-18488 16440 18472 16424 -16423 0
-20536 16440 20520 16424 -16423 0
-24632 16440 24616 16424 -16423 0
-16936 16423 0
-25640 17448 24616 16424 -16423 0
-18472 16423 0
-22568 18472 20520 16424 -16423 0
-26664 18472 24616 16424 -16423 0
-16423 20519 0
-20520 16423 0
-28712 20520 24616 16424 -16423 0
-16423 24615 0
-24616 16423 0
-19976 3592 17928 1544 -1543 0
-18984 16936 18952 16904 -16903 0
-19480 3096 19464 3080 -3079 0
-9223 25607 0
-22544 6160 22536 6152 -6151 0
-22568 6184 22536 6152 -6151 0
-30728 14344 22536 6152 -6151 0
-22536 6151 0
-26664 10280 26632 10248 -10247 0
-30728 14344 26632 10248 -10247 0
-26632 10247 0
-18439 18447 0
-18439 18455 0
-18439 18471 0
-22568 18472 22536 18440 -18439 0
-22536 18439 0
-30728 22536 26632 18440 -18439 0
-26632 18439 0
-28688 12304 28680 12296 -12295 0
-28696 12312 28680 12296 -12295 0
-28712 12328 28680 12296 -12295 0
-30728 14344 28680 12296 -12295 0
-28680 12295 0
-20487 20495 0
-20528 20496 20520 20488 -20487 0
-22544 20496 22536 20488 -20487 0
-28688 20496 28680 20488 -20487 0
-20487 20503 0
-20504 20487 0
-22552 20504 22536 20488 -20487 0
-28696 20504 28680 20488 -20487 0
-20487 20519 0
-20520 20487 0
-28712 20520 28680 20488 -20487 0
-22536 20487 0
-30728 22536 28680 20488 -20487 0
-28680 20487 0
-24583 24591 0
-24592 24583 0
-24607 24591 24599 24583 -24582 0
-24608 24592 24600 24584 -24583 0
-24624 24592 24616 24584 -24583 0
-26640 24592 26632 24584 -24583 0
-28688 24592 28680 24584 -24583 0
-24583 24599 0
-24600 24583 0
-24632 24600 24616 24584 -24583 0
-26648 24600 26632 24584 -24583 0
-28696 24600 28680 24584 -24583 0
-24583 24615 0
-24616 24583 0
-25640 24616 25608 24584 -24583 0
-28712 24616 28680 24584 -24583 0
-26632 24583 0
-30728 26632 28680 24584 -24583 0
-28680 24583 0
-18492 2108 16444 60 -59 0
-20540 4156 16444 60 -59 0
-24636 8252 16444 60 -59 0
-59 16443 0
-16956 572 16924 540 -539 0
-19484 3100 17436 1052 -1051 0
-17436 1051 0
-18492 2108 18460 2076 -2075 0
-22555 6171 18459 2075 -2074 0
-22556 6172 18460 2076 -2075 0
-26652 10268 18460 2076 -2075 0
-18460 2075 0
-20540 4156 20508 4124 -4123 0
-22556 6172 20508 4124 -4123 0
-28700 12316 20508 4124 -4123 0
-20508 4123 0
-24608 8224 24604 8220 -8219 0
-24636 8252 24604 8220 -8219 0
-26652 10268 24604 8220 -8219 0
-28700 12316 24604 8220 -8219 0
-8219 24603 0
-24604 8219 0
-16416 16411 0
-16448 16416 16444 16412 -16411 0
-17440 16416 17436 16412 -16411 0
-20512 16416 20508 16412 -16411 0
-24608 16416 24604 16412 -16411 0
-16444 16411 0
-20540 16444 20508 16412 -16411 0
-24636 16444 24604 16412 -16411 0
-25628 17436 24604 16412 -16411 0
-16411 18459 0
-18460 16411 0
-26652 18460 24604 16412 -16411 0
-16411 20507 0
-20508 16411 0
-28700 20508 24604 16412 -16411 0
-16411 24603 0
-24604 16411 0
-16940 555 0
-1067 17451 0
-17452 1067 0
-18480 2096 18476 2092 -2091 0
-22571 6187 18475 2091 -2090 0
-26668 10284 18476 2092 -2091 0
-18476 2091 0
-20528 4144 20524 4140 -4139 0
-20540 4156 20524 4140 -4139 0
-22572 6188 20524 4140 -4139 0
-28716 12332 20524 4140 -4139 0
-20524 4139 0
-24624 8240 24620 8236 -8235 0
-24636 8252 24620 8236 -8235 0
-26668 10284 24620 8236 -8235 0
-28716 12332 24620 8236 -8235 0
-8235 24619 0
-24620 8235 0
-16432 16427 0
-16448 16432 16444 16428 -16427 0
-24624 16432 24620 16428 -16427 0
-16444 16427 0
-20540 16444 20524 16428 -16427 0
-24636 16444 24620 16428 -16427 0
-21036 16940 20524 16428 -16427 0
-17452 16427 0
-25644 17452 24620 16428 -16427 0
-18476 16427 0
-22572 18476 20524 16428 -16427 0
-26668 18476 24620 16428 -16427 0
-16427 20523 0
-20524 16427 0
-28715 20523 24619 16427 -16426 0
-28716 20524 24620 16428 -16427 0
-16427 24619 0
-24620 16427 0
-17932 1547 0
-21020 4636 21004 4620 -4619 0
-17936 16912 17932 16908 -16907 0
-19484 3100 19468 3084 -3083 0
-19468 3083 0
-17468 17436 17452 17420 -17419 0
-22556 6172 22540 6156 -6155 0
-22572 6188 22540 6156 -6155 0
-23564 7180 22540 6156 -6155 0
-30732 14348 22540 6156 -6155 0
-22540 6155 0
-30732 14348 26636 10252 -10251 0
-26636 10251 0
-18443 18447 0
-18448 18443 0
-19472 18448 19468 18444 -18443 0
-18443 18459 0
-18460 18443 0
-18443 19467 0
-27660 19468 26636 18444 -18443 0
-22540 18443 0
-30732 22540 26636 18444 -18443 0
-26636 18443 0
-28688 12304 28684 12300 -12299 0
-28700 12316 28684 12300 -12299 0
-28716 12332 28684 12300 -12299 0
-30732 14348 28684 12300 -12299 0
-28684 12299 0
-20491 20495 0
-20496 20491 0
-28688 20496 28684 20492 -20491 0
-20491 20507 0
-20508 20491 0
-20540 20508 20524 20492 -20491 0
-22556 20508 22540 20492 -20491 0
-28700 20508 28684 20492 -20491 0
-20491 20523 0
-20524 20491 0
-22572 20524 22540 20492 -20491 0
-28716 20524 28684 20492 -20491 0
-22540 20491 0
-30732 22540 28684 20492 -20491 0
-28684 20491 0
-24587 24591 0
-24592 24587 0
-24608 24592 24604 24588 -24587 0
-24624 24592 24620 24588 -24587 0
-28688 24592 28684 24588 -24587 0
-24587 24603 0
-24604 24587 0
-24636 24604 24620 24588 -24587 0
-28700 24604 28684 24588 -24587 0
-24587 24619 0
-24620 24587 0
-26668 24620 26636 24588 -24587 0
-28716 24620 28684 24588 -24587 0
-25100 24587 0
-26636 24587 0
-30732 26636 28684 24588 -24587 0
-28684 24587 0
-19508 3124 17460 1076 -1075 0
-1075 17459 0
-18488 2104 18484 2100 -2099 0
-22580 6196 18484 2100 -2099 0
-26676 10292 18484 2100 -2099 0
-20536 4152 20532 4148 -4147 0
-20540 4156 20532 4148 -4147 0
-22580 6196 20532 4148 -4147 0
-28723 12339 20531 4147 -4146 0
-28724 12340 20532 4148 -4147 0
-20532 4147 0
-24632 8248 24628 8244 -8243 0
-24636 8252 24628 8244 -8243 0
-26675 10291 24627 8243 -8242 0
-26676 10292 24628 8244 -8243 0
-28723 12339 24627 8243 -8242 0
-28724 12340 24628 8244 -8243 0
-8243 24627 0
-24628 8243 0
-16440 16435 0
-16448 16440 16444 16436 -16435 0
-20536 16440 20532 16436 -16435 0
-24632 16440 24628 16436 -16435 0
-16444 16435 0
-18492 16444 18484 16436 -16435 0
-20540 16444 20532 16436 -16435 0
-24636 16444 24628 16436 -16435 0
-17460 16435 0
-18484 16435 0
-26675 18483 24627 16435 -16434 0
-16435 20531 0
-20532 16435 0
-28724 20532 24628 16436 -16435 0
-16435 24627 0
-24628 16435 0
-27668 11284 25620 9236 -9235 0
-9235 25619 0
-27668 19476 25620 17428 -17427 0
-22552 6168 22548 6164 -6163 0
-22556 6172 22548 6164 -6163 0
-30740 14356 22548 6164 -6163 0
-22548 6163 0
-26676 10292 26644 10260 -10259 0
-30740 14356 26644 10260 -10259 0
-26644 10259 0
-18451 18455 0
-22552 18456 22548 18452 -18451 0
-18451 18459 0
-18460 18451 0
-22556 18460 22548 18452 -18451 0
-18484 18451 0
-19476 18451 0
-22548 18451 0
-30740 22548 26644 18452 -18451 0
-26644 18451 0
-28696 12312 28692 12308 -12307 0
-28700 12316 28692 12308 -12307 0
-28724 12340 28692 12308 -12307 0
-30740 14356 28692 12308 -12307 0
-28692 12307 0
-20499 20503 0
-20535 20503 20531 20499 -20498 0
-20536 20504 20532 20500 -20499 0
-28696 20504 28692 20500 -20499 0
-20499 20507 0
-20508 20499 0
-22556 20508 22548 20500 -20499 0
-28700 20508 28692 20500 -20499 0
-20499 20531 0
-20532 20499 0
-22580 20532 22548 20500 -20499 0
-28724 20532 28692 20500 -20499 0
-30740 22548 28692 20500 -20499 0
-28692 20499 0
-24595 24599 0
-24600 24595 0
-24608 24600 24604 24596 -24595 0
-24631 24599 24627 24595 -24594 0
-24632 24600 24628 24596 -24595 0
-26648 24600 26644 24596 -24595 0
-28696 24600 28692 24596 -24595 0
-24595 24603 0
-24604 24595 0
-24636 24604 24628 24596 -24595 0
-25628 24604 25620 24596 -24595 0
-28700 24604 28692 24596 -24595 0
-24595 24627 0
-24628 24595 0
-28724 24628 28692 24596 -24595 0
-25620 24595 0
-26644 24595 0
-30740 26644 28692 24596 -24595 0
-28692 24595 0
-17972 1588 17956 1572 -1571 0
-20004 3620 17956 1572 -1571 0
-25124 8739 0
-16952 16936 16948 16932 -16931 0
-17956 16931 0
-22568 6184 22564 6180 -6179 0
-22572 6188 22564 6180 -6179 0
-30756 14372 22564 6180 -6179 0
-22564 6179 0
-30756 14372 26660 10276 -10275 0
-26660 10275 0
-18467 18471 0
-18467 18475 0
-18492 18476 18484 18468 -18467 0
-18467 18483 0
-22564 18467 0
-30756 22564 26660 18468 -18467 0
-26660 18467 0
-28712 12328 28708 12324 -12323 0
-28716 12332 28708 12324 -12323 0
-28724 12340 28708 12324 -12323 0
-30756 14372 28708 12324 -12323 0
-28708 12323 0
-20515 20519 0
-20520 20515 0
-20528 20520 20524 20516 -20515 0
-20536 20520 20532 20516 -20515 0
-28712 20520 28708 20516 -20515 0
-20515 20523 0
-20524 20515 0
-20539 20523 20531 20515 -20514 0
-20540 20524 20532 20516 -20515 0
-28716 20524 28708 20516 -20515 0
-20515 20531 0
-28724 20532 28708 20516 -20515 0
-22564 20515 0
-30756 22564 28708 20516 -20515 0
-28708 20515 0
-24611 24615 0
-24616 24611 0
-24624 24616 24620 24612 -24611 0
-24632 24616 24628 24612 -24611 0
-28712 24616 28708 24612 -24611 0
-24611 24619 0
-24620 24611 0
-24636 24620 24628 24612 -24611 0
-28716 24620 28708 24612 -24611 0
-24611 24627 0
-24628 24611 0
-28724 24628 28708 24612 -24611 0
-26660 24611 0
-30756 26660 28708 24612 -24611 0
-28708 24611 0
-19980 3596 19972 3588 -3587 0
-25132 25100 25124 25092 -25091 0
-23572 7188 23556 7172 -7171 0
-23588 7204 23556 7172 -7171 0
-19484 19468 19476 19460 -19459 0
-22531 22535 0
-22531 22539 0
-22556 22540 22548 22532 -22531 0
-22531 22547 0
-22531 22563 0
-30724 22531 0
-26627 26631 0
-26627 26635 0
-26627 26643 0
-26676 26644 26660 26628 -26627 0
-26627 26659 0
-30724 26627 0
-28675 28679 0
-28688 28680 28684 28676 -28675 0
-28696 28680 28692 28676 -28675 0
-28712 28680 28708 28676 -28675 0
-28675 28683 0
-28700 28684 28692 28676 -28675 0
-28716 28684 28708 28676 -28675 0
-28675 28691 0
-28724 28692 28708 28676 -28675 0
-28675 28707 0
-30724 28675 0
-64 16448 0
-544 16928 0
-22560 6176 18464 2080 -2079 0
-26656 10272 18464 2080 -2079 0
-2080 18464 0
-28704 12320 20512 4128 -4127 0
-4127 20511 0
-4128 20512 0
-26656 10272 24608 8224 -8223 0
-28704 12320 24608 8224 -8223 0
-8223 24607 0
-8224 24608 0
-26656 18464 24608 16416 -16415 0
-16416 20512 0
-28704 20512 24608 16416 -16415 0
-16416 24608 0
-22576 6192 18480 2096 -2095 0
-2096 18480 0
-22576 6192 20528 4144 -4143 0
-4143 20527 0
-4144 20528 0
-28720 12336 24624 8240 -8239 0
-8240 24624 0
-16432 18480 0
-22576 18480 20528 16432 -16431 0
-26672 18480 24624 16432 -16431 0
-16432 20528 0
-28720 20528 24624 16432 -16431 0
-16432 24624 0
-17424 17440 0
-30736 14352 26640 10256 -10255 0
-18448 22544 0
-30736 22544 26640 18448 -18447 0
-28704 12320 28688 12304 -12303 0
-28720 12336 28688 12304 -12303 0
-30736 14352 28688 12304 -12303 0
-28688 12303 0
-12304 28688 0
-20496 20512 0
-28704 20512 28688 20496 -20495 0
-20496 20528 0
-20496 22544 0
-30736 22544 28688 20496 -20495 0
-20496 28688 0
-24608 24591 0
-24592 24608 0
-24640 24608 24624 24592 -24591 0
-28704 24608 28688 24592 -24591 0
-24624 24591 0
-24592 24624 0
-28720 24624 28688 24592 -24591 0
-26640 24591 0
-30736 26640 28688 24592 -24591 0
-28688 24591 0
-24592 28688 0
-568 16952 0
-22584 6200 18488 2104 -2103 0
-2104 18488 0
-28728 12344 20536 4152 -4151 0
-4151 20535 0
-4152 20536 0
-26680 10296 24632 8248 -8247 0
-28728 12344 24632 8248 -8247 0
-8247 24631 0
-8248 24632 0
-16440 16952 0
-16440 18488 0
-16440 20536 0
-28728 20536 24632 16440 -16439 0
-16440 24632 0
-25624 9239 0
-17432 17464 0
-30744 14360 22552 6168 -6167 0
-22552 6167 0
-30744 14360 26648 10264 -10263 0
-10264 26648 0
-18456 18464 0
-18496 18464 18488 18456 -18455 0
-18456 18488 0
-18456 19480 0
-30744 22552 26648 18456 -18455 0
-18456 26648 0
-28704 12320 28696 12312 -12311 0
-28728 12344 28696 12312 -12311 0
-30744 14360 28696 12312 -12311 0
-28696 12311 0
-12312 28696 0
-20504 20512 0
-28704 20512 28696 20504 -20503 0
-20536 20503 0
-20504 20536 0
-20504 22552 0
-28696 20503 0
-20504 28696 0
-24608 24599 0
-24600 24608 0
-24640 24608 24632 24600 -24599 0
-28704 24608 28696 24600 -24599 0
-24632 24599 0
-24600 24632 0
-28728 24632 28696 24600 -24599 0
-26648 24599 0
-30744 26648 28696 24600 -24599 0
-28696 24599 0
-24600 28696 0
-19504 3120 19496 3112 -3111 0
-30760 14376 22568 6184 -6183 0
-22568 6183 0
-30760 14376 26664 10280 -10279 0
-18472 18480 0
-18472 18488 0
-18472 18984 0
-18472 22568 0
-26664 18471 0
-28720 12336 28712 12328 -12327 0
-28728 12344 28712 12328 -12327 0
-30760 14376 28712 12328 -12327 0
-12328 28712 0
-20528 20519 0
-20520 20528 0
-20520 20536 0
-20520 22568 0
-30760 22568 28712 20520 -20519 0
-20520 28712 0
-24616 24624 0
-24640 24624 24632 24616 -24615 0
-28720 24624 28712 24616 -24615 0
-24632 24615 0
-24616 24632 0
-25656 24632 25640 24616 -24615 0
-28728 24632 28712 24616 -24615 0
-30760 26664 28712 24616 -24615 0
-24616 28712 0
-17928 17936 0
-18952 19976 0
-19464 19472 0
-25608 25616 0
-22536 22544 0
-22535 22551 0
-22536 22552 0
-22535 22567 0
-22536 22568 0
-26631 26639 0
-26632 26648 0
-26632 26664 0
-28679 28687 0
-28680 28688 0
-28704 28688 28696 28680 -28679 0
-28720 28688 28712 28680 -28679 0
-28679 28695 0
-28680 28696 0
-28728 28696 28712 28680 -28679 0
-28679 28711 0
-28680 28712 0
-1084 17468 0
-2108 18492 0
-22588 6204 20540 4156 -4155 0
-28732 12348 20540 4156 -4155 0
-4155 20539 0
-4156 20540 0
-28732 12348 24636 8252 -8251 0
-8251 24635 0
-8252 24636 0
-16444 16956 0
-16444 18492 0
-26684 18492 24636 16444 -16443 0
-16444 20540 0
-28732 20540 24636 16444 -16443 0
-16444 24636 0
-16924 21020 0
-16924 25116 0
-9244 25628 0
-17436 17440 0
-17436 19484 0
-17436 25628 0
-22588 6204 22556 6172 -6171 0
-30748 14364 22556 6172 -6171 0
-22556 6171 0
-30748 14364 26652 10268 -10267 0
-18460 18464 0
-18460 19484 0
-18460 22556 0
-30748 22556 26652 18460 -18459 0
-18460 26652 0
-30748 14364 28700 12316 -12315 0
-12316 28700 0
-20508 20512 0
-20544 20512 20540 20508 -20507 0
-28704 20512 28700 20508 -20507 0
-20508 20540 0
-20508 22556 0
-30748 22556 28700 20508 -20507 0
-28700 20507 0
-20508 28700 0
-24608 24603 0
-24604 24608 0
-24640 24608 24636 24604 -24603 0
-28704 24608 28700 24604 -24603 0
-24604 24636 0
-28732 24636 28700 24604 -24603 0
-25116 24603 0
-28700 24603 0
-24604 28700 0
-21052 4668 21036 4652 -4651 0
-30764 14380 22572 6188 -6187 0
-22572 6187 0
-30764 14380 26668 10284 -10283 0
-18476 22572 0
-18476 26668 0
-28720 12336 28716 12332 -12331 0
-29740 13356 28716 12332 -12331 0
-30764 14380 28716 12332 -12331 0
-28716 12331 0
-12332 28716 0
-20524 20528 0
-20544 20528 20540 20524 -20523 0
-20540 20523 0
-20524 20540 0
-28732 20540 28716 20524 -20523 0
-20524 22572 0
-30764 22572 28716 20524 -20523 0
-20524 28716 0
-24624 24619 0
-24620 24624 0
-24640 24624 24636 24620 -24619 0
-28720 24624 28716 24620 -24619 0
-24636 24619 0
-24620 24636 0
-25660 24636 25644 24620 -24619 0
-28732 24636 28716 24620 -24619 0
-29228 25132 28716 24620 -24619 0
-24619 25643 0
-24620 26668 0
-28716 24619 0
-24620 28716 0
-21004 21036 0
-25116 25099 0
-27676 19484 27660 19468 -19467 0
-19468 19980 0
-22540 22544 0
-22539 22555 0
-22540 22556 0
-22539 22571 0
-22540 22572 0
-26636 26640 0
-26636 26668 0
-28684 28688 0
-28704 28688 28700 28684 -28683 0
-28720 28688 28716 28684 -28683 0
-28683 28699 0
-28684 28700 0
-28732 28700 28716 28684 -28683 0
-28683 28715 0
-28684 28716 0
-16948 17972 0
-30772 14388 22580 6196 -6195 0
-30772 14388 26676 10292 -10291 0
-28728 12344 28724 12340 -12339 0
-28732 12348 28724 12340 -12339 0
-30772 14388 28724 12340 -12339 0
-28724 12339 0
-12340 28724 0
-20532 20536 0
-28728 20536 28724 20532 -20531 0
-20540 20531 0
-20532 20540 0
-28732 20540 28724 20532 -20531 0
-20532 21556 0
-30772 22580 28724 20532 -20531 0
-28724 20531 0
-20532 28724 0
-24632 24627 0
-24628 24632 0
-24640 24632 24636 24628 -24627 0
-28728 24632 28724 24628 -24627 0
-24636 24627 0
-24628 24636 0
-28732 24636 28724 24628 -24627 0
-26676 24627 0
-24628 26676 0
-30772 26676 28724 24628 -24627 0
-28724 24627 0
-24628 28724 0
-11284 27668 0
-19476 19480 0
-19476 19508 0
-25620 25624 0
-25620 25652 0
-22548 22552 0
-22548 22556 0
-22548 22580 0
-22548 23572 0
-26644 26648 0
-26644 26652 0
-26643 26675 0
-26644 26676 0
-27700 26676 27668 26644 -26643 0
-28692 28696 0
-28704 28696 28700 28692 -28691 0
-28728 28696 28724 28692 -28691 0
-28692 28700 0
-28732 28700 28724 28692 -28691 0
-28691 28723 0
-28692 28724 0
-17956 17960 0
-23604 7220 23588 7204 -7203 0
-22564 22568 0
-22564 22572 0
-22564 22580 0
-26660 26664 0
-26660 26668 0
-26660 26676 0
-28708 28712 0
-28720 28712 28716 28708 -28707 0
-28728 28712 28724 28708 -28707 0
-28708 28716 0
-28732 28716 28724 28708 -28707 0
-28708 28724 0
-19972 20004 0
-23556 23564 0
-30724 30728 0
-30724 30732 0
-30724 30740 0
-30724 30756 0
-2112 18496 0
-4160 20544 0
-8256 24640 0
-30752 14368 26656 10272 -10271 0
-18464 26656 0
-12320 28704 0
-20512 28704 0
-24608 28704 0
-3120 19504 0
-30768 14384 22576 6192 -6191 0
-18480 22576 0
-30768 14384 28720 12336 -12335 0
-12336 28720 0
-30768 22576 28720 20528 -20527 0
-20528 28720 0
-24624 28720 0
-22544 22560 0
-22544 22576 0
-26640 26672 0
-28688 28704 0
-28688 28720 0
-28688 29200 0
-30776 14392 26680 10296 -10295 0
-30776 14392 28728 12344 -12343 0
-12344 28728 0
-20536 22584 0
-20536 28728 0
-24632 28728 0
-22552 22584 0
-26648 26656 0
-28696 28704 0
-28736 28704 28728 28696 -28695 0
-28696 28728 0
-26664 26680 0
-28736 28720 28728 28712 -28711 0
-28712 28728 0
-30728 30736 0
-30728 30744 0
-30728 30760 0
-30780 14396 28732 12348 -12347 0
-12348 28732 0
-20540 21052 0
-20540 22588 0
-30780 22588 28732 20540 -20539 0
-20540 28732 0
-24636 28732 0
-21020 29212 0
-11292 27676 0
-28700 28704 0
-28736 28704 28732 28700 -28699 0
-28700 28732 0
-12844 29228 0
-29756 25660 29740 25644 -25643 0
-22572 22588 0
-26668 26684 0
-28716 28720 0
-28716 28732 0
-30732 30748 0
-30732 30764 0
-11316 27700 0
-21556 23604 0
-25652 25656 0
-28724 28728 0
-28736 28728 28732 28724 -28723 0
-28724 28732 0
-30740 30772 0
-20544 28736 0
-29200 29232 0
-30744 30752 0
-30760 30768 0
-30760 30776 0
-13372 29756 0
-30764 30780 0
-32770 0
-32775 0
-32779 0
-32787 0
-32803 0
-40963 0
-49155 0
-32784 0
-32792 0
-32808 0
-36872 0
-40968 0
-49160 0
-32796 0
-32812 0
-33804 0
-36876 0
-40972 0
-49164 0
-32820 0
-34836 0
-36884 0
-40980 0
-49172 0
-34852 0
-36900 0
-40996 0
-49188 0
-51204 0
-45060 0
-53252 0
-57348 0
-36870 4102 32774 6 -5 0
-40966 8198 32774 6 -5 0
-49158 16390 32774 6 -5 0
-36874 4106 32778 10 -9 0
-40970 8202 32778 10 -9 0
-49162 16394 32778 10 -9 0
-36882 4114 32786 18 -17 0
-40978 8210 32786 18 -17 0
-49170 16402 32786 18 -17 0
-36898 4130 32802 34 -33 0
-40994 8226 32802 34 -33 0
-49186 16418 32802 34 -33 0
-32782 32774 32778 32770 -32769 0
-32806 32774 32802 32770 -32769 0
-32794 32778 32786 32770 -32769 0
-32810 32778 32802 32770 -32769 0
-32818 32786 32802 32770 -32769 0
-36866 32769 0
-36879 4111 32783 15 -14 0
-40975 8207 32783 15 -14 0
-49167 16399 32783 15 -14 0
-14 32782 0
-36887 4119 32791 23 -22 0
-40983 8215 32791 23 -22 0
-49175 16407 32791 23 -22 0
-22 32790 0
-36903 4135 32807 39 -38 0
-40999 8231 32807 39 -38 0
-49191 16423 32807 39 -38 0
-38 32806 0
-45063 12295 36871 4103 -4102 0
-53255 20487 36871 4103 -4102 0
-36871 4102 0
-40983 8215 40967 8199 -8198 0
-45063 12295 40967 8199 -8198 0
-57351 24583 40967 8199 -8198 0
-40967 8198 0
-49167 16399 49159 16391 -16390 0
-49175 16407 49159 16391 -16390 0
-49191 16423 49159 16391 -16390 0
-53255 20487 49159 16391 -16390 0
-57351 24583 49159 16391 -16390 0
-49159 16390 0
-32783 32774 0
-32799 32783 32791 32775 -32774 0
-32815 32783 32807 32775 -32774 0
-36879 32783 36871 32775 -32774 0
-40975 32783 40967 32775 -32774 0
-49167 32783 49159 32775 -32774 0
-32791 32774 0
-32823 32791 32807 32775 -32774 0
-49175 32791 49159 32775 -32774 0
-32807 32774 0
-40999 32807 40967 32775 -32774 0
-49191 32807 49159 32775 -32774 0
-36871 32774 0
-45063 36871 40967 32775 -32774 0
-53255 36871 49159 32775 -32774 0
-40967 32774 0
-57351 40967 49159 32775 -32774 0
-49159 32774 0
-36891 4123 32795 27 -26 0
-40987 8219 32795 27 -26 0
-49179 16411 32795 27 -26 0
-26 32794 0
-36907 4139 32811 43 -42 0
-41003 8235 32811 43 -42 0
-49195 16427 32811 43 -42 0
-42 32810 0
-45067 12299 36875 4107 -4106 0
-53259 20491 36875 4107 -4106 0
-36875 4106 0
-45067 12299 40971 8203 -8202 0
-57355 24587 40971 8203 -8202 0
-40971 8202 0
-49167 16399 49163 16395 -16394 0
-49179 16411 49163 16395 -16394 0
-49195 16427 49163 16395 -16394 0
-53259 20491 49163 16395 -16394 0
-57355 24587 49163 16395 -16394 0
-49163 16394 0
-32783 32778 0
-32799 32783 32795 32779 -32778 0
-32815 32783 32811 32779 -32778 0
-40975 32783 40971 32779 -32778 0
-49167 32783 49163 32779 -32778 0
-32795 32778 0
-32827 32795 32811 32779 -32778 0
-40987 32795 40971 32779 -32778 0
-49179 32795 49163 32779 -32778 0
-32811 32778 0
-41003 32811 40971 32779 -32778 0
-49195 32811 49163 32779 -32778 0
-34827 32778 0
-36875 32778 0
-53259 36875 49163 32779 -32778 0
-40971 32778 0
-57355 40971 49163 32779 -32778 0
-49163 32778 0
-36915 4147 32819 51 -50 0
-41011 8243 32819 51 -50 0
-49203 16435 32819 51 -50 0
-50 32818 0
-34839 2071 34835 2067 -2066 0
-36915 4147 36883 4115 -4114 0
-45075 12307 36883 4115 -4114 0
-53267 20499 36883 4115 -4114 0
-36883 4114 0
-40983 8215 40979 8211 -8210 0
-41011 8243 40979 8211 -8210 0
-45075 12307 40979 8211 -8210 0
-57363 24595 40979 8211 -8210 0
-40979 8210 0
-49175 16407 49171 16403 -16402 0
-49179 16411 49171 16403 -16402 0
-49203 16435 49171 16403 -16402 0
-53267 20499 49171 16403 -16402 0
-57363 24595 49171 16403 -16402 0
-49171 16402 0
-32791 32786 0
-32799 32791 32795 32787 -32786 0
-32823 32791 32819 32787 -32786 0
-40983 32791 40979 32787 -32786 0
-49175 32791 49171 32787 -32786 0
-32795 32786 0
-32827 32795 32819 32787 -32786 0
-36891 32795 36883 32787 -32786 0
-49179 32795 49171 32787 -32786 0
-32819 32786 0
-34867 32819 34835 32787 -32786 0
-36915 32819 36883 32787 -32786 0
-41011 32819 40979 32787 -32786 0
-49203 32819 49171 32787 -32786 0
-33811 32786 0
-36883 32786 0
-53267 36883 49171 32787 -32786 0
-40979 32786 0
-57363 40979 49171 32787 -32786 0
-49171 32786 0
-34859 2091 34851 2083 -2082 0
-45091 12323 36899 4131 -4130 0
-53283 20515 36899 4131 -4130 0
-36899 4130 0
-40999 8231 40995 8227 -8226 0
-45091 12323 40995 8227 -8226 0
-57379 24611 40995 8227 -8226 0
-40995 8226 0
-49191 16423 49187 16419 -16418 0
-49195 16427 49187 16419 -16418 0
-49203 16435 49187 16419 -16418 0
-53283 20515 49187 16419 -16418 0
-57379 24611 49187 16419 -16418 0
-49187 16418 0
-32807 32802 0
-32815 32807 32811 32803 -32802 0
-32823 32807 32819 32803 -32802 0
-36903 32807 36899 32803 -32802 0
-40999 32807 40995 32803 -32802 0
-49191 32807 49187 32803 -32802 0
-32811 32802 0
-32827 32811 32819 32803 -32802 0
-41003 32811 40995 32803 -32802 0
-49195 32811 49187 32803 -32802 0
-32819 32802 0
-36915 32819 36899 32803 -32802 0
-49203 32819 49187 32803 -32802 0
-32802 33826 0
-33827 32802 0
-36899 32802 0
-45091 36899 40995 32803 -32802 0
-53283 36899 49187 32803 -32802 0
-40995 32802 0
-57379 40995 49187 32803 -32802 0
-49187 32802 0
-36866 36870 0
-36866 36874 0
-36866 36882 0
-36866 36898 0
-45059 36866 0
-40962 40966 0
-40983 40967 40979 40963 -40962 0
-40962 40970 0
-40987 40971 40979 40963 -40962 0
-40962 40978 0
-41011 40979 40995 40963 -40962 0
-40962 40994 0
-45059 40962 0
-49154 49158 0
-49167 49159 49163 49155 -49154 0
-49175 49159 49171 49155 -49154 0
-49191 49159 49187 49155 -49154 0
-49154 49162 0
-49179 49163 49171 49155 -49154 0
-49195 49163 49187 49155 -49154 0
-51211 49163 51203 49155 -49154 0
-49154 49170 0
-49203 49171 49187 49155 -49154 0
-49154 49186 0
-53251 49154 0
-36896 4128 32800 32 -31 0
-40992 8224 32800 32 -31 0
-49184 16416 32800 32 -31 0
-31 32799 0
-36912 4144 32816 48 -47 0
-41008 8240 32816 48 -47 0
-49200 16432 32816 48 -47 0
-47 32815 0
-35856 3088 33808 1040 -1039 0
-50192 17424 33808 1040 -1039 0
-38928 6160 34832 2064 -2063 0
-34832 2063 0
-36880 4111 0
-40992 8224 40976 8208 -8207 0
-41008 8240 40976 8208 -8207 0
-45072 12304 40976 8208 -8207 0
-57360 24592 40976 8208 -8207 0
-8207 40975 0
-40976 8207 0
-49184 16416 49168 16400 -16399 0
-49200 16432 49168 16400 -16399 0
-51216 18448 49168 16400 -16399 0
-53264 20496 49168 16400 -16399 0
-57360 24592 49168 16400 -16399 0
-16399 49167 0
-49168 16399 0
-32800 32783 0
-32832 32800 32816 32784 -32783 0
-34848 32800 34832 32784 -32783 0
-49184 32800 49168 32784 -32783 0
-32816 32783 0
-36912 32816 36880 32784 -32783 0
-41008 32816 40976 32784 -32783 0
-49200 32816 49168 32784 -32783 0
-33808 32783 0
-32783 34831 0
-34832 32783 0
-36880 32783 0
-45072 36880 40976 32784 -32783 0
-53264 36880 49168 32784 -32783 0
-32783 40975 0
-40976 32783 0
-57360 40976 49168 32784 -32783 0
-32783 49167 0
-49168 32783 0
-33848 1080 32824 56 -55 0
-34872 2104 32824 56 -55 0
-36920 4152 32824 56 -55 0
-41016 8248 32824 56 -55 0
-49208 16440 32824 56 -55 0
-55 32823 0
-34840 2071 0
-36896 4128 36888 4120 -4119 0
-36920 4152 36888 4120 -4119 0
-45079 12311 36887 4119 -4118 0
-36888 4119 0
-40992 8224 40984 8216 -8215 0
-41016 8248 40984 8216 -8215 0
-45079 12311 40983 8215 -8214 0
-45080 12312 40984 8216 -8215 0
-57368 24600 40984 8216 -8215 0
-40984 8215 0
-49184 16416 49176 16408 -16407 0
-49208 16440 49176 16408 -16407 0
-51224 18456 49176 16408 -16407 0
-53272 20504 49176 16408 -16407 0
-57367 24599 49175 16407 -16406 0
-57368 24600 49176 16408 -16407 0
-16407 49175 0
-49176 16407 0
-32800 32791 0
-32832 32800 32824 32792 -32791 0
-40992 32800 40984 32792 -32791 0
-49184 32800 49176 32792 -32791 0
-32824 32791 0
-41016 32824 40984 32792 -32791 0
-49208 32824 49176 32792 -32791 0
-42008 33816 40984 32792 -32791 0
-32791 34839 0
-45080 36888 40984 32792 -32791 0
-53272 36888 49176 32792 -32791 0
-32791 40983 0
-40984 32791 0
-57368 40984 49176 32792 -32791 0
-32791 49175 0
-49176 32791 0
-38952 6184 34856 2088 -2087 0
-43048 10280 34856 2088 -2087 0
-36912 4144 36904 4136 -4135 0
-4135 36903 0
-36904 4135 0
-41008 8240 41000 8232 -8231 0
-41016 8248 41000 8232 -8231 0
-45096 12328 41000 8232 -8231 0
-57384 24616 41000 8232 -8231 0
-8231 40999 0
-41000 8231 0
-49200 16432 49192 16424 -16423 0
-49208 16440 49192 16424 -16423 0
-50216 17448 49192 16424 -16423 0
-53288 20520 49192 16424 -16423 0
-57384 24616 49192 16424 -16423 0
-16423 49191 0
-49192 16423 0
-32816 32807 0
-32832 32816 32824 32808 -32807 0
-41008 32816 41000 32808 -32807 0
-49200 32816 49192 32808 -32807 0
-32824 32807 0
-41016 32824 41000 32808 -32807 0
-49208 32824 49192 32808 -32807 0
-34856 32807 0
-36904 32807 0
-53288 36904 49192 32808 -32807 0
-32807 40999 0
-41000 32807 0
-57384 41000 49192 32808 -32807 0
-32807 49191 0
-49192 32807 0
-47112 14344 43016 10248 -10247 0
-51208 18439 0
-45072 12304 45064 12296 -12295 0
-45080 12312 45064 12296 -12295 0
-45096 12328 45064 12296 -12295 0
-47112 14344 45064 12296 -12295 0
-61448 28680 45064 12296 -12295 0
-45064 12295 0
-61448 28680 53256 20488 -20487 0
-53256 20487 0
-36871 36879 0
-36871 36887 0
-36871 36903 0
-45064 36871 0
-61448 45064 53256 36872 -36871 0
-53256 36871 0
-57360 24592 57352 24584 -24583 0
-57368 24600 57352 24584 -24583 0
-57384 24616 57352 24584 -24583 0
-61448 28680 57352 24584 -24583 0
-57352 24583 0
-40967 40975 0
-40976 40967 0
-40992 40976 40984 40968 -40967 0
-45072 40976 45064 40968 -40967 0
-57360 40976 57352 40968 -40967 0
-40967 40983 0
-40984 40967 0
-41016 40984 41000 40968 -40967 0
-57368 40984 57352 40968 -40967 0
-40967 40999 0
-41000 40967 0
-45096 41000 45064 40968 -40967 0
-57384 41000 57352 40968 -40967 0
-45064 40967 0
-61448 45064 57352 40968 -40967 0
-57352 40967 0
-49159 49167 0
-49168 49159 0
-49184 49168 49176 49160 -49159 0
-49200 49168 49192 49160 -49159 0
-57360 49168 57352 49160 -49159 0
-49159 49175 0
-49176 49159 0
-49208 49176 49192 49160 -49159 0
-51224 49176 51208 49160 -49159 0
-57368 49176 57352 49160 -49159 0
-49159 49191 0
-49192 49159 0
-51240 49192 51208 49160 -49159 0
-57384 49192 57352 49160 -49159 0
-49159 51207 0
-53256 49159 0
-61448 53256 57352 49160 -49159 0
-57352 49159 0
-33852 1084 32828 60 -59 0
-34876 2108 32828 60 -59 0
-36924 4156 32828 60 -59 0
-41020 8252 32828 60 -59 0
-49212 16444 32828 60 -59 0
-59 32827 0
-38940 6172 34844 2076 -2075 0
-36896 4128 36892 4124 -4123 0
-36924 4156 36892 4124 -4123 0
-38940 6172 36892 4124 -4123 0
-45084 12316 36892 4124 -4123 0
-53275 20507 36891 4123 -4122 0
-53276 20508 36892 4124 -4123 0
-4123 36891 0
-36892 4123 0
-40992 8224 40988 8220 -8219 0
-41020 8252 40988 8220 -8219 0
-45083 12315 40987 8219 -8218 0
-45084 12316 40988 8220 -8219 0
-57372 24604 40988 8220 -8219 0
-40988 8219 0
-49184 16416 49180 16412 -16411 0
-49212 16444 49180 16412 -16411 0
-53276 20508 49180 16412 -16411 0
-57372 24604 49180 16412 -16411 0
-16411 49179 0
-49180 16411 0
-32800 32795 0
-32832 32800 32828 32796 -32795 0
-40992 32800 40988 32796 -32795 0
-49184 32800 49180 32796 -32795 0
-32828 32795 0
-41020 32828 40988 32796 -32795 0
-49212 32828 49180 32796 -32795 0
-32795 36891 0
-36892 32795 0
-45083 36891 40987 32795 -32794 0
-45084 36892 40988 32796 -32795 0
-53276 36892 49180 32796 -32795 0
-32795 40987 0
-40988 32795 0
-57371 40987 49179 32795 -32794 0
-57372 40988 49180 32796 -32795 0
-32795 49179 0
-49180 32795 0
-38956 6188 34860 2092 -2091 0
-2091 34859 0
-34860 2091 0
-36912 4144 36908 4140 -4139 0
-36908 4139 0
-41008 8240 41004 8236 -8235 0
-41020 8252 41004 8236 -8235 0
-45100 12332 41004 8236 -8235 0
-57388 24620 41004 8236 -8235 0
-8235 41003 0
-41004 8235 0
-49200 16432 49196 16428 -16427 0
-49212 16444 49196 16428 -16427 0
-53292 20524 49196 16428 -16427 0
-57388 24620 49196 16428 -16427 0
-16427 49195 0
-49196 16427 0
-32816 32811 0
-32832 32816 32828 32812 -32811 0
-41008 32816 41004 32812 -32811 0
-49200 32816 49196 32812 -32811 0
-32828 32811 0
-36924 32828 36908 32812 -32811 0
-41020 32828 41004 32812 -32811 0
-49212 32828 49196 32812 -32811 0
-32811 34859 0
-34860 32811 0
-36908 32811 0
-45100 36908 41004 32812 -32811 0
-53292 36908 49196 32812 -32811 0
-32811 41003 0
-41004 32811 0
-57388 41004 49196 32812 -32811 0
-32811 49195 0
-49196 32811 0
-35884 3116 35852 3084 -3083 0
-33808 33803 0
-39948 7180 38924 6156 -6155 0
-47116 14348 38924 6156 -6155 0
-38924 6155 0
-51228 18460 51212 18444 -18443 0
-18443 51211 0
-38924 34827 0
-45084 12316 45068 12300 -12299 0
-45100 12332 45068 12300 -12299 0
-47116 14348 45068 12300 -12299 0
-61452 28684 45068 12300 -12299 0
-45068 12299 0
-53264 20496 53260 20492 -20491 0
-53292 20524 53260 20492 -20491 0
-61452 28684 53260 20492 -20491 0
-53260 20491 0
-36875 36879 0
-36875 36891 0
-36908 36875 0
-55308 38924 53260 36876 -36875 0
-45068 36875 0
-61452 45068 53260 36876 -36875 0
-53260 36875 0
-57360 24592 57356 24588 -24587 0
-57372 24604 57356 24588 -24587 0
-57388 24620 57356 24588 -24587 0
-61452 28684 57356 24588 -24587 0
-57356 24587 0
-40971 40975 0
-40976 40971 0
-40992 40976 40988 40972 -40971 0
-57360 40976 57356 40972 -40971 0
-40971 40987 0
-40988 40971 0
-41020 40988 41004 40972 -40971 0
-57372 40988 57356 40972 -40971 0
-40971 41003 0
-41004 40971 0
-45100 41004 45068 40972 -40971 0
-57388 41004 57356 40972 -40971 0
-61452 45068 57356 40972 -40971 0
-57356 40971 0
-49163 49167 0
-49168 49163 0
-49184 49168 49180 49164 -49163 0
-49199 49167 49195 49163 -49162 0
-49200 49168 49196 49164 -49163 0
-57360 49168 57356 49164 -49163 0
-49163 49179 0
-49180 49163 0
-49212 49180 49196 49164 -49163 0
-57372 49180 57356 49164 -49163 0
-49163 49195 0
-49196 49163 0
-57388 49196 57356 49164 -49163 0
-51212 49163 0
-53260 49163 0
-61452 53260 57356 49164 -49163 0
-57356 49163 0
-38964 6196 34868 2100 -2099 0
-43060 10292 34868 2100 -2099 0
-2099 34867 0
-45108 12340 36916 4148 -4147 0
-36916 4147 0
-41016 8248 41012 8244 -8243 0
-41020 8252 41012 8244 -8243 0
-45108 12340 41012 8244 -8243 0
-57396 24628 41012 8244 -8243 0
-8243 41011 0
-41012 8243 0
-49208 16440 49204 16436 -16435 0
-49212 16444 49204 16436 -16435 0
-53300 20532 49204 16436 -16435 0
-57396 24628 49204 16436 -16435 0
-16435 49203 0
-49204 16435 0
-32824 32819 0
-32832 32824 32828 32820 -32819 0
-41016 32824 41012 32820 -32819 0
-49208 32824 49204 32820 -32819 0
-32828 32819 0
-36924 32828 36916 32820 -32819 0
-41020 32828 41012 32820 -32819 0
-49212 32828 49204 32820 -32819 0
-34868 32819 0
-51252 34868 49204 32820 -32819 0
-32819 36915 0
-36916 32819 0
-45107 36915 41011 32819 -32818 0
-45108 36916 41012 32820 -32819 0
-53299 36915 49203 32819 -32818 0
-53300 36916 49204 32820 -32819 0
-32819 41011 0
-41012 32819 0
-57395 41011 49203 32819 -32818 0
-57396 41012 49204 32820 -32819 0
-32819 49203 0
-49204 32819 0
-38936 6168 38932 6164 -6163 0
-47124 14356 43028 10260 -10259 0
-51224 34840 51220 34836 -34835 0
-43060 34868 43028 34836 -34835 0
-45080 12312 45076 12308 -12307 0
-45108 12340 45076 12308 -12307 0
-47124 14356 45076 12308 -12307 0
-61460 28692 45076 12308 -12307 0
-45076 12307 0
-53272 20504 53268 20500 -20499 0
-53276 20508 53268 20500 -20499 0
-61460 28692 53268 20500 -20499 0
-53268 20499 0
-36883 36891 0
-36883 36915 0
-38964 36916 38932 36884 -36883 0
-53300 36916 53268 36884 -36883 0
-36883 38931 0
-61460 45076 53268 36884 -36883 0
-53268 36883 0
-57368 24600 57364 24596 -24595 0
-57372 24604 57364 24596 -24595 0
-57396 24628 57364 24596 -24595 0
-61460 28692 57364 24596 -24595 0
-57364 24595 0
-40979 40983 0
-40984 40979 0
-40992 40984 40988 40980 -40979 0
-41016 40984 41012 40980 -40979 0
-57368 40984 57364 40980 -40979 0
-40979 40987 0
-40988 40979 0
-41020 40988 41012 40980 -40979 0
-45084 40988 45076 40980 -40979 0
-57372 40988 57364 40980 -40979 0
-40979 41011 0
-41012 40979 0
-45108 41012 45076 40980 -40979 0
-57396 41012 57364 40980 -40979 0
-43028 40979 0
-45076 40979 0
-61460 45076 57364 40980 -40979 0
-57364 40979 0
-49171 49175 0
-49176 49171 0
-49183 49175 49179 49171 -49170 0
-49184 49176 49180 49172 -49171 0
-49208 49176 49204 49172 -49171 0
-57368 49176 57364 49172 -49171 0
-49171 49179 0
-49180 49171 0
-49211 49179 49203 49171 -49170 0
-49212 49180 49204 49172 -49171 0
-57372 49180 57364 49172 -49171 0
-49171 49203 0
-49204 49171 0
-57396 49204 57364 49172 -49171 0
-53268 49171 0
-61460 53268 57364 49172 -49171 0
-57364 49171 0
-38964 6196 38948 6180 -6179 0
-47140 14372 38948 6180 -6179 0
-51244 18476 51236 18468 -18467 0
-55332 22564 51236 18468 -18467 0
-34864 34856 34860 34852 -34851 0
-45096 12328 45092 12324 -12323 0
-47140 14372 45092 12324 -12323 0
-61476 28708 45092 12324 -12323 0
-45092 12323 0
-53300 20532 53284 20516 -20515 0
-61476 28708 53284 20516 -20515 0
-53284 20515 0
-36899 36903 0
-36920 36904 36916 36900 -36899 0
-45096 36904 45092 36900 -36899 0
-36899 36907 0
-36899 36915 0
-47140 38948 45092 36900 -36899 0
-45092 36899 0
-61476 45092 53284 36900 -36899 0
-53284 36899 0
-57384 24616 57380 24612 -24611 0
-57388 24620 57380 24612 -24611 0
-57396 24628 57380 24612 -24611 0
-61476 28708 57380 24612 -24611 0
-57380 24611 0
-40995 40999 0
-41000 40995 0
-41008 41000 41004 40996 -40995 0
-41016 41000 41012 40996 -40995 0
-57384 41000 57380 40996 -40995 0
-40995 41003 0
-41004 40995 0
-41020 41004 41012 40996 -40995 0
-45100 41004 45092 40996 -40995 0
-57388 41004 57380 40996 -40995 0
-40995 41011 0
-41012 40995 0
-45108 41012 45092 40996 -40995 0
-57396 41012 57380 40996 -40995 0
-45092 40995 0
-61476 45092 57380 40996 -40995 0
-57380 40995 0
-49187 49191 0
-49192 49187 0
-49200 49192 49196 49188 -49187 0
-49207 49191 49203 49187 -49186 0
-49208 49192 49204 49188 -49187 0
-57384 49192 57380 49188 -49187 0
-49187 49195 0
-49196 49187 0
-49212 49196 49204 49188 -49187 0
-57388 49196 57380 49188 -49187 0
-49187 49203 0
-49204 49187 0
-57396 49204 57380 49188 -49187 0
-51236 49187 0
-53284 49187 0
-61476 53284 57380 49188 -49187 0
-57380 49187 0
-39944 7176 39940 7172 -7171 0
-47112 14344 47108 14340 -14339 0
-47116 14348 47108 14340 -14339 0
-47124 14356 47108 14340 -14339 0
-47140 14372 47108 14340 -14339 0
-14339 47107 0
-55304 51208 55300 51204 -51203 0
-45059 45063 0
-45072 45064 45068 45060 -45059 0
-45059 45067 0
-45084 45068 45076 45060 -45059 0
-45100 45068 45092 45060 -45059 0
-47116 45068 47108 45060 -45059 0
-45059 45075 0
-45108 45076 45092 45060 -45059 0
-47124 45076 47108 45060 -45059 0
-45059 45091 0
-61444 45059 0
-53251 53255 0
-53251 53259 0
-53276 53260 53268 53252 -53251 0
-53251 53267 0
-53251 53283 0
-61444 53251 0
-57347 57351 0
-57360 57352 57356 57348 -57347 0
-57368 57352 57364 57348 -57347 0
-57384 57352 57380 57348 -57347 0
-57347 57355 0
-57372 57356 57364 57348 -57347 0
-57388 57356 57380 57348 -57347 0
-57347 57363 0
-57396 57364 57380 57348 -57347 0
-58388 57364 58372 57348 -57347 0
-59412 57364 59396 57348 -57347 0
-57347 57379 0
-61444 57347 0
-64 32832 0
-38944 6176 36896 4128 -4127 0
-45088 12320 40992 8224 -8223 0
-57376 24608 40992 8224 -8223 0
-8223 40991 0
-8224 40992 0
-53280 20512 49184 16416 -16415 0
-57376 24608 49184 16416 -16415 0
-16415 49183 0
-16416 49184 0
-32800 33824 0
-32800 36896 0
-53280 36896 49184 32800 -32799 0
-32800 40992 0
-57376 40992 49184 32800 -32799 0
-32800 49184 0
-4144 36912 0
-45104 12336 41008 8240 -8239 0
-57392 24624 41008 8240 -8239 0
-8239 41007 0
-8240 41008 0
-57392 24624 49200 16432 -16431 0
-16431 49199 0
-16432 49200 0
-32816 34864 0
-32816 36912 0
-32816 41008 0
-57392 41008 49200 32816 -32815 0
-32816 49200 0
-51232 34848 51216 34832 -34831 0
-61456 28688 53264 20496 -20495 0
-36880 45072 0
-57376 24608 57360 24592 -24591 0
-61456 28688 57360 24592 -24591 0
-57360 24591 0
-24592 57360 0
-40976 40992 0
-40976 41008 0
-45104 41008 45072 40976 -40975 0
-57392 41008 57360 40976 -40975 0
-40976 45072 0
-61456 45072 57360 40976 -40975 0
-40976 57360 0
-49168 49184 0
-49216 49184 49200 49168 -49167 0
-57376 49184 57360 49168 -49167 0
-49200 49167 0
-49168 49200 0
-57392 49200 57360 49168 -49167 0
-58384 50192 57360 49168 -49167 0
-59408 51216 57360 49168 -49167 0
-61456 53264 57360 49168 -49167 0
-57360 49167 0
-49168 57360 0
-45112 12344 36920 4152 -4151 0
-4152 36920 0
-45112 12344 41016 8248 -8247 0
-57400 24632 41016 8248 -8247 0
-8248 41016 0
-53304 20536 49208 16440 -16439 0
-57400 24632 49208 16440 -16439 0
-16439 49207 0
-16440 49208 0
-32824 34872 0
-32824 36920 0
-53304 36920 49208 32824 -32823 0
-32824 41016 0
-57400 41016 49208 32824 -32823 0
-32824 49208 0
-9240 42008 0
-33816 33848 0
-33816 35864 0
-38968 6200 38936 6168 -6167 0
-18456 51224 0
-47128 14360 45080 12312 -12311 0
-45080 12311 0
-61464 28696 53272 20504 -20503 0
-36888 36896 0
-36888 36920 0
-36888 45080 0
-53272 36887 0
-57376 24608 57368 24600 -24599 0
-57400 24632 57368 24600 -24599 0
-61464 28696 57368 24600 -24599 0
-57368 24599 0
-24600 57368 0
-40992 40983 0
-40984 40992 0
-57376 40992 57368 40984 -40983 0
-40984 41016 0
-40984 43032 0
-40984 45080 0
-61464 45080 57368 40984 -40983 0
-57368 40983 0
-40984 57368 0
-49176 49184 0
-49216 49184 49208 49176 -49175 0
-57376 49184 57368 49176 -49175 0
-49208 49175 0
-49176 49208 0
-53304 49208 53272 49176 -49175 0
-57400 49208 57368 49176 -49175 0
-49176 51224 0
-61464 53272 57368 49176 -49175 0
-49176 57368 0
-34856 34872 0
-34856 51240 0
-45096 12327 0
-61480 28712 53288 20520 -20519 0
-36904 36912 0
-45104 36912 45096 36904 -36903 0
-53296 36912 53288 36904 -36903 0
-36920 36903 0
-57392 24624 57384 24616 -24615 0
-57400 24632 57384 24616 -24615 0
-61480 28712 57384 24616 -24615 0
-57384 24615 0
-24616 57384 0
-41008 40999 0
-41000 41008 0
-41024 41008 41016 41000 -40999 0
-57392 41008 57384 41000 -40999 0
-41016 40999 0
-41000 41016 0
-57400 41016 57384 41000 -40999 0
-41000 45096 0
-61480 45096 57384 41000 -40999 0
-57384 40999 0
-41000 57384 0
-49200 49191 0
-49192 49200 0
-49216 49200 49208 49192 -49191 0
-57392 49200 57384 49192 -49191 0
-49208 49191 0
-49192 49208 0
-57400 49208 57384 49192 -49191 0
-58408 50216 57384 49192 -49191 0
-57384 49191 0
-49192 57384 0
-39960 7192 39944 7176 -7175 0
-58408 25640 58376 25608 -25607 0
-22536 55304 0
-43016 43048 0
-51208 51216 0
-51232 51216 51224 51208 -51207 0
-51208 51224 0
-45064 45072 0
-45088 45072 45080 45064 -45063 0
-45104 45072 45096 45064 -45063 0
-47120 45072 47112 45064 -45063 0
-45063 45079 0
-45064 45080 0
-45064 45096 0
-53256 53264 0
-53256 53272 0
-53256 53288 0
-57351 57359 0
-57352 57360 0
-57376 57360 57368 57352 -57351 0
-57392 57360 57384 57352 -57351 0
-57351 57367 0
-57352 57368 0
-57400 57368 57384 57352 -57351 0
-57352 57384 0
-45116 12348 36924 4156 -4155 0
-53308 20540 36924 4156 -4155 0
-45116 12348 41020 8252 -8251 0
-8252 41020 0
-53308 20540 49212 16444 -16443 0
-57404 24636 49212 16444 -16443 0
-16443 49211 0
-16444 49212 0
-32828 36924 0
-32828 41020 0
-57404 41020 49212 32828 -32827 0
-32828 49212 0
-34844 34876 0
-45088 12320 45084 12316 -12315 0
-47132 14364 45084 12316 -12315 0
-45084 12315 0
-53308 20540 53276 20508 -20507 0
-36892 36896 0
-36892 36924 0
-53308 36924 53276 36892 -36891 0
-36891 38939 0
-45084 36891 0
-57376 24608 57372 24604 -24603 0
-57404 24636 57372 24604 -24603 0
-61468 28700 57372 24604 -24603 0
-57372 24603 0
-24604 57372 0
-40988 40992 0
-40988 41020 0
-43068 41020 43036 40988 -40987 0
-57404 41020 57372 40988 -40987 0
-45084 40987 0
-40988 45084 0
-61468 45084 57372 40988 -40987 0
-57372 40987 0
-40988 57372 0
-49184 49179 0
-49180 49184 0
-49216 49184 49212 49180 -49179 0
-57376 49184 57372 49180 -49179 0
-49212 49179 0
-49180 49212 0
-57404 49212 57372 49180 -49179 0
-49180 53276 0
-61468 53276 57372 49180 -49179 0
-57372 49179 0
-49180 57372 0
-33836 33852 0
-33836 35884 0
-55340 38956 51244 34860 -34859 0
-45116 12348 45100 12332 -12331 0
-12332 45100 0
-61484 28716 53292 20524 -20523 0
-36908 36924 0
-36908 45100 0
-57404 24636 57388 24620 -24619 0
-61484 28716 57388 24620 -24619 0
-57388 24619 0
-24620 57388 0
-41004 41008 0
-41024 41008 41020 41004 -41003 0
-45104 41008 45100 41004 -41003 0
-57392 41008 57388 41004 -41003 0
-41020 41003 0
-41004 41020 0
-41004 45100 0
-61484 45100 57388 41004 -41003 0
-57388 41003 0
-41004 57388 0
-49200 49195 0
-49196 49200 0
-49216 49200 49212 49196 -49195 0
-49196 49212 0
-51260 49212 51244 49196 -49195 0
-57404 49212 57388 49196 -49195 0
-61484 53292 57388 49196 -49195 0
-57388 49195 0
-49196 57388 0
-35852 35856 0
-14348 47116 0
-38924 38928 0
-38924 38956 0
-45068 45072 0
-47120 45072 47116 45068 -45067 0
-45067 45083 0
-45068 45084 0
-45116 45084 45100 45068 -45067 0
-45068 45100 0
-45068 47116 0
-53260 53264 0
-53296 53264 53292 53260 -53259 0
-53259 53275 0
-53260 53276 0
-53260 53292 0
-57356 57360 0
-57376 57360 57372 57356 -57355 0
-57392 57360 57388 57356 -57355 0
-57355 57371 0
-57356 57372 0
-57404 57372 57388 57356 -57355 0
-57356 57388 0
-38972 6204 38964 6196 -6195 0
-6195 38963 0
-6196 38964 0
-47156 14388 43060 10292 -10291 0
-34868 38964 0
-45112 12344 45108 12340 -12339 0
-61492 28724 45108 12340 -12339 0
-45108 12339 0
-12340 45108 0
-53308 20540 53300 20532 -20531 0
-61492 28724 53300 20532 -20531 0
-53300 20531 0
-36916 36920 0
-36916 45108 0
-53300 36915 0
-57400 24632 57396 24628 -24627 0
-57404 24636 57396 24628 -24627 0
-61492 28724 57396 24628 -24627 0
-57396 24627 0
-24628 57396 0
-41012 41016 0
-45112 41016 45108 41012 -41011 0
-41012 41020 0
-41012 45108 0
-61492 45108 57396 41012 -41011 0
-57396 41011 0
-41012 57396 0
-49204 49208 0
-49216 49208 49212 49204 -49203 0
-53304 49208 53300 49204 -49203 0
-57400 49208 57396 49204 -49203 0
-49212 49203 0
-49204 49212 0
-51260 49212 51252 49204 -49203 0
-57404 49212 57396 49204 -49203 0
-61492 53300 57396 49204 -49203 0
-57396 49203 0
-49204 57396 0
-58396 25628 58388 25620 -25619 0
-14356 47124 0
-38944 38936 38940 38932 -38931 0
-38932 38940 0
-26644 59412 0
-43036 43027 0
-47156 43060 47124 43028 -43027 0
-51220 51228 0
-45076 45080 0
-45076 45084 0
-45075 45107 0
-45076 45108 0
-45076 47124 0
-53268 53272 0
-53267 53299 0
-53268 53300 0
-57364 57368 0
-57376 57368 57372 57364 -57363 0
-57400 57368 57396 57364 -57363 0
-57364 57372 0
-57404 57372 57396 57364 -57363 0
-57363 57395 0
-57364 57396 0
-47148 14380 47140 14372 -14371 0
-47156 14388 47140 14372 -14371 0
-55340 22572 55332 22564 -22563 0
-38948 38952 0
-38948 38956 0
-38948 38964 0
-45092 45096 0
-45092 45100 0
-45092 45108 0
-45092 47140 0
-53284 53288 0
-53284 53292 0
-53284 53300 0
-57380 57384 0
-57392 57384 57388 57380 -57379 0
-57400 57384 57396 57380 -57379 0
-57380 57388 0
-57404 57388 57396 57380 -57379 0
-57380 57396 0
-39940 39948 0
-58372 58376 0
-47108 47112 0
-47128 47112 47124 47108 -47107 0
-47108 47116 0
-47108 47124 0
-47108 47140 0
-55300 55308 0
-59396 59400 0
-61444 61448 0
-61444 61452 0
-61444 61460 0
-61444 61476 0
-8256 41024 0
-16448 49216 0
-18464 51232 0
-61472 28704 53280 20512 -20511 0
-36896 45088 0
-24608 57376 0
-40992 45088 0
-40992 57376 0
-49184 57376 0
-12336 45104 0
-36912 53296 0
-24624 57392 0
-41008 45104 0
-61488 45104 57392 41008 -41007 0
-41008 57392 0
-49200 53296 0
-49200 57392 0
-25616 58384 0
-14352 47120 0
-45072 45088 0
-45072 45104 0
-53264 53280 0
-57360 57376 0
-57408 57376 57392 57360 -57359 0
-57360 57392 0
-34872 38968 0
-61496 28728 45112 12344 -12343 0
-12344 45112 0
-61496 28728 53304 20536 -20535 0
-20536 53304 0
-36920 45112 0
-36920 53304 0
-61496 28728 57400 24632 -24631 0
-24632 57400 0
-41016 57400 0
-61496 53304 57400 49208 -49207 0
-49208 57400 0
-35864 39960 0
-38936 38944 0
-43032 47128 0
-45080 45112 0
-53272 53304 0
-57368 57376 0
-57408 57376 57400 57368 -57367 0
-57368 57400 0
-45096 45104 0
-57384 57392 0
-57384 57400 0
-57384 58408 0
-58376 58384 0
-58376 58408 0
-47112 47128 0
-59400 59408 0
-61448 61456 0
-61448 61464 0
-61448 61480 0
-10300 43068 0
-18492 51260 0
-61500 28732 53308 20540 -20539 0
-20540 53308 0
-36924 53308 0
-24636 57404 0
-41020 57404 0
-49212 53308 0
-49212 57404 0
-47136 38944 47132 38940 -38939 0
-45084 45116 0
-45084 47132 0
-53276 53308 0
-57372 57376 0
-57408 57376 57404 57372 -57371 0
-57372 57404 0
-57372 58396 0
-22572 55340 0
-51244 51260 0
-45100 45104 0
-53292 53308 0
-53292 55340 0
-57388 57392 0
-57388 57404 0
-47116 47148 0
-61452 61468 0
-61452 61484 0
-47164 14396 47156 14388 -14387 0
-14388 47156 0
-47164 38972 47156 38964 -38963 0
-45108 45116 0
-57396 57400 0
-57396 57404 0
-47124 47156 0
-61460 61492 0
-41024 57408 0
-45088 47136 0
-61464 61472 0
-61480 61488 0
-61480 61496 0
-47132 47164 0
-61484 61500 0
-16451 0
-32835 0
-4168 0
-8264 0
-16456 0
-32840 0
-8268 0
-16460 0
-32844 0
-8276 0
-16468 0
-32852 0
-4196 0
-8292 0
-16484 0
-32868 0
-24644 0
-41028 0
-49220 0
-32876 32875 0
-8262 70 8198 6 -5 0
-16454 70 16390 6 -5 0
-32838 70 32774 6 -5 0
-8266 74 8202 10 -9 0
-16458 74 16394 10 -9 0
-32842 74 32778 10 -9 0
-8274 82 8210 18 -17 0
-16466 82 16402 18 -17 0
-8290 98 8226 34 -33 0
-16482 98 16418 34 -33 0
-8271 79 8207 15 -14 0
-16463 79 16399 15 -14 0
-32847 79 32783 15 -14 0
-8279 87 8215 23 -22 0
-16471 87 16407 23 -22 0
-32855 87 32791 23 -22 0
-8295 103 8231 39 -38 0
-16487 103 16423 39 -38 0
-32871 103 32807 39 -38 0
-16463 79 16455 71 -70 0
-32847 79 32839 71 -70 0
-8279 87 8263 71 -70 0
-16471 87 16455 71 -70 0
-32855 87 32839 71 -70 0
-16487 103 16455 71 -70 0
-32871 103 32839 71 -70 0
-8263 70 0
-41031 8263 32839 71 -70 0
-16455 70 0
-49223 16455 32839 71 -70 0
-32839 70 0
-12359 4167 12295 4103 -4102 0
-8263 8198 0
-24647 8263 24583 8199 -8198 0
-41031 8263 40967 8199 -8198 0
-16487 16423 16455 16391 -16390 0
-16455 16390 0
-24647 16455 24583 16391 -16390 0
-49223 16455 49159 16391 -16390 0
-32847 32783 32839 32775 -32774 0
-32855 32791 32839 32775 -32774 0
-32871 32807 32839 32775 -32774 0
-32839 32774 0
-41031 32839 40967 32775 -32774 0
-49223 32839 49159 32775 -32774 0
-8283 91 8219 27 -26 0
-16475 91 16411 27 -26 0
-32859 91 32795 27 -26 0
-8299 107 8235 43 -42 0
-16491 107 16427 43 -42 0
-32875 107 32811 43 -42 0
-16463 79 16459 75 -74 0
-32847 79 32843 75 -74 0
-32859 91 32843 75 -74 0
-16491 107 16459 75 -74 0
-32875 107 32843 75 -74 0
-4171 74 0
-8267 74 0
-41035 8267 32843 75 -74 0
-16459 74 0
-49227 16459 32843 75 -74 0
-32843 74 0
-8283 8219 8267 8203 -8202 0
-8267 8202 0
-24651 8267 24587 8203 -8202 0
-16491 16427 16459 16395 -16394 0
-16459 16394 0
-24651 16459 24587 16395 -16394 0
-49227 16459 49163 16395 -16394 0
-32847 32783 32843 32779 -32778 0
-32859 32795 32843 32779 -32778 0
-32875 32811 32843 32779 -32778 0
-32843 32778 0
-41035 32843 40971 32779 -32778 0
-49227 32843 49163 32779 -32778 0
-8307 115 8243 51 -50 0
-16499 115 16435 51 -50 0
-32883 115 32819 51 -50 0
-16471 87 16467 83 -82 0
-32855 87 32851 83 -82 0
-16475 91 16467 83 -82 0
-32859 91 32851 83 -82 0
-32883 115 32851 83 -82 0
-8275 82 0
-41043 8275 32851 83 -82 0
-16467 82 0
-49235 16467 32851 83 -82 0
-32851 82 0
-8275 8210 0
-24659 8275 24595 8211 -8210 0
-41043 8275 40979 8211 -8210 0
-16471 16407 16467 16403 -16402 0
-16475 16411 16467 16403 -16402 0
-16467 16402 0
-24659 16467 24595 16403 -16402 0
-49235 16467 49171 16403 -16402 0
-32855 32791 32851 32787 -32786 0
-32859 32795 32851 32787 -32786 0
-32883 32819 32851 32787 -32786 0
-32851 32786 0
-41043 32851 40979 32787 -32786 0
-49235 32851 49171 32787 -32786 0
-16487 103 16483 99 -98 0
-32871 103 32867 99 -98 0
-16491 107 16483 99 -98 0
-32875 107 32867 99 -98 0
-4211 115 4195 99 -98 0
-8307 115 8291 99 -98 0
-16499 115 16483 99 -98 0
-32883 115 32867 99 -98 0
-20579 4195 16483 99 -98 0
-8291 98 0
-24675 8291 16483 99 -98 0
-41059 8291 32867 99 -98 0
-16483 98 0
-49251 16483 32867 99 -98 0
-32867 98 0
-8299 8235 8291 8227 -8226 0
-8291 8226 0
-24675 8291 24611 8227 -8226 0
-41059 8291 40995 8227 -8226 0
-16487 16423 16483 16419 -16418 0
-16491 16427 16483 16419 -16418 0
-16499 16435 16483 16419 -16418 0
-16483 16418 0
-24675 16483 24611 16419 -16418 0
-49251 16483 49187 16419 -16418 0
-32871 32807 32867 32803 -32802 0
-32875 32811 32867 32803 -32802 0
-32883 32819 32867 32803 -32802 0
-32867 32802 0
-41059 32867 40995 32803 -32802 0
-49251 32867 49187 32803 -32802 0
-8258 8262 0
-8258 8266 0
-8258 8274 0
-8258 8290 0
-24643 8258 0
-16450 16454 0
-16463 16455 16459 16451 -16450 0
-16471 16455 16467 16451 -16450 0
-16487 16455 16483 16451 -16450 0
-16450 16458 0
-16475 16459 16467 16451 -16450 0
-16491 16459 16483 16451 -16450 0
-16450 16466 0
-16450 16482 0
-24643 16450 0
-32834 32838 0
-32847 32839 32843 32835 -32834 0
-32855 32839 32851 32835 -32834 0
-32871 32839 32867 32835 -32834 0
-32834 32842 0
-32859 32843 32851 32835 -32834 0
-32875 32843 32867 32835 -32834 0
-32883 32851 32867 32835 -32834 0
-32834 32866 0
-41027 32834 0
-8288 96 8224 32 -31 0
-16480 96 16416 32 -31 0
-32864 96 32800 32 -31 0
-8304 112 8240 48 -47 0
-16496 112 16432 48 -47 0
-32880 112 32816 48 -47 0
-16480 96 16464 80 -79 0
-32864 96 32848 80 -79 0
-4208 112 4176 80 -79 0
-8304 112 8272 80 -79 0
-16496 112 16464 80 -79 0
-32880 112 32848 80 -79 0
-4176 79 0
-79 8271 0
-8272 79 0
-24656 8272 16464 80 -79 0
-79 16463 0
-16464 79 0
-49231 16463 32847 79 -78 0
-49232 16464 32848 80 -79 0
-79 32847 0
-32848 79 0
-6224 4176 6160 4112 -4111 0
-8272 8207 0
-12368 8272 12304 8208 -8207 0
-24656 8272 24592 8208 -8207 0
-16480 16416 16464 16400 -16399 0
-16496 16432 16464 16400 -16399 0
-16399 16463 0
-16464 16399 0
-24655 16463 24591 16399 -16398 0
-24656 16464 24592 16400 -16399 0
-49232 16464 49168 16400 -16399 0
-32864 32800 32848 32784 -32783 0
-32880 32816 32848 32784 -32783 0
-32783 32847 0
-32848 32783 0
-41039 32847 40975 32783 -32782 0
-41040 32848 40976 32784 -32783 0
-49231 32847 49167 32783 -32782 0
-49232 32848 49168 32784 -32783 0
-4216 120 4152 56 -55 0
-8312 120 8248 56 -55 0
-16504 120 16440 56 -55 0
-32888 120 32824 56 -55 0
-16480 96 16472 88 -87 0
-32864 96 32856 88 -87 0
-8312 120 8280 88 -87 0
-16504 120 16472 88 -87 0
-32888 120 32856 88 -87 0
-8280 87 0
-24664 8280 16472 88 -87 0
-41047 8279 32855 87 -86 0
-41048 8280 32856 88 -87 0
-87 16471 0
-16472 87 0
-49239 16471 32855 87 -86 0
-49240 16472 32856 88 -87 0
-87 32855 0
-32856 87 0
-8288 8224 8280 8216 -8215 0
-8215 8279 0
-8280 8215 0
-24664 8280 24600 8216 -8215 0
-16480 16416 16472 16408 -16407 0
-16504 16440 16472 16408 -16407 0
-16407 16471 0
-16472 16407 0
-24663 16471 24599 16407 -16406 0
-24664 16472 24600 16408 -16407 0
-49239 16471 49175 16407 -16406 0
-49240 16472 49176 16408 -16407 0
-32864 32800 32856 32792 -32791 0
-32888 32824 32856 32792 -32791 0
-32791 32855 0
-32856 32791 0
-41047 32855 40983 32791 -32790 0
-41048 32856 40984 32792 -32791 0
-49240 32856 49176 32792 -32791 0
-8304 112 8296 104 -103 0
-16496 112 16488 104 -103 0
-32880 112 32872 104 -103 0
-16504 120 16488 104 -103 0
-32888 120 32872 104 -103 0
-103 4199 0
-8296 103 0
-24680 8296 16488 104 -103 0
-41064 8296 32872 104 -103 0
-103 16487 0
-16488 103 0
-49256 16488 32872 104 -103 0
-103 32871 0
-32872 103 0
-6248 2152 6184 2088 -2087 0
-6248 4200 6184 4136 -4135 0
-8304 8240 8296 8232 -8231 0
-8312 8248 8296 8232 -8231 0
-8231 8295 0
-8296 8231 0
-12392 8296 12328 8232 -8231 0
-24680 8296 24616 8232 -8231 0
-41064 8296 41000 8232 -8231 0
-16496 16432 16488 16424 -16423 0
-16504 16440 16488 16424 -16423 0
-16423 16487 0
-16488 16423 0
-24679 16487 24615 16423 -16422 0
-24680 16488 24616 16424 -16423 0
-49256 16488 49192 16424 -16423 0
-32880 32816 32872 32808 -32807 0
-32888 32824 32872 32808 -32807 0
-32807 32871 0
-32872 32807 0
-41063 32871 40999 32807 -32806 0
-41064 32872 41000 32808 -32807 0
-49255 32871 49191 32807 -32806 0
-49256 32872 49192 32808 -32807 0
-12392 4200 12360 4168 -4167 0
-8263 8271 0
-8280 8263 0
-8263 8295 0
-24680 8296 24648 8264 -8263 0
-8263 12359 0
-24648 8263 0
-57416 24648 41032 8264 -8263 0
-41032 8263 0
-16455 16463 0
-16464 16455 0
-16479 16463 16471 16455 -16454 0
-16480 16464 16472 16456 -16455 0
-16496 16464 16488 16456 -16455 0
-24656 16464 24648 16456 -16455 0
-49232 16464 49224 16456 -16455 0
-16455 16471 0
-16472 16455 0
-16504 16472 16488 16456 -16455 0
-49240 16472 49224 16456 -16455 0
-16455 16487 0
-16488 16455 0
-24680 16488 24648 16456 -16455 0
-49256 16488 49224 16456 -16455 0
-24648 16455 0
-57416 24648 49224 16456 -16455 0
-49224 16455 0
-32839 32847 0
-32848 32839 0
-32863 32847 32855 32839 -32838 0
-32864 32848 32856 32840 -32839 0
-32879 32847 32871 32839 -32838 0
-32880 32848 32872 32840 -32839 0
-49232 32848 49224 32840 -32839 0
-32839 32855 0
-32856 32839 0
-32888 32856 32872 32840 -32839 0
-49240 32856 49224 32840 -32839 0
-32839 32871 0
-32872 32839 0
-49256 32872 49224 32840 -32839 0
-41032 32839 0
-57416 41032 49224 32840 -32839 0
-49224 32839 0
-12360 12295 0
-24664 24600 24648 24584 -24583 0
-24648 24583 0
-57416 24648 57352 24584 -24583 0
-41048 40984 41032 40968 -40967 0
-41064 41000 41032 40968 -40967 0
-41032 40967 0
-57416 41032 57352 40968 -40967 0
-49232 49168 49224 49160 -49159 0
-49240 49176 49224 49160 -49159 0
-49256 49192 49224 49160 -49159 0
-49224 49159 0
-57416 49224 57352 49160 -49159 0
-8316 124 8252 60 -59 0
-16508 124 16444 60 -59 0
-32892 124 32828 60 -59 0
-8288 96 8284 92 -91 0
-16480 96 16476 92 -91 0
-32864 96 32860 92 -91 0
-8316 124 8284 92 -91 0
-16508 124 16476 92 -91 0
-32892 124 32860 92 -91 0
-8284 91 0
-24668 8284 16476 92 -91 0
-41051 8283 32859 91 -90 0
-41052 8284 32860 92 -91 0
-91 16475 0
-16476 91 0
-49243 16475 32859 91 -90 0
-49244 16476 32860 92 -91 0
-91 32859 0
-32860 91 0
-8316 8252 8284 8220 -8219 0
-8284 8219 0
-12380 8284 12316 8220 -8219 0
-24668 8284 24604 8220 -8219 0
-16480 16416 16476 16412 -16411 0
-16508 16444 16476 16412 -16411 0
-16411 16475 0
-16476 16411 0
-24667 16475 24603 16411 -16410 0
-24668 16476 24604 16412 -16411 0
-49243 16475 49179 16411 -16410 0
-49244 16476 49180 16412 -16411 0
-32864 32800 32860 32796 -32795 0
-32892 32828 32860 32796 -32795 0
-32795 32859 0
-32860 32795 0
-41052 32860 40988 32796 -32795 0
-49243 32859 49179 32795 -32794 0
-49244 32860 49180 32796 -32795 0
-4208 112 4204 108 -107 0
-16496 112 16492 108 -107 0
-32880 112 32876 108 -107 0
-16508 124 16492 108 -107 0
-32892 124 32876 108 -107 0
-12396 4204 8300 108 -107 0
-107 8299 0
-8300 107 0
-41068 8300 32876 108 -107 0
-107 16491 0
-16492 107 0
-49259 16491 32875 107 -106 0
-49260 16492 32876 108 -107 0
-107 32875 0
-32876 107 0
-8316 8252 8300 8236 -8235 0
-8235 8299 0
-8300 8235 0
-24683 8299 24619 8235 -8234 0
-24684 8300 24620 8236 -8235 0
-16496 16432 16492 16428 -16427 0
-16508 16444 16492 16428 -16427 0
-16427 16491 0
-16492 16427 0
-24683 16491 24619 16427 -16426 0
-24684 16492 24620 16428 -16427 0
-49260 16492 49196 16428 -16427 0
-32880 32816 32876 32812 -32811 0
-32892 32828 32876 32812 -32811 0
-32811 32875 0
-32876 32811 0
-41068 32876 41004 32812 -32811 0
-49260 32876 49196 32812 -32811 0
-4204 4171 0
-4171 6219 0
-12364 4171 0
-8267 8271 0
-41040 8272 41036 8268 -8267 0
-8267 8283 0
-57420 24652 41036 8268 -8267 0
-41036 8267 0
-16459 16463 0
-16464 16459 0
-16480 16464 16476 16460 -16459 0
-16496 16464 16492 16460 -16459 0
-24656 16464 24652 16460 -16459 0
-49232 16464 49228 16460 -16459 0
-16459 16475 0
-16476 16459 0
-16508 16476 16492 16460 -16459 0
-24668 16476 24652 16460 -16459 0
-49244 16476 49228 16460 -16459 0
-16459 16491 0
-16492 16459 0
-24684 16492 24652 16460 -16459 0
-49260 16492 49228 16460 -16459 0
-28748 20556 24652 16460 -16459 0
-24652 16459 0
-57420 24652 49228 16460 -16459 0
-49228 16459 0
-32843 32847 0
-32848 32843 0
-32864 32848 32860 32844 -32843 0
-32879 32847 32875 32843 -32842 0
-32880 32848 32876 32844 -32843 0
-49232 32848 49228 32844 -32843 0
-32843 32859 0
-32860 32843 0
-32892 32860 32876 32844 -32843 0
-49244 32860 49228 32844 -32843 0
-32843 32875 0
-32876 32843 0
-49260 32876 49228 32844 -32843 0
-41036 32843 0
-57420 41036 49228 32844 -32843 0
-49228 32843 0
-24656 24592 24652 24588 -24587 0
-24652 24587 0
-28748 24652 28684 24588 -24587 0
-57420 24652 57356 24588 -24587 0
-41036 40971 0
-57420 41036 57356 40972 -40971 0
-49232 49168 49228 49164 -49163 0
-49244 49180 49228 49164 -49163 0
-49260 49196 49228 49164 -49163 0
-49228 49163 0
-57420 49228 57356 49164 -49163 0
-16504 120 16500 116 -115 0
-32888 120 32884 116 -115 0
-16508 124 16500 116 -115 0
-32892 124 32884 116 -115 0
-4212 115 0
-8308 115 0
-24691 8307 16499 115 -114 0
-24692 8308 16500 116 -115 0
-41076 8308 32884 116 -115 0
-115 16499 0
-16500 115 0
-49268 16500 32884 116 -115 0
-115 32883 0
-32884 115 0
-6260 4212 6196 4148 -4147 0
-8243 8307 0
-8308 8243 0
-24691 8307 24627 8243 -8242 0
-16504 16440 16500 16436 -16435 0
-16508 16444 16500 16436 -16435 0
-16435 16499 0
-16500 16435 0
-24691 16499 24627 16435 -16434 0
-24692 16500 24628 16436 -16435 0
-49267 16499 49203 16435 -16434 0
-49268 16500 49204 16436 -16435 0
-32888 32824 32884 32820 -32819 0
-32892 32828 32884 32820 -32819 0
-32819 32883 0
-32884 32819 0
-41076 32884 41012 32820 -32819 0
-49267 32883 49203 32819 -32818 0
-49268 32884 49204 32820 -32819 0
-8275 8307 0
-24660 8275 0
-57428 24660 41044 8276 -8275 0
-41044 8275 0
-16467 16471 0
-16472 16467 0
-16479 16471 16475 16467 -16466 0
-16480 16472 16476 16468 -16467 0
-16503 16471 16499 16467 -16466 0
-16504 16472 16500 16468 -16467 0
-49240 16472 49236 16468 -16467 0
-16467 16475 0
-16476 16467 0
-16507 16475 16499 16467 -16466 0
-16508 16476 16500 16468 -16467 0
-24668 16476 24660 16468 -16467 0
-49244 16476 49236 16468 -16467 0
-16467 16499 0
-16500 16467 0
-49268 16500 49236 16468 -16467 0
-24660 16467 0
-57428 24660 49236 16468 -16467 0
-49236 16467 0
-32851 32855 0
-32856 32851 0
-32864 32856 32860 32852 -32851 0
-32888 32856 32884 32852 -32851 0
-49240 32856 49236 32852 -32851 0
-32851 32859 0
-32860 32851 0
-32892 32860 32884 32852 -32851 0
-49244 32860 49236 32852 -32851 0
-32851 32883 0
-32884 32851 0
-41076 32884 41044 32852 -32851 0
-49268 32884 49236 32852 -32851 0
-41044 32851 0
-57428 41044 49236 32852 -32851 0
-49236 32851 0
-12404 12340 12372 12308 -12307 0
-24664 24600 24660 24596 -24595 0
-24668 24604 24660 24596 -24595 0
-24660 24595 0
-28756 24660 28692 24596 -24595 0
-57428 24660 57364 24596 -24595 0
-41052 40988 41044 40980 -40979 0
-41044 40979 0
-57428 41044 57364 40980 -40979 0
-49240 49176 49236 49172 -49171 0
-49244 49180 49236 49172 -49171 0
-49268 49204 49236 49172 -49171 0
-49236 49171 0
-57428 49236 57364 49172 -49171 0
-20596 4212 20580 4196 -4195 0
-8304 8296 8300 8292 -8291 0
-8312 8296 8308 8292 -8291 0
-8291 8299 0
-8291 8307 0
-12404 8308 12388 8292 -8291 0
-24692 8308 24676 8292 -8291 0
-8291 12387 0
-24676 8291 0
-57444 24676 41060 8292 -8291 0
-41060 8291 0
-16483 16487 0
-16488 16483 0
-16496 16488 16492 16484 -16483 0
-16504 16488 16500 16484 -16483 0
-24680 16488 24676 16484 -16483 0
-49256 16488 49252 16484 -16483 0
-16483 16491 0
-16492 16483 0
-16508 16492 16500 16484 -16483 0
-24684 16492 24676 16484 -16483 0
-49260 16492 49252 16484 -16483 0
-16483 16499 0
-16500 16483 0
-49268 16500 49252 16484 -16483 0
-20580 16483 0
-24676 16483 0
-57444 24676 49252 16484 -16483 0
-49252 16483 0
-32867 32871 0
-32872 32867 0
-32879 32871 32875 32867 -32866 0
-32880 32872 32876 32868 -32867 0
-32888 32872 32884 32868 -32867 0
-49256 32872 49252 32868 -32867 0
-32867 32875 0
-32876 32867 0
-32892 32876 32884 32868 -32867 0
-41068 32876 41060 32868 -32867 0
-49260 32876 49252 32868 -32867 0
-32867 32883 0
-32884 32867 0
-41076 32884 41060 32868 -32867 0
-49268 32884 49252 32868 -32867 0
-41060 32867 0
-57444 41060 49252 32868 -32867 0
-49252 32867 0
-6252 6188 6244 6180 -6179 0
-12396 12332 12388 12324 -12323 0
-20515 20579 0
-24680 24616 24676 24612 -24611 0
-24684 24620 24676 24612 -24611 0
-24692 24628 24676 24612 -24611 0
-24676 24611 0
-28772 24676 28708 24612 -24611 0
-57444 24676 57380 24612 -24611 0
-41060 40995 0
-57444 41060 57380 40996 -40995 0
-49256 49192 49252 49188 -49187 0
-49260 49196 49252 49188 -49187 0
-49268 49204 49252 49188 -49187 0
-49252 49187 0
-57444 49252 57380 49188 -49187 0
-24643 24647 0
-24680 24648 24676 24644 -24643 0
-24643 24651 0
-24668 24652 24660 24644 -24643 0
-24684 24652 24676 24644 -24643 0
-24643 24659 0
-24643 24675 0
-57412 24643 0
-41027 41031 0
-41027 41035 0
-41052 41036 41044 41028 -41027 0
-41027 41043 0
-41027 41059 0
-57412 41027 0
-49219 49223 0
-49232 49224 49228 49220 -49219 0
-49240 49224 49236 49220 -49219 0
-49256 49224 49252 49220 -49219 0
-49219 49227 0
-49244 49228 49236 49220 -49219 0
-49260 49228 49252 49220 -49219 0
-49219 49235 0
-49268 49236 49252 49220 -49219 0
-49219 49251 0
-57412 49219 0
-96 4192 0
-95 8287 0
-96 8288 0
-24672 8288 16480 96 -95 0
-41056 8288 32864 96 -95 0
-95 16479 0
-96 16480 0
-49248 16480 32864 96 -95 0
-95 32863 0
-96 32864 0
-8224 8288 0
-41056 8288 40992 8224 -8223 0
-16416 16480 0
-49248 16480 49184 16416 -16415 0
-32800 32864 0
-49248 32864 49184 32800 -32799 0
-111 4207 0
-112 4208 0
-112 8304 0
-41072 8304 32880 112 -111 0
-111 16495 0
-112 16496 0
-49264 16496 32880 112 -111 0
-111 32879 0
-112 32880 0
-4144 4208 0
-8240 8304 0
-41072 8304 41008 8240 -8239 0
-16432 16496 0
-24688 16496 24624 16432 -16431 0
-49264 16496 49200 16432 -16431 0
-32816 32880 0
-41072 32880 41008 32816 -32815 0
-49264 32880 49200 32816 -32815 0
-4176 12368 0
-8272 8288 0
-12400 8304 12368 8272 -8271 0
-8272 24656 0
-41040 8271 0
-16480 16463 0
-16464 16480 0
-16512 16480 16496 16464 -16463 0
-49248 16480 49232 16464 -16463 0
-16464 16496 0
-24688 16496 24656 16464 -16463 0
-49264 16496 49232 16464 -16463 0
-16464 24656 0
-57424 24656 49232 16464 -16463 0
-49232 16463 0
-16464 49232 0
-32864 32847 0
-32848 32864 0
-32896 32864 32880 32848 -32847 0
-49248 32864 49232 32848 -32847 0
-32880 32847 0
-32848 32880 0
-41072 32880 41040 32848 -32847 0
-49264 32880 49232 32848 -32847 0
-41040 32847 0
-57424 41040 49232 32848 -32847 0
-49232 32847 0
-32848 49232 0
-24592 24656 0
-57424 41040 57360 40976 -40975 0
-49248 49184 49232 49168 -49167 0
-49264 49200 49232 49168 -49167 0
-49232 49167 0
-49168 49232 0
-57424 49232 57360 49168 -49167 0
-119 8311 0
-120 8312 0
-24696 8312 16504 120 -119 0
-41080 8312 32888 120 -119 0
-119 16503 0
-120 16504 0
-49272 16504 32888 120 -119 0
-120 32888 0
-8248 8312 0
-41080 8312 41016 8248 -8247 0
-16440 16504 0
-24696 16504 24632 16440 -16439 0
-49272 16504 49208 16440 -16439 0
-32824 32888 0
-49272 32888 49208 32824 -32823 0
-8280 8312 0
-8280 24664 0
-57432 24664 41048 8280 -8279 0
-16480 16471 0
-16472 16480 0
-16512 16480 16504 16472 -16471 0
-24672 16480 24664 16472 -16471 0
-49248 16480 49240 16472 -16471 0
-16504 16471 0
-16472 16504 0
-49272 16504 49240 16472 -16471 0
-24664 16471 0
-16472 24664 0
-49240 16471 0
-16472 49240 0
-32864 32855 0
-32856 32864 0
-32896 32864 32888 32856 -32855 0
-49248 32864 49240 32856 -32855 0
-32888 32855 0
-32856 32888 0
-49272 32888 49240 32856 -32855 0
-41048 32855 0
-32856 41048 0
-49240 32855 0
-32856 49240 0
-24600 24664 0
-57432 24664 57368 24600 -24599 0
-57432 41048 57368 40984 -40983 0
-49248 49184 49240 49176 -49175 0
-49272 49208 49240 49176 -49175 0
-49240 49175 0
-49176 49240 0
-57432 49240 57368 49176 -49175 0
-6256 4208 6248 4200 -4199 0
-4200 4216 0
-4200 12392 0
-8296 8304 0
-8320 8304 8312 8296 -8295 0
-8296 8312 0
-8296 24680 0
-8296 41064 0
-16488 16496 0
-16512 16496 16504 16488 -16487 0
-16488 16504 0
-49272 16504 49256 16488 -16487 0
-16488 24680 0
-57448 24680 49256 16488 -16487 0
-49256 16487 0
-16488 49256 0
-32880 32871 0
-32872 32880 0
-32896 32880 32888 32872 -32871 0
-49264 32880 49256 32872 -32871 0
-32888 32871 0
-32872 32888 0
-36984 32888 36968 32872 -32871 0
-49272 32888 49256 32872 -32871 0
-41064 32871 0
-32872 41064 0
-57448 41064 49256 32872 -32871 0
-49256 32871 0
-32872 49256 0
-24688 24624 24680 24616 -24615 0
-24696 24632 24680 24616 -24615 0
-57448 24680 57384 24616 -24615 0
-41072 41008 41064 41000 -40999 0
-41080 41016 41064 41000 -40999 0
-41000 41064 0
-45160 41064 45096 41000 -40999 0
-57448 41064 57384 41000 -40999 0
-49264 49200 49256 49192 -49191 0
-49256 49191 0
-49192 49256 0
-57448 49256 57384 49192 -49191 0
-24647 24655 0
-24648 24656 0
-24672 24656 24664 24648 -24647 0
-24688 24656 24680 24648 -24647 0
-24647 24663 0
-24648 24664 0
-24647 24679 0
-24648 24680 0
-41031 41039 0
-41031 41047 0
-41032 41048 0
-41031 41063 0
-41032 41064 0
-49223 49231 0
-49224 49232 0
-49248 49232 49240 49224 -49223 0
-49264 49232 49256 49224 -49223 0
-49223 49239 0
-49224 49240 0
-49272 49240 49256 49224 -49223 0
-49223 49255 0
-49224 49256 0
-124 4220 0
-123 8315 0
-124 8316 0
-24700 8316 16508 124 -123 0
-41084 8316 32892 124 -123 0
-123 16507 0
-124 16508 0
-49276 16508 32892 124 -123 0
-123 32891 0
-124 32892 0
-8252 8316 0
-24700 8316 24636 8252 -8251 0
-16444 16508 0
-24700 16508 24636 16444 -16443 0
-49276 16508 49212 16444 -16443 0
-32828 32892 0
-49276 32892 49212 32828 -32827 0
-8284 8288 0
-8284 24668 0
-57436 24668 41052 8284 -8283 0
-41052 8283 0
-8284 41052 0
-16480 16475 0
-16476 16480 0
-16512 16480 16508 16476 -16475 0
-16508 16475 0
-16476 16508 0
-16476 24668 0
-57436 24668 49244 16476 -16475 0
-49244 16475 0
-16476 49244 0
-32864 32859 0
-32860 32864 0
-32896 32864 32892 32860 -32859 0
-49248 32864 49244 32860 -32859 0
-32892 32859 0
-32860 32892 0
-49276 32892 49244 32860 -32859 0
-32860 41052 0
-32860 49244 0
-24700 24636 24668 24604 -24603 0
-24604 24668 0
-57436 24668 57372 24604 -24603 0
-57436 41052 57372 40988 -40987 0
-49248 49184 49244 49180 -49179 0
-49276 49212 49244 49180 -49179 0
-49244 49179 0
-49180 49244 0
-57436 49244 57372 49180 -49179 0
-4204 6252 0
-8300 8304 0
-8300 8316 0
-8300 24684 0
-41068 8299 0
-16496 16491 0
-16492 16496 0
-16512 16496 16508 16492 -16491 0
-24688 16496 24684 16492 -16491 0
-16508 16491 0
-16492 16508 0
-49276 16508 49260 16492 -16491 0
-16492 24684 0
-57452 24684 49260 16492 -16491 0
-49260 16491 0
-16492 49260 0
-32880 32875 0
-32876 32880 0
-32896 32880 32892 32876 -32875 0
-41072 32880 41068 32876 -32875 0
-49264 32880 49260 32876 -32875 0
-32892 32875 0
-32876 32892 0
-49276 32892 49260 32876 -32875 0
-32876 41068 0
-57452 41068 49260 32876 -32875 0
-49260 32875 0
-32876 49260 0
-6188 6252 0
-12332 12396 0
-24620 24684 0
-57452 24684 57388 24620 -24619 0
-41004 41068 0
-57452 41068 57388 41004 -41003 0
-49264 49200 49260 49196 -49195 0
-49276 49212 49260 49196 -49195 0
-49260 49195 0
-49196 49260 0
-57452 49260 57388 49196 -49195 0
-6220 6224 0
-20556 20588 0
-24652 24656 0
-28752 24656 28748 24652 -24651 0
-24651 24667 0
-24652 24668 0
-24651 24683 0
-24652 24684 0
-41036 41040 0
-41035 41051 0
-41036 41052 0
-41084 41052 41068 41036 -41035 0
-41036 41068 0
-49228 49232 0
-49248 49232 49244 49228 -49227 0
-49264 49232 49260 49228 -49227 0
-49227 49243 0
-49228 49244 0
-49276 49244 49260 49228 -49227 0
-49227 49259 0
-49228 49260 0
-20596 4211 0
-8320 8312 8316 8308 -8307 0
-8308 12404 0
-57460 24692 41076 8308 -8307 0
-8308 41076 0
-16500 16504 0
-16512 16504 16508 16500 -16499 0
-49272 16504 49268 16500 -16499 0
-16508 16499 0
-16500 16508 0
-24700 16508 24692 16500 -16499 0
-28788 20596 24692 16500 -16499 0
-16500 24692 0
-57460 24692 49268 16500 -16499 0
-49268 16499 0
-16500 49268 0
-32888 32883 0
-32884 32888 0
-32896 32888 32892 32884 -32883 0
-41080 32888 41076 32884 -32883 0
-49272 32888 49268 32884 -32883 0
-32884 32892 0
-49276 32892 49268 32884 -32883 0
-57460 41076 49268 32884 -32883 0
-49268 32883 0
-32884 49268 0
-12340 12404 0
-14452 12404 14388 12340 -12339 0
-20532 20596 0
-24692 24627 0
-24628 24692 0
-41084 41020 41076 41012 -41011 0
-57460 41076 57396 41012 -41011 0
-49272 49208 49268 49204 -49203 0
-49276 49212 49268 49204 -49203 0
-49268 49203 0
-49204 49268 0
-57460 49268 57396 49204 -49203 0
-12372 12380 0
-24660 24664 0
-24672 24664 24668 24660 -24659 0
-24660 24668 0
-24700 24668 24692 24660 -24659 0
-24659 24691 0
-24660 24692 0
-28788 24692 28756 24660 -24659 0
-41044 41048 0
-41044 41052 0
-41044 41076 0
-49236 49240 0
-49248 49240 49244 49236 -49235 0
-49272 49240 49268 49236 -49235 0
-49236 49244 0
-49276 49244 49268 49236 -49235 0
-49235 49267 0
-49236 49268 0
-6244 6248 0
-6244 6260 0
-12388 12392 0
-12400 12392 12396 12388 -12387 0
-30820 14436 28772 12388 -12387 0
-12388 28772 0
-24676 24680 0
-24688 24680 24684 24676 -24675 0
-24696 24680 24692 24676 -24675 0
-24676 24684 0
-28780 24684 28772 24676 -24675 0
-24676 24692 0
-28788 24692 28772 24676 -24675 0
-41060 41064 0
-41060 41068 0
-41060 41076 0
-49252 49256 0
-49264 49256 49260 49252 -49251 0
-49272 49256 49268 49252 -49251 0
-49252 49260 0
-49276 49260 49268 49252 -49251 0
-49252 49268 0
-57412 57416 0
-57412 57420 0
-57412 57428 0
-57412 57444 0
-128 8320 0
-128 16512 0
-128 32896 0
-8288 24672 0
-57440 24672 41056 8288 -8287 0
-57440 24672 49248 16480 -16479 0
-16480 49248 0
-32864 49248 0
-57440 41056 57376 40992 -40991 0
-49184 49248 0
-57440 49248 57376 49184 -49183 0
-14448 6256 12400 4208 -4207 0
-4208 12400 0
-8304 24688 0
-16496 24688 0
-16496 49264 0
-32880 49264 0
-24624 24688 0
-49200 49264 0
-57456 49264 57392 49200 -49199 0
-24656 24688 0
-41040 41072 0
-49232 49248 0
-49232 49264 0
-28688 28752 0
-8312 24696 0
-57464 24696 41080 8312 -8311 0
-8312 41080 0
-16504 49272 0
-32888 49272 0
-36920 36984 0
-57464 24696 57400 24632 -24631 0
-49208 49272 0
-57464 49272 57400 49208 -49207 0
-24704 24672 24696 24664 -24663 0
-24664 24696 0
-41048 41080 0
-49240 49248 0
-49240 49272 0
-36968 45160 0
-24680 24696 0
-41064 41072 0
-41064 41080 0
-49256 49264 0
-49256 49272 0
-57416 57424 0
-57416 57432 0
-57416 57448 0
-8316 24700 0
-57468 24700 41084 8316 -8315 0
-57468 24700 49276 16508 -16507 0
-16508 49276 0
-32892 41084 0
-32892 49276 0
-57468 24700 57404 24636 -24635 0
-41020 41084 0
-49212 49276 0
-49244 49248 0
-49244 49276 0
-24684 24700 0
-49260 49264 0
-49260 49276 0
-28716 28780 0
-57420 57436 0
-57420 57452 0
-24704 24696 24700 24692 -24691 0
-49268 49272 0
-49268 49276 0
-28724 28788 0
-57428 57460 0
-14436 14452 0
-30756 30820 0
-16512 24704 0
-14384 14448 0
-57432 57440 0
-57448 57456 0
-57448 57464 0
-57452 57468 0
-32899 0
-16520 0
-32904 0
-16524 0
-32908 0
-16532 0
-32916 0
-8356 0
-16548 0
-32932 0
-16580 0
-32964 0
-49284 0
-16518 134 16390 6 -5 0
-32902 134 32774 6 -5 0
-16522 138 16394 10 -9 0
-32906 138 32778 10 -9 0
-16530 146 16402 18 -17 0
-32914 146 32786 18 -17 0
-16546 162 16418 34 -33 0
-32930 162 32802 34 -33 0
-32911 143 32783 15 -14 0
-16535 151 16407 23 -22 0
-32919 151 32791 23 -22 0
-16551 167 16423 39 -38 0
-32935 167 32807 39 -38 0
-16583 199 16455 71 -70 0
-32967 199 32839 71 -70 0
-32911 143 32903 135 -134 0
-32919 151 32903 135 -134 0
-32935 167 32903 135 -134 0
-16583 199 16519 135 -134 0
-32967 199 32903 135 -134 0
-16519 134 0
-32903 134 0
-16583 16455 16519 16391 -16390 0
-16519 16390 0
-49287 16519 49159 16391 -16390 0
-32911 32783 32903 32775 -32774 0
-32919 32791 32903 32775 -32774 0
-32935 32807 32903 32775 -32774 0
-32967 32839 32903 32775 -32774 0
-32903 32774 0
-49287 32903 49159 32775 -32774 0
-32923 155 32795 27 -26 0
-32939 171 32811 43 -42 0
-16587 203 16459 75 -74 0
-32971 203 32843 75 -74 0
-32911 143 32907 139 -138 0
-32923 155 32907 139 -138 0
-32939 171 32907 139 -138 0
-16587 203 16523 139 -138 0
-32971 203 32907 139 -138 0
-16523 138 0
-49291 16523 32907 139 -138 0
-32907 138 0
-16587 16459 16523 16395 -16394 0
-16523 16394 0
-49291 16523 49163 16395 -16394 0
-32939 32811 32907 32779 -32778 0
-32971 32843 32907 32779 -32778 0
-32907 32778 0
-49291 32907 49163 32779 -32778 0
-16563 179 16435 51 -50 0
-32947 179 32819 51 -50 0
-16595 211 16467 83 -82 0
-32979 211 32851 83 -82 0
-16535 151 16531 147 -146 0
-32919 151 32915 147 -146 0
-32923 155 32915 147 -146 0
-32947 179 32915 147 -146 0
-32979 211 32915 147 -146 0
-8339 146 0
-16531 146 0
-49299 16531 32915 147 -146 0
-32915 146 0
-16531 16402 0
-20627 16531 20499 16403 -16402 0
-49299 16531 49171 16403 -16402 0
-32923 32795 32915 32787 -32786 0
-32947 32819 32915 32787 -32786 0
-32979 32851 32915 32787 -32786 0
-32915 32786 0
-49299 32915 49171 32787 -32786 0
-16611 227 16483 99 -98 0
-32995 227 32867 99 -98 0
-32935 167 32931 163 -162 0
-32939 171 32931 163 -162 0
-32947 179 32931 163 -162 0
-16611 227 16547 163 -162 0
-32995 227 32931 163 -162 0
-16547 162 0
-32931 162 0
-8363 8235 8355 8227 -8226 0
-16551 16423 16547 16419 -16418 0
-16611 16483 16547 16419 -16418 0
-49315 16547 49187 16419 -16418 0
-32935 32807 32931 32803 -32802 0
-32939 32811 32931 32803 -32802 0
-32947 32819 32931 32803 -32802 0
-32995 32867 32931 32803 -32802 0
-32931 32802 0
-49315 32931 49187 32803 -32802 0
-16514 16518 0
-16514 16522 0
-16514 16530 0
-16514 16546 0
-16579 16514 0
-32898 32902 0
-32919 32903 32915 32899 -32898 0
-32898 32906 0
-32898 32914 0
-32898 32930 0
-32963 32898 0
-8352 160 8224 32 -31 0
-16544 160 16416 32 -31 0
-32928 160 32800 32 -31 0
-8368 176 8240 48 -47 0
-16560 176 16432 48 -47 0
-32944 176 32816 48 -47 0
-16591 207 16463 79 -78 0
-16592 208 16464 80 -79 0
-32975 207 32847 79 -78 0
-32976 208 32848 80 -79 0
-32928 160 32912 144 -143 0
-32944 176 32912 144 -143 0
-16592 208 16528 144 -143 0
-32976 208 32912 144 -143 0
-143 16527 0
-16528 143 0
-49296 16528 32912 144 -143 0
-143 32911 0
-32912 143 0
-8352 8224 8336 8208 -8207 0
-16544 16416 16528 16400 -16399 0
-16592 16464 16528 16400 -16399 0
-24720 16528 24592 16400 -16399 0
-49296 16528 49168 16400 -16399 0
-32928 32800 32912 32784 -32783 0
-32944 32816 32912 32784 -32783 0
-32976 32848 32912 32784 -32783 0
-32783 32911 0
-32912 32783 0
-49295 32911 49167 32783 -32782 0
-49296 32912 49168 32784 -32783 0
-8376 184 8248 56 -55 0
-16568 184 16440 56 -55 0
-32952 184 32824 56 -55 0
-16599 215 16471 87 -86 0
-16600 216 16472 88 -87 0
-32983 215 32855 87 -86 0
-32984 216 32856 88 -87 0
-16544 160 16536 152 -151 0
-32928 160 32920 152 -151 0
-32952 184 32920 152 -151 0
-16599 215 16535 151 -150 0
-16600 216 16536 152 -151 0
-32984 216 32920 152 -151 0
-151 16535 0
-16536 151 0
-49304 16536 32920 152 -151 0
-151 32919 0
-32920 151 0
-41112 8344 40984 8216 -8215 0
-16568 16440 16536 16408 -16407 0
-16600 16472 16536 16408 -16407 0
-16536 16407 0
-49304 16536 49176 16408 -16407 0
-32928 32800 32920 32792 -32791 0
-32952 32824 32920 32792 -32791 0
-32984 32856 32920 32792 -32791 0
-32791 32919 0
-32920 32791 0
-49304 32920 49176 32792 -32791 0
-16615 231 16487 103 -102 0
-16616 232 16488 104 -103 0
-33000 232 32872 104 -103 0
-32944 176 32936 168 -167 0
-32952 184 32936 168 -167 0
-8424 232 8360 168 -167 0
-33000 232 32936 168 -167 0
-16552 167 0
-167 32935 0
-32936 167 0
-8231 8359 0
-16616 16488 16552 16424 -16423 0
-49320 16552 49192 16424 -16423 0
-32944 32816 32936 32808 -32807 0
-32952 32824 32936 32808 -32807 0
-33000 32872 32936 32808 -32807 0
-32807 32935 0
-32936 32807 0
-49320 32936 49192 32808 -32807 0
-32976 208 32968 200 -199 0
-32984 216 32968 200 -199 0
-33000 232 32968 200 -199 0
-16584 199 0
-49352 16584 32968 200 -199 0
-32968 199 0
-16592 16464 16584 16456 -16455 0
-16600 16472 16584 16456 -16455 0
-16616 16488 16584 16456 -16455 0
-16584 16455 0
-49352 16584 49224 16456 -16455 0
-32976 32848 32968 32840 -32839 0
-32984 32856 32968 32840 -32839 0
-33000 32872 32968 32840 -32839 0
-32968 32839 0
-49352 32968 49224 32840 -32839 0
-16519 16527 0
-16544 16528 16536 16520 -16519 0
-16519 16535 0
-16568 16536 16552 16520 -16519 0
-16519 16551 0
-16584 16519 0
-49352 16584 49288 16520 -16519 0
-24712 16519 0
-49288 16519 0
-32903 32911 0
-32912 32903 0
-32928 32912 32920 32904 -32903 0
-32944 32912 32936 32904 -32903 0
-32976 32912 32968 32904 -32903 0
-32903 32919 0
-32920 32903 0
-32984 32920 32968 32904 -32903 0
-49304 32920 49288 32904 -32903 0
-32903 32935 0
-32936 32903 0
-33000 32936 32968 32904 -32903 0
-32968 32903 0
-49352 32968 49288 32904 -32903 0
-49288 32903 0
-12440 12312 12424 12296 -12295 0
-28808 24712 28680 24584 -24583 0
-49320 49192 49288 49160 -49159 0
-49352 49224 49288 49160 -49159 0
-49288 49159 0
-16572 188 16444 60 -59 0
-32956 188 32828 60 -59 0
-16603 219 16475 91 -90 0
-16604 220 16476 92 -91 0
-32987 219 32859 91 -90 0
-32988 220 32860 92 -91 0
-16544 160 16540 156 -155 0
-32928 160 32924 156 -155 0
-32956 188 32924 156 -155 0
-16604 220 16540 156 -155 0
-32988 220 32924 156 -155 0
-49308 16540 32924 156 -155 0
-155 32923 0
-32924 155 0
-8380 8252 8348 8220 -8219 0
-16540 16411 0
-49307 16539 49179 16411 -16410 0
-32928 32800 32924 32796 -32795 0
-32956 32828 32924 32796 -32795 0
-32988 32860 32924 32796 -32795 0
-32795 32923 0
-32924 32795 0
-49307 32923 49179 32795 -32794 0
-49308 32924 49180 32796 -32795 0
-8428 236 8300 108 -107 0
-16619 235 16491 107 -106 0
-16620 236 16492 108 -107 0
-33003 235 32875 107 -106 0
-33004 236 32876 108 -107 0
-16560 176 16556 172 -171 0
-32944 176 32940 172 -171 0
-32956 188 32940 172 -171 0
-16620 236 16556 172 -171 0
-33004 236 32940 172 -171 0
-171 8363 0
-41132 8364 32940 172 -171 0
-171 32939 0
-32940 171 0
-8364 8235 0
-16620 16492 16556 16428 -16427 0
-16556 16427 0
-49324 16556 49196 16428 -16427 0
-32944 32816 32940 32812 -32811 0
-32956 32828 32940 32812 -32811 0
-33004 32876 32940 32812 -32811 0
-32811 32939 0
-32940 32811 0
-49323 32939 49195 32811 -32810 0
-49324 32940 49196 32812 -32811 0
-32976 208 32972 204 -203 0
-32988 220 32972 204 -203 0
-33004 236 32972 204 -203 0
-16588 203 0
-49356 16588 32972 204 -203 0
-32972 203 0
-16592 16464 16588 16460 -16459 0
-16604 16476 16588 16460 -16459 0
-16588 16459 0
-24780 16588 24652 16460 -16459 0
-49356 16588 49228 16460 -16459 0
-32976 32848 32972 32844 -32843 0
-32988 32860 32972 32844 -32843 0
-33004 32876 32972 32844 -32843 0
-32972 32843 0
-41164 32972 41036 32844 -32843 0
-49356 32972 49228 32844 -32843 0
-16540 16523 0
-49356 16588 49292 16524 -16523 0
-49292 16523 0
-32907 32911 0
-32912 32907 0
-32944 32912 32940 32908 -32907 0
-32976 32912 32972 32908 -32907 0
-32907 32923 0
-32924 32907 0
-32956 32924 32940 32908 -32907 0
-32988 32924 32972 32908 -32907 0
-32907 32939 0
-32940 32907 0
-33004 32940 32972 32908 -32907 0
-49324 32940 49292 32908 -32907 0
-32972 32907 0
-49356 32972 49292 32908 -32907 0
-49292 32907 0
-49296 49168 49292 49164 -49163 0
-49308 49180 49292 49164 -49163 0
-49356 49228 49292 49164 -49163 0
-49292 49163 0
-16627 243 16499 115 -114 0
-16628 244 16500 116 -115 0
-33011 243 32883 115 -114 0
-33012 244 32884 116 -115 0
-16568 184 16564 180 -179 0
-32952 184 32948 180 -179 0
-32956 188 32948 180 -179 0
-8436 244 8372 180 -179 0
-16628 244 16564 180 -179 0
-33012 244 32948 180 -179 0
-179 16563 0
-179 32947 0
-32948 179 0
-8372 8243 0
-16572 16444 16564 16436 -16435 0
-16564 16435 0
-24756 16564 24628 16436 -16435 0
-49331 16563 49203 16435 -16434 0
-32952 32824 32948 32820 -32819 0
-32956 32828 32948 32820 -32819 0
-33012 32884 32948 32820 -32819 0
-32819 32947 0
-32948 32819 0
-49332 32948 49204 32820 -32819 0
-16600 216 16596 212 -211 0
-32984 216 32980 212 -211 0
-16604 220 16596 212 -211 0
-32988 220 32980 212 -211 0
-33012 244 32980 212 -211 0
-16596 211 0
-49364 16596 32980 212 -211 0
-32980 211 0
-16600 16472 16596 16468 -16467 0
-16604 16476 16596 16468 -16467 0
-16628 16500 16596 16468 -16467 0
-16596 16467 0
-49364 16596 49236 16468 -16467 0
-32984 32856 32980 32852 -32851 0
-32988 32860 32980 32852 -32851 0
-33012 32884 32980 32852 -32851 0
-32980 32851 0
-49364 32980 49236 32852 -32851 0
-20628 4243 0
-24724 8339 0
-16572 16540 16564 16532 -16531 0
-16564 16531 0
-49300 16531 0
-32915 32919 0
-32920 32915 0
-32928 32920 32924 32916 -32915 0
-32984 32920 32980 32916 -32915 0
-32915 32923 0
-32924 32915 0
-32956 32924 32948 32916 -32915 0
-32988 32924 32980 32916 -32915 0
-32915 32947 0
-32948 32915 0
-33012 32948 32980 32916 -32915 0
-32980 32915 0
-49364 32980 49300 32916 -32915 0
-49300 32915 0
-28820 20628 28692 20500 -20499 0
-24732 24604 24724 24596 -24595 0
-49364 49236 49300 49172 -49171 0
-49300 49171 0
-33000 232 32996 228 -227 0
-16620 236 16612 228 -227 0
-33004 236 32996 228 -227 0
-16628 244 16612 228 -227 0
-33012 244 32996 228 -227 0
-16612 227 0
-49380 16612 32996 228 -227 0
-32996 227 0
-16628 16500 16612 16484 -16483 0
-16612 16483 0
-49380 16612 49252 16484 -16483 0
-33000 32872 32996 32868 -32867 0
-33004 32876 32996 32868 -32867 0
-33012 32884 32996 32868 -32867 0
-32996 32867 0
-49380 32996 49252 32868 -32867 0
-24744 8360 24740 8356 -8355 0
-16547 16563 0
-49380 16612 49316 16548 -16547 0
-49316 16547 0
-32931 32935 0
-32936 32931 0
-32944 32936 32940 32932 -32931 0
-32952 32936 32948 32932 -32931 0
-33000 32936 32996 32932 -32931 0
-32931 32939 0
-32940 32931 0
-32956 32940 32948 32932 -32931 0
-33004 32940 32996 32932 -32931 0
-32931 32947 0
-32948 32931 0
-33012 32948 32996 32932 -32931 0
-32996 32931 0
-49380 32996 49316 32932 -32931 0
-57508 41124 49316 32932 -32931 0
-49320 49192 49316 49188 -49187 0
-49380 49252 49316 49188 -49187 0
-49316 49187 0
-16579 16583 0
-16600 16584 16596 16580 -16579 0
-16579 16587 0
-16604 16588 16596 16580 -16579 0
-16620 16588 16612 16580 -16579 0
-16579 16595 0
-16628 16596 16612 16580 -16579 0
-16579 16611 0
-49348 16579 0
-32963 32967 0
-32976 32968 32972 32964 -32963 0
-32984 32968 32980 32964 -32963 0
-33000 32968 32996 32964 -32963 0
-32963 32971 0
-32988 32972 32980 32964 -32963 0
-33004 32972 32996 32964 -32963 0
-32963 32979 0
-33012 32980 32996 32964 -32963 0
-32963 32995 0
-49348 32963 0
-20611 20627 0
-28804 20611 0
-49283 49287 0
-49296 49288 49292 49284 -49283 0
-49304 49288 49300 49284 -49283 0
-49283 49291 0
-49308 49292 49300 49284 -49283 0
-49324 49292 49316 49284 -49283 0
-49283 49299 0
-57492 49300 57476 49284 -49283 0
-49283 49315 0
-49348 49283 0
-28812 28684 28804 28676 -28675 0
-28836 28708 28804 28676 -28675 0
-28675 28803 0
-16608 224 16480 96 -95 0
-32992 224 32864 96 -95 0
-16608 224 16544 160 -159 0
-32992 224 32928 160 -159 0
-160 8352 0
-159 16543 0
-160 16544 0
-160 32928 0
-16416 16544 0
-49312 16544 49184 16416 -16415 0
-32992 32864 32928 32800 -32799 0
-32800 32928 0
-16624 240 16496 112 -111 0
-33008 240 32880 112 -111 0
-33008 240 32944 176 -175 0
-175 16559 0
-49328 16560 32944 176 -175 0
-175 32943 0
-176 32944 0
-16624 16496 16560 16432 -16431 0
-33008 32880 32944 32816 -32815 0
-32816 32944 0
-49328 32944 49200 32816 -32815 0
-32992 224 32976 208 -207 0
-33008 240 32976 208 -207 0
-16592 207 0
-208 16592 0
-49360 16592 32976 208 -207 0
-32976 207 0
-208 32976 0
-16592 16463 0
-16464 16592 0
-49360 16592 49232 16464 -16463 0
-32992 32864 32976 32848 -32847 0
-33008 32880 32976 32848 -32847 0
-32976 32847 0
-32848 32976 0
-49360 32976 49232 32848 -32847 0
-8336 24720 0
-16528 16544 0
-16576 16544 16560 16528 -16527 0
-49312 16544 49296 16528 -16527 0
-16528 16560 0
-49296 16527 0
-16528 49296 0
-32912 32928 0
-32912 32944 0
-32976 32911 0
-32912 32976 0
-49360 32976 49296 32912 -32911 0
-49360 49232 49296 49168 -49167 0
-49168 49296 0
-16632 248 16504 120 -119 0
-33016 248 32888 120 -119 0
-33016 248 32952 184 -183 0
-20664 4280 16568 184 -183 0
-183 16567 0
-184 16568 0
-49336 16568 32952 184 -183 0
-183 32951 0
-184 32952 0
-16440 16568 0
-24760 16568 24632 16440 -16439 0
-33016 32888 32952 32824 -32823 0
-32824 32952 0
-49336 32952 49208 32824 -32823 0
-16608 224 16600 216 -215 0
-32992 224 32984 216 -215 0
-16632 248 16600 216 -215 0
-33016 248 32984 216 -215 0
-49368 16600 32984 216 -215 0
-32984 215 0
-216 32984 0
-16632 16504 16600 16472 -16471 0
-16600 16471 0
-49368 16600 49240 16472 -16471 0
-32992 32864 32984 32856 -32855 0
-33016 32888 32984 32856 -32855 0
-32984 32855 0
-32856 32984 0
-49368 32984 49240 32856 -32855 0
-8344 12440 0
-16536 16568 0
-16536 16600 0
-49368 16600 49304 16536 -16535 0
-16536 49304 0
-32920 32928 0
-32992 32928 32984 32920 -32919 0
-32920 32952 0
-32984 32919 0
-32920 32984 0
-49368 32984 49304 32920 -32919 0
-32920 41112 0
-49368 49240 49304 49176 -49175 0
-16624 240 16616 232 -231 0
-33008 240 33000 232 -231 0
-33016 248 33000 232 -231 0
-232 16616 0
-33000 231 0
-232 33000 0
-8296 8424 0
-16624 16496 16616 16488 -16487 0
-16616 16487 0
-49384 16616 49256 16488 -16487 0
-33008 32880 33000 32872 -32871 0
-33016 32888 33000 32872 -32871 0
-33000 32871 0
-32872 33000 0
-41192 33000 41064 32872 -32871 0
-49384 33000 49256 32872 -32871 0
-8360 8368 0
-8360 8376 0
-16552 16560 0
-16552 16568 0
-16552 16616 0
-49320 16551 0
-32936 32944 0
-32960 32944 32952 32936 -32935 0
-49328 32944 49320 32936 -32935 0
-32936 32952 0
-33016 32952 33000 32936 -32935 0
-49336 32952 49320 32936 -32935 0
-33000 32935 0
-32936 33000 0
-49384 33000 49320 32936 -32935 0
-32936 49320 0
-24616 24744 0
-49384 49256 49320 49192 -49191 0
-16583 16591 0
-16584 16592 0
-16608 16592 16600 16584 -16583 0
-16583 16599 0
-16584 16600 0
-16583 16615 0
-16584 16616 0
-32967 32975 0
-32968 32976 0
-32992 32976 32984 32968 -32967 0
-33008 32976 33000 32968 -32967 0
-32967 32983 0
-32968 32984 0
-33016 32984 33000 32968 -32967 0
-32967 32999 0
-32968 33000 0
-12424 28808 0
-49287 49295 0
-49288 49296 0
-49328 49296 49320 49288 -49287 0
-49288 49304 0
-49288 49320 0
-16636 252 16508 124 -123 0
-33020 252 32892 124 -123 0
-16636 252 16572 188 -187 0
-33020 252 32956 188 -187 0
-188 8380 0
-188 16572 0
-187 32955 0
-188 32956 0
-49340 16572 49212 16444 -16443 0
-33020 32892 32956 32828 -32827 0
-32828 32956 0
-49340 32956 49212 32828 -32827 0
-16608 224 16604 220 -219 0
-32992 224 32988 220 -219 0
-33020 252 32988 220 -219 0
-220 16604 0
-49372 16604 32988 220 -219 0
-32988 219 0
-220 32988 0
-16636 16508 16604 16476 -16475 0
-49372 16604 49244 16476 -16475 0
-32992 32864 32988 32860 -32859 0
-33020 32892 32988 32860 -32859 0
-32988 32859 0
-32860 32988 0
-49372 32988 49244 32860 -32859 0
-8348 8352 0
-16540 16604 0
-49372 16604 49308 16540 -16539 0
-32924 32928 0
-32992 32928 32988 32924 -32923 0
-32924 32956 0
-33020 32956 32988 32924 -32923 0
-49340 32956 49308 32924 -32923 0
-32988 32923 0
-32924 32988 0
-49372 32988 49308 32924 -32923 0
-32924 49308 0
-24764 24636 24732 24604 -24603 0
-49372 49244 49308 49180 -49179 0
-49308 49179 0
-16624 240 16620 236 -235 0
-33008 240 33004 236 -235 0
-33020 252 33004 236 -235 0
-236 16620 0
-49388 16620 33004 236 -235 0
-33004 235 0
-236 33004 0
-8432 8304 8428 8300 -8299 0
-16620 16491 0
-16492 16620 0
-49388 16620 49260 16492 -16491 0
-33008 32880 33004 32876 -32875 0
-33020 32892 33004 32876 -32875 0
-33004 32875 0
-32876 33004 0
-49388 33004 49260 32876 -32875 0
-4268 12460 0
-16556 16560 0
-16556 16572 0
-32940 32944 0
-33008 32944 33004 32940 -32939 0
-32940 32956 0
-33004 32939 0
-32940 33004 0
-49388 33004 49324 32940 -32939 0
-32940 49324 0
-49328 49200 49324 49196 -49195 0
-49324 49195 0
-16588 16592 0
-16587 16603 0
-16588 16604 0
-16587 16619 0
-16588 16620 0
-24812 16620 24780 16588 -16587 0
-32972 32976 0
-32992 32976 32988 32972 -32971 0
-33008 32976 33004 32972 -32971 0
-32971 32987 0
-32972 32988 0
-33020 32988 33004 32972 -32971 0
-32971 33003 0
-32972 33004 0
-41196 41068 41164 41036 -41035 0
-49292 49296 0
-49291 49307 0
-49292 49308 0
-49340 49308 49324 49292 -49291 0
-49291 49323 0
-49292 49324 0
-33016 248 33012 244 -243 0
-33020 252 33012 244 -243 0
-16628 243 0
-244 16628 0
-33012 243 0
-244 33012 0
-8440 8312 8436 8308 -8307 0
-16500 16628 0
-49396 16628 49268 16500 -16499 0
-33016 32888 33012 32884 -32883 0
-33020 32892 33012 32884 -32883 0
-33012 32883 0
-32884 33012 0
-49396 33012 49268 32884 -32883 0
-16564 16568 0
-24760 16568 24756 16564 -16563 0
-16564 16628 0
-49396 16628 49332 16564 -16563 0
-16564 49332 0
-32952 32947 0
-32948 32952 0
-32956 32947 0
-32948 32956 0
-33020 32956 33012 32948 -32947 0
-33012 32947 0
-32948 33012 0
-49396 33012 49332 32948 -32947 0
-49332 49203 0
-16596 16600 0
-16608 16600 16604 16596 -16595 0
-16596 16604 0
-16595 16627 0
-16596 16628 0
-32980 32984 0
-32992 32984 32988 32980 -32979 0
-33016 32984 33012 32980 -32979 0
-32980 32988 0
-33020 32988 33012 32980 -32979 0
-32979 33011 0
-32980 33012 0
-49300 49304 0
-49300 49308 0
-49299 49331 0
-49300 49332 0
-57364 57492 0
-16612 16616 0
-16624 16616 16620 16612 -16611 0
-16612 16620 0
-16612 16628 0
-32996 33000 0
-33008 33000 33004 32996 -32995 0
-33016 33000 33012 32996 -32995 0
-32996 33004 0
-33020 33004 33012 32996 -32995 0
-32996 33012 0
-24740 57508 0
-41124 41132 0
-49316 49320 0
-49316 49324 0
-49316 49332 0
-49348 49352 0
-49348 49356 0
-49348 49364 0
-49348 49380 0
-28844 28812 28836 28804 -28803 0
-28804 28820 0
-57476 57484 0
-192 16576 0
-192 32960 0
-224 16608 0
-49376 16608 32992 224 -223 0
-224 32992 0
-16480 16608 0
-49376 16608 49248 16480 -16479 0
-32864 32992 0
-49376 32992 49248 32864 -32863 0
-8352 24736 0
-49376 16608 49312 16544 -16543 0
-32928 32992 0
-240 8432 0
-240 16624 0
-49392 16624 33008 240 -239 0
-240 33008 0
-16496 16624 0
-49392 16624 49264 16496 -16495 0
-32880 33008 0
-49392 33008 49264 32880 -32879 0
-4272 12464 0
-16560 16624 0
-49392 16624 49328 16560 -16559 0
-16560 49328 0
-32944 33008 0
-49392 33008 49328 32944 -32943 0
-32944 49328 0
-49392 49264 49328 49200 -49199 0
-16592 16608 0
-16592 16624 0
-32976 32992 0
-33024 32992 33008 32976 -32975 0
-32976 33008 0
-32976 41168 0
-248 8440 0
-49400 16632 33016 248 -247 0
-248 33016 0
-16504 16632 0
-32888 33016 0
-28856 20664 24760 16568 -16567 0
-49400 33016 49336 32952 -32951 0
-32952 49336 0
-24632 24760 0
-16600 16608 0
-16600 16632 0
-32984 32992 0
-33024 32992 33016 32984 -32983 0
-32984 33016 0
-28696 28824 0
-33000 33008 0
-33024 33008 33016 33000 -32999 0
-33000 33016 0
-41200 41072 41192 41064 -41063 0
-49320 49336 0
-49352 49360 0
-49352 49368 0
-49352 49384 0
-252 16636 0
-49404 16636 33020 252 -251 0
-252 33020 0
-32892 33020 0
-49404 33020 49276 32892 -32891 0
-8380 24764 0
-32956 33020 0
-49404 33020 49340 32956 -32955 0
-49212 49340 0
-32988 32992 0
-32988 33020 0
-49308 49340 0
-16620 16636 0
-33004 33008 0
-33004 33020 0
-33004 41196 0
-24684 24812 0
-12460 28844 0
-49324 49328 0
-49356 49372 0
-49356 49388 0
-33012 33020 0
-49364 49396 0
-32896 33024 0
-41168 41200 0
-49368 49376 0
-28824 28856 0
-49384 49392 0
-49384 49400 0
-49388 49404 0
-33027 0
-16648 0
-33032 0
-33036 0
-33044 0
-33060 0
-33092 0
-16772 0
-33156 0
-49412 0
-33042 274 32786 18 -17 0
-33058 290 32802 34 -33 0
-33039 271 32783 15 -14 0
-33047 279 32791 23 -22 0
-33063 295 32807 39 -38 0
-33095 327 32839 71 -70 0
-33159 391 32903 135 -134 0
-33159 391 33031 263 -262 0
-16647 262 0
-33031 262 0
-33095 32839 33031 32775 -32774 0
-33159 32903 33031 32775 -32774 0
-33031 32774 0
-33051 283 32795 27 -26 0
-33067 299 32811 43 -42 0
-33099 331 32843 75 -74 0
-33163 395 32907 139 -138 0
-16655 271 16651 267 -266 0
-33039 271 33035 267 -266 0
-16683 299 16651 267 -266 0
-33067 299 33035 267 -266 0
-33035 266 0
-33051 32795 33035 32779 -32778 0
-33099 32843 33035 32779 -32778 0
-33035 32778 0
-33075 307 32819 51 -50 0
-33107 339 32851 83 -82 0
-33171 403 32915 147 -146 0
-33051 283 33043 275 -274 0
-33075 307 33043 275 -274 0
-33107 339 33043 275 -274 0
-33171 403 33043 275 -274 0
-16659 274 0
-33043 274 0
-16723 16467 16659 16403 -16402 0
-33107 32851 33043 32787 -32786 0
-33043 32786 0
-33123 355 32867 99 -98 0
-33187 419 32931 163 -162 0
-33063 295 33059 291 -290 0
-33123 355 33059 291 -290 0
-33187 419 33059 291 -290 0
-16675 290 0
-33059 290 0
-33075 32819 33059 32803 -32802 0
-33123 32867 33059 32803 -32802 0
-33059 32802 0
-16787 403 16771 387 -386 0
-49415 33031 49411 33027 -33026 0
-33026 33042 0
-33026 33058 0
-33091 33026 0
-16672 288 16416 32 -31 0
-33056 288 32800 32 -31 0
-33072 304 32816 48 -47 0
-33103 335 32847 79 -78 0
-33104 336 32848 80 -79 0
-33168 400 32912 144 -143 0
-33072 304 33040 272 -271 0
-16656 271 0
-33040 271 0
-8528 8272 8464 8208 -8207 0
-16399 16655 0
-24848 16656 24592 16400 -16399 0
-33056 32800 33040 32784 -32783 0
-33104 32848 33040 32784 -32783 0
-33168 32912 33040 32784 -32783 0
-32783 33039 0
-33040 32783 0
-16696 312 16440 56 -55 0
-33080 312 32824 56 -55 0
-33111 343 32855 87 -86 0
-33112 344 32856 88 -87 0
-16792 408 16536 152 -151 0
-33176 408 32920 152 -151 0
-33056 288 33048 280 -279 0
-33080 312 33048 280 -279 0
-16728 344 16664 280 -279 0
-33112 344 33048 280 -279 0
-49432 16664 33048 280 -279 0
-279 33047 0
-16696 16440 16664 16408 -16407 0
-33056 32800 33048 32792 -32791 0
-33112 32856 33048 32792 -32791 0
-33048 32791 0
-49432 33048 49176 32792 -32791 0
-33128 360 32872 104 -103 0
-8616 424 8360 168 -167 0
-33192 424 32936 168 -167 0
-16688 304 16680 296 -295 0
-33072 304 33064 296 -295 0
-33080 312 33064 296 -295 0
-33192 424 33064 296 -295 0
-16680 295 0
-33064 295 0
-24872 16680 24616 16424 -16423 0
-49448 16680 49192 16424 -16423 0
-33072 32816 33064 32808 -32807 0
-33128 32872 33064 32808 -32807 0
-33192 32936 33064 32808 -32807 0
-33064 32807 0
-33224 456 32968 200 -199 0
-33112 344 33096 328 -327 0
-16744 360 16712 328 -327 0
-33224 456 33096 328 -327 0
-33096 327 0
-33104 32848 33096 32840 -32839 0
-33112 32856 33096 32840 -32839 0
-33224 32968 33096 32840 -32839 0
-33096 32839 0
-33168 400 33160 392 -391 0
-33176 408 33160 392 -391 0
-33224 456 33160 392 -391 0
-33160 391 0
-33176 32920 33160 32904 -32903 0
-33224 32968 33160 32904 -32903 0
-33160 32903 0
-24856 16664 24840 16648 -16647 0
-16712 16647 0
-49416 16647 0
-33031 33039 0
-33031 33047 0
-33031 33063 0
-33096 33031 0
-33224 33096 33160 33032 -33031 0
-33160 33031 0
-49416 33031 0
-49159 49415 0
-57608 49416 57352 49160 -49159 0
-16700 316 16444 60 -59 0
-33084 316 32828 60 -59 0
-16732 348 16476 92 -91 0
-33116 348 32860 92 -91 0
-33180 412 32924 156 -155 0
-16672 288 16668 284 -283 0
-33056 288 33052 284 -283 0
-41244 8476 33052 284 -283 0
-16668 283 0
-283 33051 0
-33052 283 0
-24860 16668 24604 16412 -16411 0
-33056 32800 33052 32796 -32795 0
-33116 32860 33052 32796 -32795 0
-32795 33051 0
-33052 32795 0
-33131 363 32875 107 -106 0
-33132 364 32876 108 -107 0
-33196 428 32940 172 -171 0
-16700 316 16684 300 -299 0
-33084 316 33068 300 -299 0
-33132 364 33068 300 -299 0
-33195 427 33067 299 -298 0
-33196 428 33068 300 -299 0
-16684 299 0
-33068 299 0
-16427 16683 0
-16684 16427 0
-24876 16684 24620 16428 -16427 0
-33132 32876 33068 32812 -32811 0
-33196 32940 33068 32812 -32811 0
-32811 33067 0
-33068 32811 0
-33228 460 32972 204 -203 0
-16720 336 16716 332 -331 0
-33116 348 33100 332 -331 0
-33132 364 33100 332 -331 0
-33228 460 33100 332 -331 0
-331 16715 0
-33100 331 0
-33132 32876 33100 32844 -32843 0
-33228 32972 33100 32844 -32843 0
-33100 32843 0
-33168 400 33164 396 -395 0
-33228 460 33164 396 -395 0
-33164 395 0
-33168 32912 33164 32908 -32907 0
-33228 32972 33164 32908 -32907 0
-33164 32907 0
-16651 24843 0
-33035 33039 0
-33072 33040 33068 33036 -33035 0
-33052 33035 0
-33084 33052 33068 33036 -33035 0
-33180 33052 33164 33036 -33035 0
-33196 33068 33164 33036 -33035 0
-33100 33035 0
-33164 33035 0
-49420 33035 0
-24860 24604 24844 24588 -24587 0
-57612 24844 57356 24588 -24587 0
-49424 49168 49420 49164 -49163 0
-49163 49419 0
-57612 49420 57356 49164 -49163 0
-33139 371 32883 115 -114 0
-33140 372 32884 116 -115 0
-33204 436 32948 180 -179 0
-33139 371 33075 307 -306 0
-33140 372 33076 308 -307 0
-33203 435 33075 307 -306 0
-33204 436 33076 308 -307 0
-307 33075 0
-33076 307 0
-16700 16444 16692 16436 -16435 0
-16692 16435 0
-24884 16692 24628 16436 -16435 0
-33080 32824 33076 32820 -32819 0
-33139 32883 33075 32819 -32818 0
-33140 32884 33076 32820 -32819 0
-32819 33075 0
-33076 32819 0
-49460 33076 49204 32820 -32819 0
-33236 468 32980 212 -211 0
-33112 344 33108 340 -339 0
-33116 348 33108 340 -339 0
-33236 468 33108 340 -339 0
-33108 339 0
-33236 32980 33108 32852 -32851 0
-33108 32851 0
-33176 408 33172 404 -403 0
-33180 412 33172 404 -403 0
-33236 468 33172 404 -403 0
-16788 403 0
-33172 403 0
-16531 16787 0
-33176 32920 33172 32916 -32915 0
-33236 32980 33172 32916 -32915 0
-33172 32915 0
-33043 33047 0
-33080 33048 33076 33044 -33043 0
-33043 33075 0
-33108 33043 0
-33236 33108 33172 33044 -33043 0
-33043 49427 0
-24856 24600 24852 24596 -24595 0
-41240 40984 41236 40980 -40979 0
-49432 49176 49428 49172 -49171 0
-33252 484 32996 228 -227 0
-33252 484 33124 356 -355 0
-33124 355 0
-33132 32876 33124 32868 -32867 0
-33140 32884 33124 32868 -32867 0
-33252 32996 33124 32868 -32867 0
-33124 32867 0
-33192 424 33188 420 -419 0
-33252 484 33188 420 -419 0
-33188 419 0
-33196 32940 33188 32932 -32931 0
-33252 32996 33188 32932 -32931 0
-33188 32931 0
-49444 16675 0
-33072 33064 33068 33060 -33059 0
-33192 33064 33188 33060 -33059 0
-33068 33059 0
-33084 33068 33076 33060 -33059 0
-33059 33075 0
-33076 33059 0
-33124 33059 0
-33252 33124 33188 33060 -33059 0
-49452 49196 49444 49188 -49187 0
-16840 456 16836 452 -451 0
-16707 16723 0
-16836 16707 0
-33091 33095 0
-33112 33096 33108 33092 -33091 0
-33091 33099 0
-33091 33107 0
-33140 33108 33124 33092 -33091 0
-33091 33123 0
-33220 33091 0
-24980 16788 24964 16772 -16771 0
-33155 33159 0
-33168 33160 33164 33156 -33155 0
-33192 33160 33188 33156 -33155 0
-33155 33163 0
-33196 33164 33188 33156 -33155 0
-33155 33171 0
-33204 33172 33188 33156 -33155 0
-33155 33187 0
-33220 33155 0
-24835 24843 0
-24964 24835 0
-49424 49416 49420 49412 -49411 0
-57608 57352 57604 57348 -57347 0
-57620 57364 57604 57348 -57347 0
-57636 57380 57604 57348 -57347 0
-57347 57603 0
-33120 352 32864 96 -95 0
-288 33056 0
-16416 16672 0
-33120 32864 33056 32800 -32799 0
-32800 33056 0
-33136 368 32880 112 -111 0
-33136 368 33072 304 -303 0
-304 33072 0
-16432 16688 0
-33136 32880 33072 32816 -32815 0
-33200 32944 33072 32816 -32815 0
-32816 33072 0
-33232 464 32976 208 -207 0
-33232 464 33104 336 -335 0
-336 8528 0
-33104 335 0
-33232 32976 33168 32912 -32911 0
-32912 33168 0
-33040 33056 0
-33040 33072 0
-33232 33104 33168 33040 -33039 0
-33040 33168 0
-24864 24608 24848 24592 -24591 0
-49168 49424 0
-41272 8504 33080 312 -311 0
-312 16696 0
-312 33080 0
-32824 33080 0
-33240 472 32984 216 -215 0
-16736 352 16728 344 -343 0
-33240 472 33112 344 -343 0
-49496 16728 33112 344 -343 0
-33112 343 0
-33240 32984 33112 32856 -32855 0
-32856 33112 0
-408 33176 0
-33240 32984 33176 32920 -32919 0
-32920 33176 0
-8472 24856 0
-8472 41240 0
-16664 16672 0
-16664 16696 0
-16664 16792 0
-16664 24856 0
-16664 49432 0
-33048 33056 0
-33088 33056 33080 33048 -33047 0
-33184 33056 33176 33048 -33047 0
-33048 33080 0
-33048 33112 0
-33048 49432 0
-49464 49208 49432 49176 -49175 0
-49176 49432 0
-33256 488 33000 232 -231 0
-16488 16744 0
-33256 33000 33128 32872 -32871 0
-8632 8376 8616 8360 -8359 0
-33200 32944 33192 32936 -32935 0
-33256 33000 33192 32936 -32935 0
-32936 33192 0
-33072 33063 0
-33064 33072 0
-33064 33080 0
-33128 33063 0
-33064 33128 0
-33192 33063 0
-33064 33192 0
-16584 16840 0
-33095 33103 0
-33096 33104 0
-33095 33111 0
-33096 33112 0
-33096 33128 0
-33184 33168 33176 33160 -33159 0
-33160 33176 0
-33160 33192 0
-24840 24872 0
-49416 49448 0
-57624 57368 57608 57352 -57351 0
-33148 380 32892 124 -123 0
-33212 444 32956 188 -187 0
-316 16700 0
-316 33084 0
-16764 16508 16700 16444 -16443 0
-24892 16700 24636 16444 -16443 0
-32828 33084 0
-49468 33084 49212 32828 -32827 0
-33244 476 32988 220 -219 0
-16732 347 0
-348 33116 0
-16860 16604 16732 16476 -16475 0
-33244 32988 33116 32860 -32859 0
-32860 33116 0
-412 33180 0
-33244 32988 33180 32924 -32923 0
-32924 33180 0
-16668 16700 0
-33052 33056 0
-33116 33051 0
-33052 33116 0
-33052 49436 0
-40988 41244 0
-33260 492 33004 236 -235 0
-33136 368 33132 364 -363 0
-33148 380 33132 364 -363 0
-33260 492 33132 364 -363 0
-33260 33004 33132 32876 -32875 0
-32876 33132 0
-33260 492 33196 428 -427 0
-33196 427 0
-33200 32944 33196 32940 -32939 0
-33260 33004 33196 32940 -32939 0
-32940 33196 0
-33068 33072 0
-33068 33084 0
-33148 33084 33132 33068 -33067 0
-33068 33196 0
-16736 16720 16732 16716 -16715 0
-16716 16732 0
-33100 33104 0
-33100 33116 0
-33099 33131 0
-33100 33132 0
-33164 33168 0
-33164 33180 0
-33163 33195 0
-33164 33196 0
-24844 24848 0
-57628 24860 57612 24844 -24843 0
-24844 24876 0
-57644 24876 57612 24844 -24843 0
-57616 49424 57612 49420 -49419 0
-49420 49452 0
-49420 57612 0
-33268 500 33012 244 -243 0
-33148 380 33140 372 -371 0
-33268 500 33140 372 -371 0
-33140 371 0
-372 33140 0
-33268 33012 33140 32884 -32883 0
-33204 435 0
-33268 33012 33204 32948 -32947 0
-32948 33204 0
-16700 16691 0
-57652 24884 49460 16692 -16691 0
-16692 49460 0
-33076 33080 0
-33140 33075 0
-33076 33140 0
-33108 33112 0
-33108 33116 0
-33107 33139 0
-33108 33140 0
-33172 33176 0
-33184 33176 33180 33172 -33171 0
-33212 33180 33204 33172 -33171 0
-33171 33203 0
-33172 33204 0
-24724 24980 0
-24852 24860 0
-41236 57620 0
-49428 49436 0
-49428 49460 0
-49428 57620 0
-57363 57619 0
-33124 33128 0
-33124 33132 0
-33124 33140 0
-33188 33192 0
-33200 33192 33196 33188 -33187 0
-33188 33196 0
-33188 33204 0
-16836 16844 0
-33220 33224 0
-33220 33228 0
-33220 33236 0
-33220 33252 0
-57604 57608 0
-57624 57608 57620 57604 -57603 0
-57604 57612 0
-57652 57620 57636 57604 -57603 0
-320 33088 0
-33248 480 32992 224 -223 0
-49504 16736 33120 352 -351 0
-16480 16736 0
-416 33184 0
-32928 33184 0
-8480 24864 0
-33264 496 33008 240 -239 0
-33264 496 33136 368 -367 0
-33264 33008 33136 32880 -32879 0
-32880 33136 0
-432 33200 0
-33264 33008 33200 32944 -32943 0
-32944 33200 0
-33104 33136 0
-49232 49488 0
-33272 504 33016 248 -247 0
-440 8632 0
-8504 24888 0
-16696 49464 0
-41016 41272 0
-33112 33120 0
-49240 49496 0
-57656 57400 57624 57368 -57367 0
-33128 33136 0
-33224 33232 0
-33224 33240 0
-33224 33256 0
-57608 57616 0
-33276 508 33148 380 -379 0
-380 16764 0
-380 33148 0
-33276 508 33212 444 -443 0
-444 33212 0
-49532 49276 49468 49212 -49211 0
-33116 33148 0
-49436 57628 0
-33132 33136 0
-24876 24892 0
-57388 57644 0
-16844 16860 0
-33228 33244 0
-33228 33260 0
-57396 57652 0
-33236 33268 0
-57656 57624 57652 57620 -57619 0
-49488 49504 0
-24888 57656 0
-33240 33248 0
-33256 33264 0
-33256 33272 0
-33148 49532 0
-33260 33276 0
-33288 0
-33316 0
-33412 0
-33295 32783 33287 32775 -32774 0
-33303 32791 33287 32775 -32774 0
-33299 32786 0
-33571 803 33059 291 -290 0
-33443 32931 33411 32899 -32898 0
-33312 544 32800 32 -31 0
-33328 560 33296 528 -527 0
-527 33295 0
-33296 32783 0
-33336 568 32824 56 -55 0
-33560 792 33048 280 -279 0
-33312 544 33304 536 -535 0
-33336 568 33304 536 -535 0
-33560 792 33304 536 -535 0
-535 33303 0
-33432 32920 33304 32792 -32791 0
-32791 33303 0
-33304 32791 0
-33576 808 33064 296 -295 0
-33328 560 33320 552 -551 0
-33576 808 33320 552 -551 0
-32807 33319 0
-33672 33160 33416 32904 -32903 0
-33544 775 0
-33560 33048 33544 33032 -33031 0
-33544 33031 0
-49672 16903 0
-33312 33296 33304 33288 -33287 0
-33328 33296 33320 33288 -33287 0
-33336 33304 33320 33288 -33287 0
-49704 33320 49672 33288 -33287 0
-33416 33287 0
-33372 604 32860 92 -91 0
-33564 796 33052 284 -283 0
-33340 572 33308 540 -539 0
-49692 16924 33308 540 -539 0
-539 33307 0
-33308 32795 0
-33388 620 32876 108 -107 0
-33580 812 33068 300 -299 0
-33340 572 33324 556 -555 0
-33452 32940 33324 32812 -32811 0
-32811 33323 0
-33324 32811 0
-33612 844 33100 332 -331 0
-32843 33355 0
-33552 784 33548 780 -779 0
-33548 33035 0
-49676 16907 0
-49680 49168 49676 49164 -49163 0
-33340 572 33332 564 -563 0
-17204 820 16948 564 -563 0
-49716 33332 49204 32820 -32819 0
-33684 916 33172 404 -403 0
-33560 792 33556 788 -787 0
-33588 820 33556 788 -787 0
-33396 32884 33380 32868 -32867 0
-33508 32996 33380 32868 -32867 0
-33700 932 33188 420 -419 0
-675 33443 0
-33700 33188 33444 32932 -32931 0
-33444 32931 0
-33580 812 33572 804 -803 0
-33700 932 33572 804 -803 0
-33700 33188 33572 33060 -33059 0
-33572 33059 0
-33320 33315 0
-33576 33320 33572 33316 -33315 0
-33315 33331 0
-33444 33315 0
-33572 33315 0
-33676 908 33668 900 -899 0
-33684 916 33668 900 -899 0
-33700 33188 33668 33156 -33155 0
-33460 33428 33444 33412 -33411 0
-33668 33539 0
-544 33312 0
-32816 33328 0
-33296 33312 0
-33296 33552 0
-49696 49184 49680 49168 -49167 0
-33464 32952 33336 32824 -32823 0
-32824 33336 0
-33688 33176 33432 32920 -32919 0
-33592 33080 33560 33048 -33047 0
-33304 33312 0
-33304 33560 0
-808 33576 0
-33064 33576 0
-33320 33336 0
-33592 33336 33576 33320 -33319 0
-33320 33576 0
-49192 49704 0
-33544 33560 0
-33404 636 32892 124 -123 0
-32828 33340 0
-33052 33564 0
-33308 33372 0
-49756 33372 49692 33308 -33307 0
-684 33452 0
-33068 33580 0
-33324 33340 0
-33324 33580 0
-49772 33388 49740 33356 -33355 0
-33356 33612 0
-33164 33676 0
-33548 33564 0
-628 33396 0
-692 33460 0
-17208 824 17204 820 -819 0
-16948 49716 0
-33332 33336 0
-33332 33588 0
-33692 924 33684 916 -915 0
-33716 33204 33684 33172 -33171 0
-33428 33432 0
-33556 33560 0
-33556 33564 0
-740 33508 0
-33380 33388 0
-932 33700 0
-33708 33196 33700 33188 -33187 0
-33700 33571 0
-33668 33672 0
-33668 33700 0
-16928 49696 0
-824 33592 0
-16952 17208 0
-33432 33464 0
-33672 33688 0
-33180 33692 0
-33388 33404 0
-49260 49772 0
-940 33708 0
-49740 49756 0
-948 33716 0
-33955 32931 33827 32803 -32802 0
-34328 1560 33304 536 -535 0
-34328 33304 33816 32792 -32791 0
-34568 1800 33544 776 -775 0
-34344 1576 34312 1544 -1543 0
-34332 1564 33308 540 -539 0
-34348 1580 33324 556 -555 0
-34092 33068 33836 32812 -32811 0
-34320 1552 34316 1548 -1547 0
-34348 1580 34316 1548 -1547 0
-34348 33836 34316 33804 -33803 0
-34344 1576 34340 1572 -1571 0
-34596 1828 34340 1572 -1571 0
-33315 34339 0
-34467 33955 34339 33827 -33826 0
-33827 34339 0
-34340 33827 0
-34596 1828 34564 1796 -1795 0
-33296 34320 0
-34584 33560 34328 33304 -33303 0
-33304 34328 0
-34344 1575 0
-33320 34344 0
-34312 34328 0
-34312 34568 0
-1324 34092 0
-1580 34348 0
-34364 33340 34348 33324 -33323 0
-33324 34348 0
-34316 34332 0
-33331 34355 0
-1699 34467 0
-33572 34596 0
-34340 34348 0
-34564 34568 0
-34564 34596 0
-33824 34336 0
-1816 34584 0
-1596 34364 0
64 0
964 0
1924 0
3844 0
7684 0
15364 0
30724 0
61444 0
57412 0
49348 0
33220 0
-64 -124 -244 -484 -57352 -49168 -32800 0
-96 -220 -244 -484 -932 -1828 -57352 -49168 -32800 0
-96 -220 -468 -484 -932 -1828 -3620 -57352 -49168 -32800 0
-96 -220 -468 -7204 -14372 -28708 -57380 -57352 -49168 -32800 0
-96 -220 -468 -14372 -28708 -57380 -49192 -49168 -32800 0
-96 -220 -468 -28708 -57380 -49192 -32816 -32800 0
-96 -124 -244 -436 -932 -57352 -49168 -32848 0
-96 -220 -468 -436 -932 -1828 -3620 -57352 -49168 -32848 0
-208 -460 -468 -916 -1812 -3604 -28708 -57380 -49192 -32816 -32848 0
-208 -460 -28692 -24628 -49204 -32824 -32816 -32848 0
-96 -220 -412 -916 -932 -1828 -3620 -7204 -57352 -49224 -32848 0
-208 -460 -908 -28692 -24628 -49204 -32824 -32872 -32848 0
-208 -220 -188 -316 -820 -1828 -57352 -49224 -32968 0
-208 -220 -412 -796 -1812 -14372 -28708 -57380 -49192 -49224 -32968 0
-208 -460 -412 -316 -820 -1588 -3620 -57352 -49224 -32968 0
-208 -460 -908 -796 -1812 -1588 -3124 -7204 -14372 -57352 -49224 -32968 0
-208 -460 -908 -796 -1812 -3604 -3124 -7204 -14372 -28708 -57352 -49224 -32968 0
-208 -460 -908 -796 -1812 -3604 -7188 -14372 -28708 -57380 -49192 -49224 -32968 0
-456 -460 -908 -1804 -1564 -3604 -3124 -6196 -14372 -28708 -57352 -49224 -32968 0
-456 -908 -796 -1564 -1084 -3124 -7204 -14372 -57352 -49224 -32968 0
-456 -3596 -3100 -2108 -4156 -12340 -28708 -57352 -49224 -32968 0
-456 -3596 -3100 -6172 -4156 -12340 -28708 -57380 -57352 -49224 -32968 0
-456 -3596 -7180 -6172 -4156 -12340 -24628 -57380 -57352 -49224 -32968 0
-456 -7180 -14348 -28684 -24604 -24628 -49204 -32824 -32872 -32968 0
-456 -14348 -12316 -8252 -16444 -49204 -49192 -49224 -32968 0
-456 -14348 -12316 -24604 -16444 -49204 -49192 -32872 -32968 0
-96 -64 -188 -436 -932 -49224 -32848 0
-96 -160 -188 -436 -932 -1828 -49224 -32848 0
-96 -160 -412 -436 -932 -1828 -3620 -49224 -32848 0
-96 -160 -412 -916 -932 -1828 -3620 -7204 -49224 -32848 0
-96 -160 -412 -916 -1828 -3620 -7204 -14372 -49224 -32848 0
-96 -160 -412 -916 -28708 -57380 -49252 -32872 -32848 0
-208 -160 -188 -436 -820 -1828 -49224 -32848 0
-208 -160 -412 -436 -820 -1828 -3620 -49224 -32848 0
-208 -160 -412 -916 -820 -1828 -3620 -7204 -49224 -32848 0
-208 -160 -412 -916 -1812 -14372 -28708 -57380 -49252 -49224 -32848 0
-208 -400 -412 -916 -1812 -1588 -3620 -7204 -14372 -49224 -32848 0
-208 -400 -908 -916 -1812 -1588 -3124 -7204 -14372 -49224 -32848 0
-208 -160 -412 -796 -1812 -1828 -3620 -7204 -14372 -49224 -32968 0
-208 -160 -412 -796 -1812 -28708 -57380 -49252 -32872 -32968 0
-456 -400 -412 -316 -572 -1588 -3620 -49224 -32968 0
-456 -400 -908 -1804 -1564 -3604 -7188 -14356 -28708 -57380 -49252 -32872 -32968 0
-456 -904 -908 -1804 -1564 -1084 -3124 -6196 -14372 -49224 -32968 0
-456 -904 -7180 -14348 -12316 -8252 -24628 -49204 -49252 -49224 -32968 0
-456 -904 -28684 -24604 -16444 -32828 -32884 -32872 -32968 0
-208 -160 -64 -316 -820 -1828 -32968 0
-208 -160 -288 -796 -820 -1828 -3620 -7204 -32968 0
-208 -160 -288 -796 -1812 -14372 -28708 -57380 -49252 -32968 0
-208 -160 -288 -796 -1812 -28708 -57380 -49252 -32996 -32968 0
-208 -400 -288 -316 -820 -1588 -3620 -32968 0
-208 -400 -288 -796 -1812 -3604 -28708 -57380 -49252 -32996 -32968 0
-456 -400 -288 -316 -572 -1588 -3620 -32968 0
-456 -400 -288 -796 -1564 -1588 -3620 -7204 -14372 -32968 0
-456 -904 -784 -796 -572 -1084 -3124 -7204 -32968 0
-456 -904 -1800 -3596 -3100 -6172 -4156 -12340 -28708 -57380 -32968 0
-456 -904 -1800 -3596 -7180 -14348 -12316 -12340 -24628 -49204 -49252 -32968 0
-456 -904 -1800 -7180 -6172 -12316 -8252 -24628 -57380 -49252 -32968 0
-456 -904 -1800 -7180 -14348 -12316 -8252 -24628 -49204 -49252 -32968 0
-456 -904 -1800 -14348 -28684 -24604 -16444 -49204 -32884 -32996 -32968 0
-456 -904 -1800 -28684 -24604 -16444 -32828 -32884 -32996 -32968 0
-456 -400 -288 -64 -572 -1588 -3620 0
-456 -400 -288 -544 -1564 -3604 -14372 -28708 -57380 -49252 0
-456 -400 -784 -544 -1564 -1588 -3124 -7204 -14372 0
-456 -904 -784 -544 -1564 -1084 -3124 -7204 -14372 0
-904 -784 -544 -64 -1084 -3124 -7204 0
-1800 -1552 -1056 -64 -2108 -6196 -14372 0
-1800 -3592 -3088 -2080 -6172 -12316 -28692 -28708 -57380 -49252 -32996 0
-1800 -3592 -7176 -6160 -14348 -12316 -8252 -24628 -49204 -49252 0
-1800 -3592 -7176 -14344 -14348 -12316 -24604 -16444 -49204 -49252 -32996 0
-3592 -3088 -2080 -64 -4156 -12340 -28708 0
-3592 -3088 -2080 -4128 -4156 -12340 -28708 -57380 0
-3592 -3088 -2080 -4128 -12316 -12340 -28708 -57380 -49252 0
-3592 -3088 -6160 -12304 -12316 -28692 -24628 -49204 -49252 -32996 0
-3592 -7176 -6160 -4128 -12316 -8252 -24628 -57380 -49252 0
-3592 -7176 -14344 -12304 -12316 -8252 -16444 -49204 -49252 0
-7176 -6160 -4128 -64 -8252 -24628 -57380 0
-7176 -6160 -4128 -8224 -24604 -24628 -57380 -49252 -32996 0
-7176 -6160 -12304 -8224 -8252 -24628 -49204 -49252 0
-7176 -6160 -12304 -8224 -24604 -24628 -49204 -49252 -32996 0
-7176 -14344 -28680 -24592 -24604 -16444 -32828 -32884 -32996 0
-14344 -12304 -8224 -64 -16444 -49204 -49252 0
-28680 -24592 -16416 -64 -32828 -32884 -32996 0
-64 -124 -244 -468 -57352 -49168 -32816 0
-112 -124 -244 -468 -916 -57352 -49168 -32816 0
-112 -236 -244 -468 -916 -1812 -57352 -49168 -32816 0
-112 -236 -484 -468 -916 -1812 -3604 -57352 -49168 -32816 0
-112 -236 -484 -7188 -14356 -28692 -57364 -57352 -49168 -32816 0
-112 -236 -484 -14356 -28692 -57364 -49176 -49168 -32816 0
-112 -124 -244 -436 -916 -57352 -49168 -32848 0
-112 -236 -484 -436 -916 -1812 -3604 -57352 -49168 -32848 0
-112 -236 -484 -932 -7188 -14356 -28692 -57364 -57352 -49168 -32848 0
-208 -236 -244 -436 -820 -1812 -57352 -49168 -32848 0
-208 -460 -484 -932 -1828 -3620 -28692 -57364 -49176 -32800 -32848 0
-208 -460 -3620 -7204 -14372 -28708 -28692 -57364 -49176 -32800 -32848 0
-208 -460 -28708 -24628 -49204 -32824 -32800 -32848 0
-112 -236 -188 -436 -916 -1812 -57352 -49224 -32848 0
-208 -460 -428 -436 -820 -1588 -3604 -57352 -49224 -32848 0
-208 -236 -188 -316 -820 -1812 -57352 -49224 -32968 0
-208 -236 -428 -812 -1828 -14356 -28692 -57364 -49176 -49224 -32968 0
-208 -236 -428 -812 -1828 -28692 -57364 -49176 -32856 -32968 0
-208 -460 -428 -316 -820 -1588 -3604 -57352 -49224 -32968 0
-208 -460 -908 -812 -820 -1588 -3124 -7188 -57352 -49224 -32968 0
-208 -460 -908 -1804 -28708 -24628 -49204 -32824 -32856 -32968 0
-456 -460 -428 -316 -572 -1588 -3604 -57352 -49224 -32968 0
-456 -460 -428 -812 -572 -1588 -3604 -7188 -57352 -49224 -32968 0
-456 -460 -908 -1804 -3596 -3620 -7204 -14372 -12340 -28692 -57364 -49176 -49224 -32968 0
-456 -908 -812 -1580 -1084 -3124 -7188 -14356 -57352 -49224 -32968 0
-456 -3596 -3116 -2108 -4156 -12340 -28692 -57352 -49224 -32968 0
-456 -3596 -3116 -6188 -4156 -12340 -28692 -57364 -57352 -49224 -32968 0
-456 -3596 -7180 -6188 -4156 -12340 -24628 -57364 -57352 -49224 -32968 0
-456 -3596 -7180 -14348 -28684 -28708 -24628 -49204 -32824 -32856 -32968 0
-456 -7180 -6188 -4156 -8252 -24628 -57364 -57352 -49224 -32968 0
-456 -7180 -6188 -12332 -8252 -24628 -57364 -49176 -49224 -32968 0
-456 -14348 -12332 -8252 -16444 -49204 -49176 -49224 -32968 0
-456 -14348 -28684 -24620 -16444 -49204 -32824 -32856 -32968 0
-456 -28684 -24620 -16444 -32828 -32824 -32856 -32968 0
-112 -64 -188 -436 -916 -49224 -32848 0
-112 -176 -428 -436 -916 -1812 -3604 -49224 -32848 0
-112 -176 -428 -932 -916 -1812 -3604 -7188 -49224 -32848 0
-112 -176 -428 -932 -14356 -28692 -57364 -49236 -49224 -32848 0
-112 -176 -428 -932 -28692 -57364 -49236 -32856 -32848 0
-208 -176 -188 -436 -820 -1812 -49224 -32848 0
-208 -176 -428 -932 -820 -1812 -3604 -7188 -49224 -32848 0
-208 -176 -428 -932 -1828 -14356 -28692 -57364 -49236 -49224 -32848 0
-208 -400 -908 -932 -1828 -1588 -3124 -7188 -14356 -49224 -32848 0
-208 -400 -908 -28708 -24628 -49204 -32884 -32856 -32848 0
-208 -400 -908 -1804 -14372 -28708 -24628 -49204 -49236 -32856 -32968 0
-208 -400 -908 -1804 -28708 -24628 -49204 -32884 -32856 -32968 0
-456 -400 -428 -316 -572 -1588 -3604 -49224 -32968 0
-456 -400 -908 -1804 -1580 -1588 -3124 -6196 -14356 -49224 -32968 0
-456 -400 -908 -1804 -3596 -3620 -7204 -14372 -28708 -28692 -57364 -49236 -32856 -32968 0
-456 -904 -908 -1804 -1580 -1084 -3124 -6196 -14356 -49224 -32968 0
-456 -904 -1804 -1580 -1084 -2108 -6196 -14356 -49224 -32968 0
-456 -904 -7180 -6188 -12332 -8252 -24628 -57364 -49236 -49224 -32968 0
-456 -904 -14348 -12332 -8252 -16444 -49204 -49236 -49224 -32968 0
-456 -904 -28684 -24620 -16444 -32828 -32884 -32856 -32968 0
-208 -176 -64 -316 -820 -1812 -32968 0
-208 -176 -304 -812 -1828 -28692 -57364 -49236 -32980 -32968 0
-208 -400 -304 -812 -1828 -3620 -28692 -57364 -49236 -32980 -32968 0
-456 -904 -784 -812 -572 -1084 -3124 -7188 -32968 0
-456 -904 -784 -1804 -1580 -1084 -3124 -6196 -14356 -32968 0
-456 -904 -784 -1804 -3596 -3116 -7204 -14372 -28708 -28692 -57364 -49236 -32980 -32968 0
-456 -904 -784 -1804 -3596 -7180 -28708 -24628 -49204 -32884 -32980 -32968 0
-456 -904 -1800 -14348 -12332 -8252 -16444 -49204 -49236 -32968 0
-456 -904 -1800 -14348 -28684 -24620 -16444 -49204 -32884 -32980 -32968 0
-456 -904 -1800 -28684 -24620 -16444 -32828 -32884 -32980 -32968 0
-456 -400 -304 -64 -572 -1588 -3604 0
-456 -400 -304 -560 -1580 -3620 -28692 -57364 -49236 -32980 0
-456 -400 -784 -1552 -3596 -7204 -14372 -12340 -24628 -57364 -49236 0
-456 -904 -784 -560 -1580 -1084 -3124 -7188 -14356 0
-456 -904 -1800 -1552 -1580 -1084 -2108 -6196 -14356 0
-456 -904 -1800 -3592 -14348 -12332 -24620 -16444 -49204 -49236 -32980 0
-456 -904 -1800 -3592 -14348 -28684 -24620 -16444 -49204 -32884 -32980 0
-904 -784 -560 -64 -1084 -3124 -7188 0
-904 -784 -560 -1072 -1084 -3124 -7188 -14356 0
-904 -784 -560 -1072 -3116 -7204 -28692 -57364 -49236 -32980 0
-904 -1800 -1552 -1072 -3116 -2108 -6196 -14356 -28692 0
-904 -1800 -1552 -1072 -3116 -6188 -6196 -14356 -28692 -57364 0
-1800 -1552 -1072 -64 -2108 -6196 -14356 0
-1800 -1552 -1072 -2096 -2108 -6196 -14356 -28692 0
-1800 -1552 -1072 -2096 -6188 -6196 -14356 -28692 -57364 0
-1800 -1552 -3088 -2096 -6188 -14372 -12340 -28692 -57364 -49236 0
-3592 -3088 -2096 -64 -4156 -12340 -28692 0
-3592 -3088 -2096 -4144 -4156 -12340 -28692 -57364 0
-3592 -3088 -2096 -4144 -12332 -12340 -28692 -57364 -49236 0
-3592 -3088 -2096 -4144 -12332 -28708 -28692 -57364 -49236 -32980 0
-7176 -6160 -4144 -64 -8252 -24628 -57364 0
-14344 -12304 -8240 -64 -16444 -49204 -49236 0
-28680 -24592 -16432 -64 -32828 -32884 -32980 0
-64 -124 -236 -484 -57352 -49176 -32800 0
-96 -124 -236 -484 -932 -57352 -49176 -32800 0
-96 -220 -236 -484 -932 -1828 -57352 -49176 -32800 0
-96 -220 -460 -484 -932 -1828 -3620 -57352 -49176 -32800 0
-96 -220 -460 -7204 -14372 -28708 -57380 -57352 -49176 -32800 0
-96 -220 -460 -14372 -28708 -57380 -49192 -49176 -32800 0
-96 -124 -236 -428 -932 -57352 -49176 -32856 0
-96 -220 -460 -908 -932 -1828 -3620 -7204 -57352 -49176 -32856 0
-96 -220 -460 -908 -7204 -14372 -28708 -57380 -57352 -49176 -32856 0
-216 -220 -236 -428 -812 -1828 -57352 -49176 -32856 0
-216 -468 -460 -908 -1804 -3596 -28708 -57380 -49192 -32824 -32856 0
-216 -468 -7180 -14348 -12332 -24620 -57380 -49192 -49176 -32856 0
-216 -468 -7180 -14348 -28684 -24620 -57380 -49192 -32824 -32856 0
-216 -468 -28684 -24620 -49196 -32816 -32824 -32856 0
-96 -220 -412 -908 -932 -1828 -3620 -7204 -57352 -49224 -32856 0
-96 -220 -412 -908 -14372 -28708 -57380 -49192 -49224 -32856 0
-216 -468 -916 -7180 -14348 -12332 -24620 -57380 -49192 -49224 -32856 0
-216 -220 -188 -316 -812 -1828 -57352 -49224 -32968 0
-216 -468 -412 -316 -812 -1580 -3620 -57352 -49224 -32968 0
-216 -468 -916 -796 -1804 -3596 -3116 -7204 -14372 -28708 -57352 -49224 -32968 0
-216 -468 -916 -796 -1804 -3596 -7180 -14372 -28708 -57380 -49192 -49224 -32968 0
-456 -468 -412 -796 -572 -1580 -3620 -7204 -57352 -49224 -32968 0
-456 -916 -796 -572 -1084 -3116 -7204 -57352 -49224 -32968 0
-456 -916 -1812 -1564 -1084 -3116 -6188 -14372 -57352 -49224 -32968 0
-456 -3604 -7188 -6172 -4156 -12332 -24620 -57380 -57352 -49224 -32968 0
-456 -14356 -12316 -8252 -16444 -49196 -49192 -49224 -32968 0
-456 -28692 -24604 -16444 -32828 -32816 -32872 -32968 0
-96 -64 -188 -428 -932 -49224 -32856 0
-96 -160 -188 -428 -932 -1828 -49224 -32856 0
-96 -160 -412 -428 -932 -1828 -3620 -49224 -32856 0
-96 -160 -412 -908 -932 -1828 -3620 -7204 -49224 -32856 0
-96 -160 -412 -908 -28708 -57380 -49252 -32872 -32856 0
-216 -160 -412 -908 -1804 -14372 -28708 -57380 -49252 -49224 -32856 0
-216 -160 -412 -796 -812 -1828 -3620 -7204 -49224 -32968 0
-216 -160 -412 -796 -1804 -1828 -3620 -7204 -14372 -49224 -32968 0
-216 -160 -412 -796 -1804 -28708 -57380 -49252 -32872 -32968 0
-456 -408 -412 -316 -572 -1580 -3620 -49224 -32968 0
-456 -408 -916 -1812 -1564 -3596 -7180 -14348 -28708 -57380 -49252 -32872 -32968 0
-456 -408 -916 -1812 -3604 -7180 -14348 -28684 -24620 -57380 -49252 -32872 -32968 0
-456 -904 -1812 -1564 -1084 -2108 -6188 -14372 -49224 -32968 0
-456 -904 -1812 -3604 -7188 -6172 -14348 -28684 -24620 -57380 -49252 -32872 -32968 0
-456 -904 -3604 -3100 -6172 -4156 -12332 -28708 -57380 -49224 -32968 0
-456 -904 -7188 -14356 -12316 -8252 -24620 -49196 -49252 -49224 -32968 0
-456 -904 -28692 -24604 -16444 -32828 -32876 -32872 -32968 0
-216 -160 -64 -316 -812 -1828 -32968 0
-216 -160 -288 -796 -1804 -14372 -28708 -57380 -49252 -32968 0
-216 -160 -288 -796 -1804 -28708 -57380 -49252 -32996 -32968 0
-216 -408 -288 -796 -1804 -3596 -28708 -57380 -49252 -32996 -32968 0
-456 -408 -288 -796 -572 -1580 -3620 -7204 -32968 0
-456 -408 -288 -796 -1564 -3596 -3620 -7204 -14372 -28708 -32968 0
-456 -408 -792 -1812 -3604 -28684 -24620 -49196 -32876 -32996 -32968 0
-456 -904 -792 -796 -572 -1084 -3116 -7204 -32968 0
-456 -904 -792 -1812 -1564 -1084 -3116 -6188 -14372 -32968 0
-456 -904 -1800 -7188 -14356 -12316 -8252 -24620 -49196 -49252 -32968 0
-456 -904 -1800 -14356 -28692 -24604 -16444 -49196 -32876 -32996 -32968 0
-456 -904 -1800 -28692 -24604 -16444 -32828 -32876 -32996 -32968 0
-456 -408 -288 -64 -572 -1580 -3620 0
-456 -408 -288 -544 -1564 -3596 -3620 -7204 -14372 -28708 0
-456 -408 -288 -544 -1564 -3596 -14372 -28708 -57380 -49252 0
-456 -904 -792 -544 -572 -1084 -3116 -7204 0
-456 -904 -1800 -1560 -3604 -3100 -6172 -6188 -12332 -28708 -57380 0
-456 -904 -1800 -3592 -7188 -6172 -12316 -8252 -24620 -57380 -49252 0
-904 -792 -544 -64 -1084 -3116 -7204 0
-904 -792 -544 -1056 -3100 -7180 -28708 -57380 -49252 -32996 0
-904 -1800 -1560 -1056 -1084 -2108 -6188 -14372 0
-904 -1800 -3592 -7176 -7188 -14356 -12316 -8252 -24620 -49196 -49252 0
-1800 -1560 -1056 -64 -2108 -6188 -14372 0
-1800 -3592 -3096 -2080 -6172 -4156 -12332 -28708 -57380 0
-1800 -3592 -3096 -2080 -6172 -12316 -28684 -28708 -57380 -49252 -32996 0
-1800 -3592 -7176 -6168 -14356 -12316 -8252 -24620 -49196 -49252 0
-3592 -3096 -2080 -64 -4156 -12332 -28708 0
-3592 -3096 -6168 -4128 -12316 -28684 -24620 -57380 -49252 -32996 0
-3592 -7176 -6168 -4128 -4156 -8252 -24620 -57380 0
-3592 -7176 -6168 -12312 -12316 -8252 -24620 -49196 -49252 0
-7176 -6168 -4128 -64 -8252 -24620 -57380 0
-7176 -6168 -12312 -8224 -8252 -24620 -49196 -49252 0
-7176 -14344 -28680 -24600 -24604 -16444 -32828 -32876 -32996 0
-14344 -12312 -8224 -64 -16444 -49196 -49252 0
-28680 -24600 -16416 -64 -32828 -32876 -32996 0
-64 -124 -236 -460 -57352 -49176 -32824 0
-120 -124 -236 -460 -908 -57352 -49176 -32824 0
-120 -244 -236 -460 -908 -1804 -57352 -49176 -32824 0
-120 -244 -484 -460 -908 -1804 -3596 -57352 -49176 -32824 0
-120 -244 -484 -14348 -28684 -57356 -49168 -49176 -32824 0
-120 -124 -236 -428 -908 -57352 -49176 -32856 0
-120 -244 -484 -428 -908 -1804 -3596 -57352 -49176 -32856 0
-120 -244 -484 -932 -7180 -14348 -28684 -57356 -57352 -49176 -32856 0
-120 -244 -484 -932 -28684 -57356 -49168 -32800 -32856 0
-216 -244 -236 -428 -812 -1804 -57352 -49176 -32856 0
-216 -468 -484 -932 -1828 -3620 -28684 -57356 -49168 -32800 -32856 0
-216 -468 -3620 -7204 -14372 -28708 -28684 -57356 -49168 -32800 -32856 0
-216 -468 -28708 -24620 -49196 -32816 -32800 -32856 0
-120 -124 -188 -428 -908 -57352 -49224 -32856 0
-120 -244 -436 -932 -3596 -7180 -14348 -28684 -57352 -49224 -32856 0
-216 -468 -436 -932 -812 -1580 -3596 -7180 -57352 -49224 -32856 0
-216 -244 -188 -316 -812 -1804 -57352 -49224 -32968 0
-216 -244 -436 -820 -1828 -28684 -57356 -49168 -32848 -32968 0
-216 -468 -436 -316 -812 -1580 -3596 -57352 -49224 -32968 0
-216 -468 -916 -820 -812 -1580 -3116 -7180 -57352 -49224 -32968 0
-216 -468 -916 -820 -1828 -3620 -3116 -7180 -14348 -28684 -57352 -49224 -32968 0
-216 -468 -916 -1812 -3620 -7204 -6188 -12332 -28684 -57356 -57352 -49224 -32968 0
-216 -468 -916 -1812 -3620 -7204 -14372 -12332 -28684 -57356 -49168 -49224 -32968 0
-216 -468 -916 -1812 -28708 -24620 -49196 -32816 -32848 -32968 0
-456 -468 -436 -820 -572 -1580 -3596 -7180 -57352 -49224 -32968 0
-456 -468 -916 -1812 -1588 -3620 -7204 -6188 -14348 -28684 -57356 -57352 -49224 -32968 0
-456 -916 -820 -1588 -3124 -7204 -14348 -28684 -57356 -49168 -49224 -32968 0
-456 -916 -1812 -3604 -3124 -7204 -14372 -12332 -28684 -57356 -49168 -49224 -32968 0
-456 -1812 -1588 -3124 -2108 -6188 -14348 -28684 -57352 -49224 -32968 0
-456 -3604 -7188 -6196 -4156 -12332 -24620 -57356 -57352 -49224 -32968 0
-456 -7188 -6196 -4156 -8252 -24620 -57356 -57352 -49224 -32968 0
-456 -7188 -6196 -12340 -8252 -24620 -57356 -49168 -49224 -32968 0
-456 -7188 -6196 -12340 -24628 -24620 -57356 -49168 -32848 -32968 0
-456 -14356 -12340 -8252 -16444 -49196 -49168 -49224 -32968 0
-456 -28692 -24628 -16444 -32828 -32816 -32848 -32968 0
-120 -64 -188 -428 -908 -49224 -32856 0
-120 -184 -436 -428 -908 -1804 -3596 -49224 -32856 0
-120 -184 -436 -932 -908 -1804 -3596 -7180 -49224 -32856 0
-120 -184 -436 -932 -14348 -28684 -57356 -49228 -49224 -32856 0
-120 -184 -436 -932 -28684 -57356 -49228 -32848 -32856 0
-216 -184 -436 -932 -1828 -3596 -7180 -14348 -28684 -49224 -32856 0
-216 -184 -436 -932 -1828 -14348 -28684 -57356 -49228 -49224 -32856 0
-216 -408 -436 -932 -1828 -1580 -3596 -7180 -14348 -49224 -32856 0
-216 -408 -916 -3620 -7204 -14372 -12332 -28684 -57356 -49228 -49224 -32856 0
-216 -184 -436 -820 -1828 -1804 -3596 -7180 -14348 -49224 -32968 0
-216 -408 -436 -316 -812 -1580 -3596 -49224 -32968 0
-216 -408 -916 -820 -1828 -1580 -3116 -7180 -14348 -49224 -32968 0
-216 -408 -916 -1812 -3620 -3116 -6188 -12332 -28684 -49224 -32968 0
-216 -408 -916 -1812 -7204 -14372 -28708 -24620 -57356 -49228 -32848 -32968 0
-216 -408 -916 -1812 -28708 -24620 -49196 -32876 -32848 -32968 0
-456 -408 -436 -316 -572 -1580 -3596 -49224 -32968 0
-456 -408 -436 -820 -1588 -3620 -28684 -57356 -49228 -32848 -32968 0
-456 -408 -916 -820 -1588 -3620 -7204 -28684 -57356 -49228 -32848 -32968 0
-456 -408 -916 -1812 -1588 -3620 -7204 -6188 -14348 -28684 -57356 -49224 -32968 0
-456 -408 -916 -1812 -1588 -3620 -7204 -14372 -28684 -57356 -49228 -32848 -32968 0
-456 -408 -916 -1812 -3604 -7204 -14372 -28708 -24620 -57356 -49228 -32848 -32968 0
-456 -904 -1812 -1588 -1084 -2108 -6188 -14348 -49224 -32968 0
-456 -904 -1812 -1588 -3124 -2108 -6188 -14348 -28684 -49224 -32968 0
-456 -904 -3604 -3124 -6196 -4156 -12332 -28684 -57356 -49224 -32968 0
-456 -904 -3604 -7188 -6196 -12340 -12332 -24620 -57356 -49228 -49224 -32968 0
-456 -904 -7188 -6196 -4156 -8252 -24620 -57356 -49224 -32968 0
-456 -904 -7188 -6196 -12340 -8252 -24620 -57356 -49228 -49224 -32968 0
-456 -904 -14356 -12340 -8252 -16444 -49196 -49228 -49224 -32968 0
-216 -184 -64 -316 -812 -1804 -32968 0
-216 -184 -312 -820 -1828 -14348 -28684 -57356 -49228 -32968 0
-216 -184 -312 -820 -1828 -28684 -57356 -49228 -32972 -32968 0
-216 -408 -312 -820 -1828 -1580 -3596 -7180 -14348 -32968 0
-456 -408 -312 -316 -572 -1580 -3596 -32968 0
-456 -904 -792 -820 -572 -1084 -3116 -7180 -32968 0
-456 -904 -1800 -1812 -1588 -1084 -2108 -6188 -14348 -32968 0
-456 -904 -1800 -1812 -1588 -3124 -2108 -6188 -14348 -28684 -32968 0
-456 -904 -1800 -7188 -6196 -4156 -8252 -24620 -57356 -32968 0
-456 -904 -1800 -14356 -28692 -24628 -16444 -49196 -32876 -32972 -32968 0
-456 -904 -1800 -28692 -24628 -16444 -32828 -32876 -32972 -32968 0
-456 -408 -312 -64 -572 -1580 -3596 0
-456 -904 -1800 -3592 -7188 -14356 -12340 -8252 -24620 -49196 -49228 0
-904 -792 -568 -64 -1084 -3116 -7180 0
-904 -792 -568 -1080 -3124 -7204 -28684 -57356 -49228 -32972 0
-904 -1800 -1560 -1080 -1084 -2108 -6188 -14348 0
-1800 -1560 -1080 -64 -2108 -6188 -14348 0
-1800 -3592 -7176 -14344 -14356 -12340 -24628 -16444 -49196 -49228 -32972 0
-3592 -3096 -2104 -64 -4156 -12332 -28684 0
-3592 -3096 -2104 -4152 -4156 -12332 -28684 -57356 0
-3592 -3096 -2104 -4152 -12340 -28708 -28684 -57356 -49228 -32972 0
-3592 -3096 -6168 -4152 -12340 -28708 -24620 -57356 -49228 -32972 0
-3592 -3096 -6168 -12312 -28692 -28708 -24620 -49196 -32876 -32972 0
-3592 -7176 -14344 -28680 -28692 -24628 -16444 -32828 -32876 -32972 0
-7176 -6168 -4152 -64 -8252 -24620 -57356 0
-7176 -6168 -4152 -8248 -24628 -24620 -57356 -49228 -32972 0
-7176 -14344 -28680 -24600 -24628 -16444 -32828 -32876 -32972 0
-14344 -12312 -8248 -64 -16444 -49196 -49228 0
-14344 -12312 -8248 -16440 -16444 -49196 -49228 -32972 0
-14344 -12312 -24600 -16440 -16444 -49196 -32876 -32972 0
-28680 -24600 -16440 -64 -32828 -32876 -32972 0
-64 -124 -220 -468 -57352 -49192 -32816 0
-112 -124 -220 -468 -916 -57352 -49192 -32816 0
-112 -236 -220 -468 -916 -1812 -57352 -49192 -32816 0
-112 -236 -460 -14356 -28692 -57364 -49176 -49192 -32816 0
-112 -124 -220 -412 -916 -57352 -49192 -32872 0
-112 -236 -460 -412 -916 -1812 -3604 -57352 -49192 -32872 0
-112 -236 -460 -908 -7188 -14356 -28692 -57364 -57352 -49192 -32872 0
-232 -484 -460 -908 -1804 -3596 -28692 -57364 -49176 -32824 -32872 0
-232 -484 -7180 -14348 -28684 -24604 -57364 -49176 -32824 -32872 0
-232 -484 -14348 -12316 -24604 -49180 -49176 -49192 -32872 0
-232 -484 -28684 -24604 -49180 -32800 -32824 -32872 0
-112 -124 -188 -412 -916 -57352 -49224 -32872 0
-112 -236 -428 -908 -916 -1812 -3604 -7188 -57352 -49224 -32872 0
-112 -236 -428 -908 -14356 -28692 -57364 -49176 -49224 -32872 0
-232 -236 -188 -316 -796 -1812 -57352 -49224 -32968 0
-232 -236 -428 -316 -796 -1812 -3604 -57352 -49224 -32968 0
-232 -484 -428 -316 -796 -1564 -3604 -57352 -49224 -32968 0
-456 -484 -428 -316 -572 -1564 -3604 -57352 -49224 -32968 0
-456 -484 -428 -812 -572 -1564 -3604 -7188 -57352 -49224 -32968 0
-456 -3620 -3116 -2108 -4156 -12316 -28692 -57352 -49224 -32968 0
-456 -3620 -3116 -6188 -4156 -12316 -28692 -57364 -57352 -49224 -32968 0
-456 -3620 -3116 -6188 -12332 -28684 -28692 -57364 -49176 -32856 -32968 0
-456 -3620 -7204 -6188 -4156 -12316 -24604 -57364 -57352 -49224 -32968 0
-456 -3620 -7204 -14372 -28708 -28684 -24604 -49180 -32800 -32856 -32968 0
-456 -7204 -6188 -4156 -8252 -24604 -57364 -57352 -49224 -32968 0
-456 -7204 -6188 -12332 -8252 -24604 -57364 -49176 -49224 -32968 0
-456 -7204 -6188 -12332 -24620 -24604 -57364 -49176 -32856 -32968 0
-456 -7204 -14372 -28708 -24620 -24604 -49180 -32800 -32856 -32968 0
-456 -14372 -12332 -8252 -16444 -49180 -49176 -49224 -32968 0
-456 -14372 -28708 -24620 -16444 -49180 -32800 -32856 -32968 0
-456 -28708 -24620 -16444 -32828 -32800 -32856 -32968 0
-112 -64 -188 -412 -916 -49224 -32872 0
-112 -176 -188 -412 -916 -1812 -49224 -32872 0
-112 -176 -428 -412 -916 -1812 -3604 -49224 -32872 0
-112 -176 -428 -908 -916 -1812 -3604 -7188 -49224 -32872 0
-112 -176 -428 -908 -14356 -28692 -57364 -49236 -49224 -32872 0
-112 -176 -428 -908 -28692 -57364 -49236 -32856 -32872 0
-232 -176 -188 -412 -796 -1812 -49224 -32872 0
-232 -176 -428 -412 -796 -1812 -3604 -49224 -32872 0
-232 -176 -428 -908 -796 -1812 -3604 -7188 -49224 -32872 0
-232 -176 -428 -908 -1804 -14356 -28692 -57364 -49236 -49224 -32872 0
-232 -424 -932 -7180 -14348 -12316 -24604 -57364 -49236 -49224 -32872 0
-232 -176 -188 -316 -796 -1812 -49224 -32968 0
-232 -176 -428 -812 -1804 -14356 -28692 -57364 -49236 -49224 -32968 0
-232 -176 -428 -812 -1804 -28692 -57364 -49236 -32856 -32968 0
-232 -424 -932 -812 -796 -1564 -3100 -7188 -49224 -32968 0
-232 -424 -932 -812 -1804 -1564 -3100 -7188 -14356 -49224 -32968 0
-232 -424 -932 -1828 -1804 -1564 -3100 -6172 -14356 -49224 -32968 0
-232 -424 -932 -1828 -14348 -28684 -24604 -49180 -49236 -32856 -32968 0
-456 -424 -428 -316 -572 -1564 -3604 -49224 -32968 0
-456 -424 -932 -1828 -1580 -3596 -7180 -14348 -28692 -57364 -49236 -32856 -32968 0
-456 -424 -932 -1828 -3620 -7180 -14348 -28684 -24604 -57364 -49236 -32856 -32968 0
-456 -904 -932 -812 -572 -1084 -3100 -7188 -49224 -32968 0
-456 -904 -932 -1828 -3620 -7204 -7180 -14348 -28684 -24604 -57364 -49236 -32856 -32968 0
-456 -904 -1828 -1580 -1084 -2108 -6172 -14356 -49224 -32968 0
-456 -904 -1828 -3620 -7204 -6188 -14348 -12316 -24604 -57364 -49236 -49224 -32968 0
-456 -904 -3620 -3116 -2108 -4156 -12316 -28692 -49224 -32968 0
-456 -904 -7204 -6188 -12332 -8252 -24604 -57364 -49236 -49224 -32968 0
-456 -904 -7204 -14372 -12332 -8252 -24604 -49180 -49236 -49224 -32968 0
-456 -904 -14372 -12332 -8252 -16444 -49180 -49236 -49224 -32968 0
-456 -904 -28708 -24620 -16444 -32828 -32860 -32856 -32968 0
-232 -176 -64 -316 -796 -1812 -32968 0
-232 -176 -304 -812 -1804 -3604 -7188 -14356 -28692 -32968 0
-232 -176 -304 -812 -1804 -14356 -28692 -57364 -49236 -32968 0
-232 -176 -304 -812 -1804 -28692 -57364 -49236 -32980 -32968 0
-232 -424 -304 -316 -796 -1564 -3604 -32968 0
-232 -424 -304 -812 -1804 -1564 -3604 -7188 -14356 -32968 0
-232 -424 -304 -812 -1804 -3596 -28692 -57364 -49236 -32980 -32968 0
-456 -904 -808 -812 -572 -1084 -3100 -7188 -32968 0
-456 -904 -808 -812 -1580 -1084 -3100 -7188 -14356 -32968 0
-456 -904 -808 -1828 -1580 -1084 -3100 -6172 -14356 -32968 0
-456 -904 -1800 -1828 -1580 -1084 -2108 -6172 -14356 -32968 0
-456 -904 -1800 -14372 -12332 -24620 -16444 -49180 -49236 -32980 -32968 0
-456 -904 -1800 -14372 -28708 -24620 -16444 -49180 -32860 -32980 -32968 0
-456 -904 -1800 -28708 -24620 -16444 -32828 -32860 -32980 -32968 0
-456 -424 -304 -64 -572 -1564 -3604 0
-456 -424 -304 -560 -1580 -3596 -28692 -57364 -49236 -32980 0
-456 -424 -808 -560 -1580 -1564 -3100 -7188 -14356 0
-456 -904 -808 -560 -1580 -1084 -3100 -7188 -14356 0
-456 -904 -808 -560 -1580 -3116 -3100 -7188 -14356 -28692 0
-456 -904 -808 -560 -1580 -3116 -7180 -7188 -14356 -28692 -57364 0
-456 -904 -808 -560 -1580 -3116 -7180 -28692 -57364 -49236 -32980 0
-456 -904 -1800 -1576 -1580 -1084 -2108 -6172 -14356 0
-456 -904 -1800 -3592 -3620 -3116 -6188 -4156 -12316 -28692 -57364 0
-904 -808 -560 -64 -1084 -3100 -7188 0
-1800 -1576 -1072 -64 -2108 -6172 -14356 0
-1800 -1576 -3112 -2096 -6188 -14348 -12316 -28692 -57364 -49236 0
-1800 -3592 -7176 -6184 -14372 -12332 -24620 -24604 -49180 -49236 -32980 0
-1800 -3592 -7176 -14344 -14372 -12332 -8252 -16444 -49180 -49236 0
-1800 -3592 -7176 -14344 -14372 -12332 -24620 -16444 -49180 -49236 -32980 0
-3592 -3112 -2096 -64 -4156 -12316 -28692 0
-3592 -3112 -2096 -4144 -12332 -12316 -28692 -57364 -49236 0
-3592 -7176 -6184 -4144 -12332 -8252 -24604 -57364 -49236 0
-7176 -6184 -4144 -64 -8252 -24604 -57364 0
-7176 -6184 -4144 -8240 -8252 -24604 -57364 -49236 0
-7176 -6184 -4144 -8240 -24620 -24604 -57364 -49236 -32980 0
-14344 -12328 -8240 -64 -16444 -49180 -49236 0
-28680 -24616 -16432 -64 -32828 -32860 -32980 0
-64 -124 -220 -460 -57352 -49192 -32824 0
-120 -124 -220 -460 -908 -57352 -49192 -32824 0
-120 -244 -220 -460 -908 -1804 -57352 -49192 -32824 0
-120 -244 -468 -7180 -14348 -28684 -57356 -57352 -49192 -32824 0
-120 -244 -468 -14348 -28684 -57356 -49168 -49192 -32824 0
-120 -124 -220 -412 -908 -57352 -49192 -32872 0
-120 -244 -220 -412 -908 -1804 -57352 -49192 -32872 0
-120 -244 -468 -412 -908 -1804 -3596 -57352 -49192 -32872 0
-120 -244 -468 -916 -3596 -7180 -14348 -28684 -57352 -49192 -32872 0
-232 -244 -220 -412 -796 -1804 -57352 -49192 -32872 0
-232 -244 -468 -916 -796 -1804 -3596 -7180 -57352 -49192 -32872 0
-232 -244 -468 -916 -1812 -28684 -57356 -49168 -32816 -32872 0
-232 -484 -468 -916 -796 -1564 -3596 -7180 -57352 -49192 -32872 0
-232 -484 -468 -916 -1812 -3604 -28684 -57356 -49168 -32816 -32872 0
-232 -484 -3604 -7188 -14356 -12316 -28684 -57356 -49168 -49192 -32872 0
-120 -244 -436 -916 -908 -1804 -3596 -7180 -57352 -49224 -32872 0
-120 -244 -436 -916 -14348 -28684 -57356 -49168 -49224 -32872 0
-232 -484 -436 -412 -796 -1564 -3596 -57352 -49224 -32872 0
-232 -244 -188 -316 -796 -1804 -57352 -49224 -32968 0
-232 -244 -436 -820 -1812 -14348 -28684 -57356 -49168 -49224 -32968 0
-232 -244 -436 -820 -1812 -28684 -57356 -49168 -32848 -32968 0
-232 -484 -436 -316 -796 -1564 -3596 -57352 -49224 -32968 0
-232 -484 -932 -820 -1812 -3604 -7188 -14348 -28684 -57356 -49168 -49224 -32968 0
-456 -484 -436 -316 -572 -1564 -3596 -57352 -49224 -32968 0
-456 -484 -932 -820 -1588 -3604 -7188 -28684 -57356 -49168 -32848 -32968 0
-456 -484 -932 -1828 -1588 -3604 -7188 -14356 -28684 -57356 -49168 -32848 -32968 0
-456 -484 -932 -1828 -3620 -3604 -7188 -14356 -12316 -28684 -57356 -49168 -49224 -32968 0
-456 -1828 -1588 -1084 -2108 -6172 -14348 -57352 -49224 -32968 0
-456 -3620 -3124 -6196 -12340 -12316 -28684 -57356 -49168 -49224 -32968 0
-456 -3620 -3124 -6196 -12340 -28692 -28684 -57356 -49168 -32848 -32968 0
-456 -3620 -7204 -6196 -4156 -12316 -24604 -57356 -57352 -49224 -32968 0
-456 -3620 -7204 -14372 -28708 -28692 -24604 -49180 -32800 -32848 -32968 0
-456 -7204 -6196 -4156 -8252 -24604 -57356 -57352 -49224 -32968 0
-456 -7204 -6196 -12340 -24628 -24604 -57356 -49168 -32848 -32968 0
-456 -14372 -12340 -8252 -16444 -49180 -49168 -49224 -32968 0
-456 -14372 -12340 -24628 -16444 -49180 -49168 -32848 -32968 0
-456 -28708 -24628 -16444 -32828 -32800 -32848 -32968 0
-120 -64 -188 -412 -908 -49224 -32872 0
-120 -184 -188 -412 -908 -1804 -49224 -32872 0
-120 -184 -436 -412 -908 -1804 -3596 -49224 -32872 0
-120 -184 -436 -916 -908 -1804 -3596 -7180 -49224 -32872 0
-120 -184 -436 -916 -14348 -28684 -57356 -49228 -49224 -32872 0
-120 -184 -436 -916 -28684 -57356 -49228 -32848 -32872 0
-232 -184 -188 -412 -796 -1804 -49224 -32872 0
-232 -184 -436 -412 -796 -1804 -3596 -49224 -32872 0
-232 -184 -436 -916 -1812 -14348 -28684 -57356 -49228 -49224 -32872 0
-232 -424 -932 -14356 -28692 -24604 -49180 -49228 -32848 -32872 0
-456 -424 -932 -820 -572 -1564 -3100 -7180 -49224 -32968 0
-456 -424 -932 -1828 -1588 -3604 -7188 -14356 -28684 -57356 -49228 -32848 -32968 0
-456 -424 -932 -1828 -3620 -28692 -24604 -49180 -32860 -32848 -32968 0
-456 -904 -1828 -3620 -7204 -6196 -14356 -28692 -24604 -57356 -49228 -32848 -32968 0
-456 -904 -3620 -7204 -6196 -12340 -28692 -24604 -57356 -49228 -32848 -32968 0
-456 -904 -14372 -12340 -8252 -16444 -49180 -49228 -49224 -32968 0
-456 -904 -14372 -12340 -24628 -16444 -49180 -49228 -32848 -32968 0
-456 -904 -28708 -24628 -16444 -32828 -32860 -32848 -32968 0
-232 -184 -64 -316 -796 -1804 -32968 0
-232 -184 -312 -820 -1812 -14348 -28684 -57356 -49228 -32968 0
-232 -424 -312 -820 -1812 -1564 -3596 -7180 -14348 -32968 0
-456 -424 -312 -820 -1588 -3604 -14348 -28684 -57356 -49228 -32968 0
-456 -424 -808 -1828 -1588 -1564 -3100 -6172 -14348 -32968 0
-456 -904 -1800 -7204 -6196 -12340 -8252 -24604 -57356 -49228 -32968 0
-456 -904 -1800 -14372 -12340 -8252 -16444 -49180 -49228 -32968 0
-456 -904 -1800 -14372 -28708 -24628 -16444 -49180 -32860 -32972 -32968 0
-456 -904 -1800 -28708 -24628 -16444 -32828 -32860 -32972 -32968 0
-456 -424 -312 -64 -572 -1564 -3596 0
-456 -424 -312 -568 -1588 -3604 -7180 -14348 -28684 -57356 0
-456 -424 -808 -568 -572 -1564 -3100 -7180 0
-456 -904 -808 -568 -1588 -3124 -7188 -7180 -14348 -28684 -57356 0
-456 -904 -808 -568 -1588 -3124 -7188 -28684 -57356 -49228 -32972 0
-456 -904 -1800 -1576 -1588 -1084 -2108 -6172 -14348 0
-456 -904 -1800 -1576 -3620 -7204 -6196 -14356 -28692 -24604 -57356 -49228 -32972 0
-456 -904 -1800 -3592 -3620 -3124 -2108 -4156 -12316 -28684 0
-904 -808 -568 -64 -1084 -3100 -7180 0
-904 -808 -1576 -1080 -3124 -7188 -14356 -28684 -57356 -49228 -32972 0
-1800 -1576 -1080 -64 -2108 -6172 -14348 0
-1800 -3592 -7176 -14344 -14372 -12340 -24628 -16444 -49180 -49228 -32972 0
-3592 -3112 -2104 -64 -4156 -12316 -28684 0
-3592 -3112 -2104 -4152 -12340 -12316 -28684 -57356 -49228 0
-3592 -3112 -6184 -4152 -12340 -12316 -24604 -57356 -49228 0
-7176 -6184 -4152 -64 -8252 -24604 -57356 0
-7176 -6184 -12328 -8248 -8252 -24604 -49180 -49228 0
-7176 -6184 -12328 -8248 -24628 -24604 -49180 -49228 -32972 0
-7176 -14344 -12328 -8248 -24628 -16444 -49180 -49228 -32972 0
-7176 -14344 -28680 -24616 -24628 -16444 -32828 -32860 -32972 0
-14344 -12328 -8248 -64 -16444 -49180 -49228 0
-28680 -24616 -16440 -64 -32828 -32860 -32972 0
-64 -120 -244 -484 -57356 -49168 -32800 0
-96 -216 -244 -484 -932 -1828 -57356 -49168 -32800 0
-96 -216 -468 -484 -932 -1828 -3620 -57356 -49168 -32800 0
-96 -216 -468 -3620 -7204 -14372 -28708 -57356 -49168 -32800 0
-96 -216 -468 -7204 -14372 -28708 -57380 -57356 -49168 -32800 0
-96 -216 -468 -14372 -28708 -57380 -49196 -49168 -32800 0
-96 -120 -244 -436 -932 -57356 -49168 -32848 0
-96 -216 -468 -436 -932 -1828 -3620 -57356 -49168 -32848 0
-96 -216 -468 -916 -7204 -14372 -28708 -57380 -57356 -49168 -32848 0
-208 -216 -244 -436 -820 -1828 -57356 -49168 -32848 0
-208 -216 -468 -436 -820 -1828 -3620 -57356 -49168 -32848 0
-208 -216 -468 -916 -820 -1828 -3620 -7204 -57356 -49168 -32848 0
-208 -456 -468 -916 -1812 -1588 -3620 -7204 -14372 -57356 -49168 -32848 0
-208 -456 -468 -916 -1812 -3604 -28708 -57380 -49196 -32816 -32848 0
-208 -456 -28692 -24628 -49204 -32828 -32816 -32848 0
-96 -216 -408 -916 -932 -1828 -3620 -7204 -57356 -49228 -32848 0
-208 -456 -904 -28692 -24628 -49204 -32828 -32876 -32848 0
-208 -216 -184 -312 -820 -1828 -57356 -49228 -32972 0
-208 -216 -408 -792 -1812 -14372 -28708 -57380 -49196 -49228 -32972 0
-208 -456 -904 -792 -820 -1588 -3124 -7204 -57356 -49228 -32972 0
-208 -456 -904 -1800 -3604 -7188 -14356 -12340 -28708 -57380 -49196 -49228 -32972 0
-460 -456 -408 -312 -568 -1588 -3620 -57356 -49228 -32972 0
-460 -456 -408 -792 -568 -1588 -3620 -7204 -57356 -49228 -32972 0
-460 -456 -904 -792 -1560 -3604 -7188 -14372 -28708 -57380 -49196 -49228 -32972 0
-460 -456 -904 -1800 -3592 -7188 -14356 -28692 -24628 -57380 -49196 -32876 -32972 0
-460 -904 -1800 -1560 -1080 -3124 -6196 -14372 -57356 -49228 -32972 0
-460 -904 -1800 -3592 -3096 -7188 -6196 -12340 -28708 -57380 -57356 -49228 -32972 0
-460 -1800 -1560 -3096 -2104 -6196 -14372 -28708 -57356 -49228 -32972 0
-460 -3592 -3096 -6168 -4152 -12340 -28708 -57380 -57356 -49228 -32972 0
-460 -3592 -7176 -6168 -4152 -12340 -24628 -57380 -57356 -49228 -32972 0
-460 -3592 -7176 -14344 -28680 -28692 -24628 -49204 -32828 -32876 -32972 0
-460 -7176 -6168 -12312 -24600 -24628 -57380 -49196 -32876 -32972 0
-460 -14344 -12312 -8248 -16440 -49204 -49196 -49228 -32972 0
-460 -14344 -28680 -24600 -16440 -49204 -32828 -32876 -32972 0
-460 -28680 -24600 -16440 -32824 -32828 -32876 -32972 0
-96 -64 -184 -436 -932 -49228 -32848 0
-96 -160 -184 -436 -932 -1828 -49228 -32848 0
-96 -160 -408 -436 -932 -1828 -3620 -49228 -32848 0
-96 -160 -408 -916 -932 -1828 -3620 -7204 -49228 -32848 0
-96 -160 -408 -916 -28708 -57380 -49252 -32876 -32848 0
-208 -160 -184 -436 -820 -1828 -49228 -32848 0
-208 -160 -408 -916 -1812 -14372 -28708 -57380 -49252 -49228 -32848 0
-208 -160 -408 -916 -1812 -28708 -57380 -49252 -32876 -32848 0
-208 -400 -408 -916 -1812 -1588 -3620 -7204 -14372 -49228 -32848 0
-208 -400 -904 -7188 -14356 -28692 -24628 -57380 -49252 -32876 -32848 0
-208 -400 -904 -14356 -28692 -24628 -49204 -49252 -32876 -32848 0
-208 -160 -184 -312 -820 -1828 -49228 -32972 0
-208 -160 -408 -792 -1812 -1828 -3620 -7204 -14372 -49228 -32972 0
-208 -160 -408 -792 -1812 -7204 -14372 -28708 -57380 -49228 -32972 0
-208 -160 -408 -792 -1812 -14372 -28708 -57380 -49252 -49228 -32972 0
-208 -160 -408 -792 -1812 -28708 -57380 -49252 -32876 -32972 0
-208 -400 -904 -792 -820 -1588 -3124 -7204 -49228 -32972 0
-208 -400 -904 -1800 -28692 -24628 -49204 -32884 -32876 -32972 0
-460 -400 -408 -312 -568 -1588 -3620 -49228 -32972 0
-460 -400 -904 -792 -568 -1588 -3124 -7204 -49228 -32972 0
-460 -400 -904 -1800 -1560 -1588 -3124 -6196 -14372 -49228 -32972 0
-460 -400 -904 -1800 -1560 -3604 -7188 -14356 -28708 -57380 -49252 -32876 -32972 0
-460 -400 -904 -1800 -3592 -7188 -14356 -28692 -24628 -57380 -49252 -32876 -32972 0
-460 -400 -904 -1800 -3592 -28692 -24628 -49204 -32884 -32876 -32972 0
-460 -908 -904 -792 -568 -1080 -3124 -7204 -49228 -32972 0
-460 -908 -904 -792 -1560 -1080 -3124 -7204 -14372 -49228 -32972 0
-460 -908 -3592 -3096 -2104 -4152 -12340 -28708 -49228 -32972 0
-460 -908 -7176 -14344 -12312 -8248 -24628 -49204 -49252 -49228 -32972 0
-460 -908 -14344 -12312 -8248 -16440 -49204 -49252 -49228 -32972 0
-460 -908 -28680 -24600 -16440 -32824 -32884 -32876 -32972 0
-208 -160 -64 -312 -820 -1828 -32972 0
-208 -160 -288 -792 -1812 -28708 -57380 -49252 -32996 -32972 0
-208 -400 -288 -312 -820 -1588 -3620 -32972 0
-208 -400 -288 -792 -1812 -1588 -3620 -7204 -14372 -32972 0
-208 -400 -288 -792 -1812 -3604 -28708 -57380 -49252 -32996 -32972 0
-460 -400 -288 -312 -568 -1588 -3620 -32972 0
-460 -908 -1804 -1800 -1560 -1080 -2104 -6196 -14372 -32972 0
-460 -908 -1804 -7176 -6168 -12312 -24600 -24628 -57380 -49252 -32996 -32972 0
-460 -908 -1804 -28680 -24600 -16440 -32824 -32884 -32996 -32972 0
-460 -400 -288 -64 -568 -1588 -3620 0
-460 -400 -288 -544 -568 -1588 -3620 -7204 0
-460 -908 -1804 -3596 -14344 -12312 -24600 -16440 -49204 -49252 -32996 0
-460 -908 -1804 -3596 -14344 -28680 -24600 -16440 -49204 -32884 -32996 0
-908 -784 -544 -64 -1080 -3124 -7204 0
-1804 -1552 -1056 -64 -2104 -6196 -14372 0
-1804 -1552 -3088 -2080 -6168 -14356 -12340 -28708 -57380 -49252 0
-3596 -3088 -2080 -64 -4152 -12340 -28708 0
-3596 -3088 -2080 -4128 -4152 -12340 -28708 -57380 0
-3596 -3088 -2080 -4128 -12312 -12340 -28708 -57380 -49252 0
-7180 -6160 -4128 -64 -8248 -24628 -57380 0
-7180 -6160 -4128 -8224 -8248 -24628 -57380 -49252 0
-7180 -6160 -4128 -8224 -24600 -24628 -57380 -49252 -32996 0
-7180 -14348 -28684 -24592 -24600 -16440 -32824 -32884 -32996 0
-14348 -12304 -8224 -64 -16440 -49204 -49252 0
-14348 -12304 -24592 -16416 -16440 -49204 -32884 -32996 0
-14348 -28684 -24592 -16416 -16440 -32824 -32884 -32996 0
-28684 -24592 -16416 -64 -32824 -32884 -32996 0
-64 -120 -244 -468 -57356 -49168 -32816 0
-112 -120 -244 -468 -916 -57356 -49168 -32816 0
-112 -232 -244 -468 -916 -1812 -57356 -49168 -32816 0
-112 -232 -484 -468 -916 -1812 -3604 -57356 -49168 -32816 0
-112 -232 -484 -916 -1812 -3604 -7188 -57356 -49168 -32816 0
-112 -232 -484 -7188 -14356 -28692 -57364 -57356 -49168 -32816 0
-112 -232 -484 -28692 -57364 -49180 -32800 -32816 0
-112 -232 -244 -436 -916 -1812 -57356 -49168 -32848 0
-112 -232 -484 -932 -28692 -57364 -49180 -32800 -32848 0
-208 -232 -244 -436 -820 -1812 -57356 -49168 -32848 0
-208 -232 -484 -436 -820 -1812 -3604 -57356 -49168 -32848 0
-208 -456 -484 -932 -1828 -3620 -28692 -57364 -49180 -32800 -32848 0
-208 -456 -7204 -14372 -28708 -24628 -57364 -49180 -32800 -32848 0
-208 -456 -14372 -28708 -24628 -49204 -49180 -32800 -32848 0
-112 -232 -424 -932 -7188 -14356 -28692 -57364 -57356 -49228 -32848 0
-112 -232 -424 -932 -14356 -28692 -57364 -49180 -49228 -32848 0
-208 -456 -904 -28708 -24628 -49204 -32828 -32860 -32848 0
-208 -232 -184 -312 -820 -1812 -57356 -49228 -32972 0
-208 -456 -424 -312 -820 -1588 -3604 -57356 -49228 -32972 0
-208 -456 -424 -808 -1828 -3620 -28692 -57364 -49180 -32860 -32972 0
-208 -456 -904 -808 -820 -1588 -3124 -7188 -57356 -49228 -32972 0
-208 -456 -904 -808 -1828 -1588 -3124 -7188 -14356 -57356 -49228 -32972 0
-208 -456 -904 -808 -1828 -3620 -7204 -14356 -28692 -57364 -49180 -49228 -32972 0
-208 -456 -904 -1800 -1828 -3620 -7204 -14372 -14356 -28692 -57364 -49180 -49228 -32972 0
-208 -456 -904 -1800 -28708 -24628 -49204 -32828 -32860 -32972 0
-460 -456 -424 -312 -568 -1588 -3604 -57356 -49228 -32972 0
-460 -456 -424 -808 -568 -1588 -3604 -7188 -57356 -49228 -32972 0
-460 -456 -904 -808 -568 -1588 -3124 -7188 -57356 -49228 -32972 0
-460 -904 -808 -1576 -1080 -3124 -7188 -14356 -57356 -49228 -32972 0
-460 -904 -1800 -1576 -3112 -7204 -14372 -14356 -28692 -57364 -49180 -49228 -32972 0
-460 -1800 -1576 -3112 -6184 -14372 -14356 -28692 -57364 -49180 -49228 -32972 0
-460 -3592 -3112 -6184 -4152 -12340 -28692 -57364 -57356 -49228 -32972 0
-460 -3592 -7176 -6184 -4152 -12340 -24628 -57364 -57356 -49228 -32972 0
-460 -3592 -7176 -14344 -28680 -28708 -24628 -49204 -32828 -32860 -32972 0
-460 -7176 -6184 -12328 -8248 -24628 -57364 -49180 -49228 -32972 0
-460 -14344 -12328 -8248 -16440 -49204 -49180 -49228 -32972 0
-112 -64 -184 -436 -916 -49228 -32848 0
-112 -176 -184 -436 -916 -1812 -49228 -32848 0
-112 -176 -424 -436 -916 -1812 -3604 -49228 -32848 0
-112 -176 -424 -932 -916 -1812 -3604 -7188 -49228 -32848 0
-112 -176 -424 -932 -14356 -28692 -57364 -49236 -49228 -32848 0
-112 -176 -424 -932 -28692 -57364 -49236 -32860 -32848 0
-208 -176 -424 -932 -1828 -14356 -28692 -57364 -49236 -49228 -32848 0
-208 -400 -424 -932 -820 -1588 -3604 -7188 -49228 -32848 0
-208 -400 -424 -932 -1828 -1588 -3604 -7188 -14356 -49228 -32848 0
-208 -400 -904 -932 -1828 -1588 -3124 -7188 -14356 -49228 -32848 0
-208 -176 -184 -312 -820 -1812 -49228 -32972 0
-208 -176 -424 -808 -1828 -1812 -3604 -7188 -14356 -49228 -32972 0
-208 -176 -424 -808 -1828 -7188 -14356 -28692 -57364 -49228 -32972 0
-208 -176 -424 -808 -1828 -28692 -57364 -49236 -32860 -32972 0
-460 -400 -424 -312 -568 -1588 -3604 -49228 -32972 0
-460 -400 -904 -1800 -1576 -1588 -3124 -6196 -14356 -49228 -32972 0
-460 -400 -904 -1800 -3592 -3620 -7204 -14372 -28708 -28692 -57364 -49236 -32860 -32972 0
-460 -400 -904 -1800 -3592 -7204 -14372 -28708 -24628 -57364 -49236 -32860 -32972 0
-460 -908 -904 -1800 -1576 -1080 -3124 -6196 -14356 -49228 -32972 0
-460 -908 -7176 -6184 -4152 -8248 -24628 -57364 -49228 -32972 0
-460 -908 -28680 -24616 -16440 -32824 -32884 -32860 -32972 0
-208 -176 -64 -312 -820 -1812 -32972 0
-208 -176 -304 -808 -1828 -28692 -57364 -49236 -32980 -32972 0
-208 -400 -304 -808 -1828 -3620 -14356 -28692 -57364 -49236 -32972 0
-208 -400 -304 -808 -1828 -3620 -28692 -57364 -49236 -32980 -32972 0
-460 -400 -304 -312 -568 -1588 -3604 -32972 0
-460 -400 -304 -808 -1576 -3620 -14356 -28692 -57364 -49236 -32972 0
-460 -400 -304 -808 -1576 -3620 -28692 -57364 -49236 -32980 -32972 0
-460 -908 -784 -808 -568 -1080 -3124 -7188 -32972 0
-460 -908 -1804 -7176 -6184 -4152 -8248 -24628 -57364 -32972 0
-460 -908 -1804 -14344 -28680 -24616 -16440 -49204 -32884 -32980 -32972 0
-460 -400 -304 -64 -568 -1588 -3604 0
-460 -908 -784 -560 -1576 -3112 -7204 -7188 -14356 -28692 -57364 0
-460 -908 -784 -560 -1576 -3112 -7204 -28692 -57364 -49236 -32980 0
-460 -908 -1804 -3596 -14344 -12328 -24616 -16440 -49204 -49236 -32980 0
-908 -784 -560 -64 -1080 -3124 -7188 0
-908 -784 -1552 -1072 -1080 -3124 -6196 -14356 0
-908 -1804 -1552 -1072 -3112 -6184 -14372 -14356 -28692 -57364 -49236 0
-1804 -1552 -1072 -64 -2104 -6196 -14356 0
-1804 -1552 -3088 -6160 -6184 -14372 -12340 -24628 -57364 -49236 0
-3596 -3088 -2096 -64 -4152 -12340 -28692 0
-3596 -3088 -2096 -4144 -4152 -12340 -28692 -57364 0
-3596 -3088 -2096 -4144 -12328 -12340 -28692 -57364 -49236 0
-3596 -3088 -2096 -4144 -12328 -28708 -28692 -57364 -49236 -32980 0
-7180 -6160 -4144 -64 -8248 -24628 -57364 0
-14348 -12304 -8240 -64 -16440 -49204 -49236 0
-28684 -24592 -16432 -64 -32824 -32884 -32980 0
-64 -120 -232 -484 -57356 -49180 -32800 0
-96 -120 -232 -484 -932 -57356 -49180 -32800 0
-96 -216 -232 -484 -932 -1828 -57356 -49180 -32800 0
-96 -216 -456 -484 -932 -1828 -3620 -57356 -49180 -32800 0
-96 -120 -232 -424 -932 -57356 -49180 -32860 0
-96 -216 -456 -424 -932 -1828 -3620 -57356 -49180 -32860 0
-96 -216 -456 -904 -7204 -14372 -28708 -57380 -57356 -49180 -32860 0
-220 -216 -456 -424 -808 -1828 -3620 -57356 -49180 -32860 0
-220 -468 -456 -904 -1800 -1576 -3620 -7204 -14372 -57356 -49180 -32860 0
-220 -468 -456 -904 -1800 -3592 -28708 -57380 -49196 -32828 -32860 0
-220 -468 -1800 -3592 -7176 -6184 -14372 -28708 -57380 -57356 -49180 -32860 0
-220 -468 -7176 -14344 -28680 -24616 -57380 -49196 -32828 -32860 0
-220 -468 -28680 -24616 -49192 -32816 -32828 -32860 0
-96 -120 -184 -424 -932 -57356 -49228 -32860 0
-96 -216 -408 -904 -932 -1828 -3620 -7204 -57356 -49228 -32860 0
-96 -216 -408 -904 -1828 -3620 -7204 -14372 -57356 -49228 -32860 0
-96 -216 -408 -904 -7204 -14372 -28708 -57380 -57356 -49228 -32860 0
-220 -216 -184 -424 -808 -1828 -57356 -49228 -32860 0
-220 -216 -184 -312 -808 -1828 -57356 -49228 -32972 0
-220 -216 -408 -792 -1800 -28708 -57380 -49196 -32876 -32972 0
-220 -468 -408 -312 -808 -1576 -3620 -57356 -49228 -32972 0
-220 -468 -916 -792 -1800 -3592 -7176 -14372 -28708 -57380 -49196 -49228 -32972 0
-220 -468 -916 -1812 -28680 -24616 -49192 -32816 -32876 -32972 0
-460 -468 -916 -1812 -1560 -3592 -7176 -14344 -28708 -57380 -49196 -32876 -32972 0
-460 -1812 -1560 -1080 -2104 -6184 -14372 -57356 -49228 -32972 0
-460 -3604 -3096 -6168 -4152 -12328 -28708 -57380 -57356 -49228 -32972 0
-460 -3604 -7188 -6168 -4152 -12328 -24616 -57380 -57356 -49228 -32972 0
-460 -7188 -6168 -12312 -8248 -24616 -57380 -49196 -49228 -32972 0
-460 -7188 -6168 -12312 -24600 -24616 -57380 -49196 -32876 -32972 0
-460 -14356 -12312 -8248 -16440 -49192 -49196 -49228 -32972 0
-96 -64 -184 -424 -932 -49228 -32860 0
-96 -160 -408 -424 -932 -1828 -3620 -49228 -32860 0
-96 -160 -408 -904 -932 -1828 -3620 -7204 -49228 -32860 0
-96 -160 -408 -904 -3620 -7204 -14372 -28708 -49228 -32860 0
-96 -160 -408 -904 -14372 -28708 -57380 -49252 -49228 -32860 0
-96 -160 -408 -904 -28708 -57380 -49252 -32876 -32860 0
-220 -160 -184 -424 -808 -1828 -49228 -32860 0
-220 -160 -408 -904 -1800 -14372 -28708 -57380 -49252 -49228 -32860 0
-220 -160 -408 -904 -1800 -28708 -57380 -49252 -32876 -32860 0
-220 -412 -916 -904 -808 -1576 -3112 -7204 -49228 -32860 0
-220 -412 -916 -14344 -28680 -24616 -49192 -49252 -32876 -32860 0
-220 -160 -408 -792 -1800 -1828 -3620 -7204 -14372 -49228 -32972 0
-220 -160 -408 -792 -1800 -14372 -28708 -57380 -49252 -49228 -32972 0
-220 -160 -408 -792 -1800 -28708 -57380 -49252 -32876 -32972 0
-220 -412 -408 -312 -808 -1576 -3620 -49228 -32972 0
-220 -412 -916 -792 -808 -1576 -3112 -7204 -49228 -32972 0
-460 -412 -408 -312 -568 -1576 -3620 -49228 -32972 0
-460 -412 -916 -1812 -3604 -3592 -7176 -14344 -28680 -28708 -57380 -49252 -32876 -32972 0
-460 -908 -916 -792 -568 -1080 -3112 -7204 -49228 -32972 0
-460 -908 -916 -792 -1560 -1080 -3112 -7204 -14372 -49228 -32972 0
-460 -908 -916 -1812 -1560 -1080 -3112 -6184 -14372 -49228 -32972 0
-460 -908 -1812 -1560 -1080 -2104 -6184 -14372 -49228 -32972 0
-460 -908 -7188 -14356 -12312 -8248 -24616 -49192 -49252 -49228 -32972 0
-460 -908 -28692 -24600 -16440 -32824 -32872 -32876 -32972 0
-220 -160 -64 -312 -808 -1828 -32972 0
-220 -160 -288 -792 -808 -1828 -3620 -7204 -32972 0
-220 -160 -288 -792 -1800 -14372 -28708 -57380 -49252 -32972 0
-220 -160 -288 -792 -1800 -28708 -57380 -49252 -32996 -32972 0
-220 -412 -288 -792 -1800 -1576 -3620 -7204 -14372 -32972 0
-220 -412 -288 -792 -1800 -3592 -28708 -57380 -49252 -32996 -32972 0
-460 -412 -288 -312 -568 -1576 -3620 -32972 0
-460 -412 -288 -792 -1560 -3592 -28708 -57380 -49252 -32996 -32972 0
-460 -412 -796 -1812 -1560 -1576 -3112 -6184 -14372 -32972 0
-460 -908 -796 -792 -568 -1080 -3112 -7204 -32972 0
-460 -908 -796 -792 -1560 -3096 -7176 -28708 -57380 -49252 -32996 -32972 0
-460 -908 -796 -1812 -1560 -1080 -3112 -6184 -14372 -32972 0
-460 -908 -1804 -14356 -28692 -24600 -16440 -49192 -32872 -32996 -32972 0
-460 -908 -1804 -28692 -24600 -16440 -32824 -32872 -32996 -32972 0
-460 -412 -288 -64 -568 -1576 -3620 0
-460 -908 -796 -544 -568 -1080 -3112 -7204 0
-908 -796 -544 -64 -1080 -3112 -7204 0
-908 -1804 -3596 -7180 -7188 -6168 -12312 -24600 -24616 -57380 -49252 -32996 0
-1804 -1564 -1056 -64 -2104 -6184 -14372 0
-3596 -3100 -2080 -64 -4152 -12328 -28708 0
-3596 -3100 -2080 -4128 -12312 -12328 -28708 -57380 -49252 0
-3596 -3100 -2080 -4128 -12312 -28680 -28708 -57380 -49252 -32996 0
-7180 -6172 -4128 -64 -8248 -24616 -57380 0
-7180 -6172 -4128 -8224 -24600 -24616 -57380 -49252 -32996 0
-14348 -12316 -8224 -64 -16440 -49192 -49252 0
-14348 -12316 -24604 -16416 -16440 -49192 -32872 -32996 0
-28684 -24604 -16416 -64 -32824 -32872 -32996 0
-64 -120 -232 -456 -57356 -49180 -32828 0
-124 -120 -232 -456 -904 -57356 -49180 -32828 0
-124 -244 -232 -456 -904 -1800 -57356 -49180 -32828 0
-124 -244 -484 -456 -904 -1800 -3592 -57356 -49180 -32828 0
-124 -244 -484 -7176 -14344 -28680 -57352 -57356 -49180 -32828 0
-124 -244 -484 -14344 -28680 -57352 -49168 -49180 -32828 0
-124 -120 -232 -424 -904 -57356 -49180 -32860 0
-124 -244 -484 -932 -904 -1800 -3592 -7176 -57356 -49180 -32860 0
-124 -244 -484 -932 -7176 -14344 -28680 -57352 -57356 -49180 -32860 0
-220 -468 -484 -932 -1828 -3620 -28680 -57352 -49168 -32800 -32860 0
-220 -468 -932 -1828 -3620 -7204 -28680 -57352 -49168 -32800 -32860 0
-220 -468 -28708 -24616 -49192 -32816 -32800 -32860 0
-124 -244 -436 -932 -904 -1800 -3592 -7176 -57356 -49228 -32860 0
-124 -244 -436 -932 -14344 -28680 -57352 -49168 -49228 -32860 0
-220 -468 -916 -14372 -12328 -24616 -49192 -49168 -49228 -32860 0
-220 -244 -184 -312 -808 -1800 -57356 -49228 -32972 0
-220 -244 -436 -820 -808 -1800 -3592 -7176 -57356 -49228 -32972 0
-220 -244 -436 -820 -1828 -28680 -57352 -49168 -32848 -32972 0
-220 -468 -916 -820 -1828 -3620 -7204 -14344 -28680 -57352 -49168 -49228 -32972 0
-220 -468 -916 -1812 -28708 -24616 -49192 -32816 -32848 -32972 0
-460 -468 -436 -312 -568 -1576 -3592 -57356 -49228 -32972 0
-460 -468 -436 -820 -568 -1576 -3592 -7176 -57356 -49228 -32972 0
-460 -916 -820 -568 -1080 -3112 -7176 -57356 -49228 -32972 0
-460 -1812 -1588 -3124 -6196 -14372 -28680 -57352 -49168 -32848 -32972 0
-460 -3604 -3124 -6196 -4152 -12328 -28680 -57352 -57356 -49228 -32972 0
-460 -3604 -7188 -6196 -4152 -12328 -24616 -57352 -57356 -49228 -32972 0
-460 -3604 -7188 -14356 -28692 -28708 -24616 -49192 -32816 -32848 -32972 0
-460 -7188 -6196 -4152 -8248 -24616 -57352 -57356 -49228 -32972 0
-460 -7188 -6196 -12340 -24628 -24616 -57352 -49168 -32848 -32972 0
-460 -14356 -12340 -8248 -16440 -49192 -49168 -49228 -32972 0
-124 -64 -184 -424 -904 -49228 -32860 0
-124 -188 -436 -424 -904 -1800 -3592 -49228 -32860 0
-124 -188 -436 -932 -904 -1800 -3592 -7176 -49228 -32860 0
-124 -188 -436 -932 -3592 -7176 -14344 -28680 -49228 -32860 0
-124 -188 -436 -932 -7176 -14344 -28680 -57352 -49228 -32860 0
-124 -188 -436 -932 -14344 -28680 -57352 -49224 -49228 -32860 0
-124 -188 -436 -932 -28680 -57352 -49224 -32848 -32860 0
-220 -188 -436 -932 -1828 -7176 -14344 -28680 -57352 -49228 -32860 0
-220 -188 -436 -932 -1828 -14344 -28680 -57352 -49224 -49228 -32860 0
-220 -412 -916 -932 -1828 -1576 -3112 -7176 -14344 -49228 -32860 0
-220 -188 -436 -312 -808 -1800 -3592 -49228 -32972 0
-220 -188 -436 -820 -1828 -1800 -3592 -7176 -14344 -49228 -32972 0
-220 -412 -436 -312 -808 -1576 -3592 -49228 -32972 0
-220 -412 -916 -820 -808 -1576 -3112 -7176 -49228 -32972 0
-460 -412 -436 -312 -568 -1576 -3592 -49228 -32972 0
-460 -412 -916 -1812 -3604 -7204 -14372 -28708 -24616 -57352 -49224 -32848 -32972 0
-460 -908 -1812 -3604 -7188 -6196 -14372 -28708 -24616 -57352 -49224 -32848 -32972 0
-460 -908 -7188 -6196 -4152 -8248 -24616 -57352 -49228 -32972 0
-460 -908 -7188 -14356 -12340 -8248 -24616 -49192 -49224 -49228 -32972 0
-460 -908 -28692 -24628 -16440 -32824 -32872 -32848 -32972 0
-220 -188 -64 -312 -808 -1800 -32972 0
-220 -188 -316 -820 -1828 -7176 -14344 -28680 -57352 -32972 0
-220 -188 -316 -820 -1828 -28680 -57352 -49224 -32968 -32972 0
-220 -412 -316 -820 -808 -1576 -3592 -7176 -32972 0
-220 -412 -316 -820 -1828 -1576 -3592 -7176 -14344 -32972 0
-220 -412 -796 -820 -1828 -1576 -3112 -7176 -14344 -32972 0
-460 -412 -316 -820 -1588 -3620 -28680 -57352 -49224 -32968 -32972 0
-460 -908 -796 -820 -568 -1080 -3112 -7176 -32972 0
-460 -908 -1804 -14356 -28692 -24628 -16440 -49192 -32872 -32968 -32972 0
-460 -908 -1804 -28692 -24628 -16440 -32824 -32872 -32968 -32972 0
-460 -412 -316 -64 -568 -1576 -3592 0
-460 -412 -316 -572 -1588 -3620 -28680 -57352 -49224 -32968 0
-460 -908 -796 -572 -1588 -3124 -7204 -28680 -57352 -49224 -32968 0
-460 -908 -1804 -1564 -1588 -1080 -2104 -6184 -14344 0
-460 -908 -1804 -1564 -3604 -7188 -6196 -6184 -12328 -24616 -57352 0
-460 -908 -1804 -3596 -14356 -12340 -24628 -16440 -49192 -49224 -32968 0
-460 -908 -1804 -3596 -28692 -24628 -16440 -32824 -32872 -32968 0
-908 -796 -572 -64 -1080 -3112 -7176 0
-908 -796 -572 -1084 -1080 -3112 -7176 -14344 0
-908 -1804 -1564 -1084 -3124 -6196 -14372 -28680 -57352 -49224 -32968 0
-908 -1804 -3596 -7180 -7188 -6196 -4152 -8248 -24616 -57352 0
-908 -1804 -3596 -7180 -14356 -12340 -24628 -16440 -49192 -49224 -32968 0
-908 -1804 -3596 -7180 -28692 -24628 -16440 -32824 -32872 -32968 0
-1804 -1564 -1084 -64 -2104 -6184 -14344 0
-1804 -1564 -1084 -2108 -6196 -6184 -14344 -28680 -57352 0
-3596 -3100 -2108 -64 -4152 -12328 -28680 0
-3596 -3100 -2108 -4156 -4152 -12328 -28680 -57352 0
-7180 -6172 -4156 -64 -8248 -24616 -57352 0
-7180 -6172 -4156 -8252 -8248 -24616 -57352 -49224 0
-7180 -6172 -4156 -8252 -24628 -24616 -57352 -49224 -32968 0
-7180 -14348 -12316 -8252 -24628 -16440 -49192 -49224 -32968 0
-7180 -14348 -28684 -24604 -24628 -16440 -32824 -32872 -32968 0
-14348 -12316 -8252 -64 -16440 -49192 -49224 0
-14348 -12316 -8252 -16444 -16440 -49192 -49224 -32968 0
-14348 -12316 -24604 -16444 -16440 -49192 -32872 -32968 0
-14348 -28684 -24604 -16444 -16440 -32824 -32872 -32968 0
-28684 -24604 -16444 -64 -32824 -32872 -32968 0
-64 -120 -216 -468 -57356 -49196 -32816 0
-112 -120 -216 -468 -916 -57356 -49196 -32816 0
-112 -232 -216 -468 -916 -1812 -57356 -49196 -32816 0
-112 -232 -456 -468 -916 -1812 -3604 -57356 -49196 -32816 0
-112 -232 -456 -904 -7188 -14356 -28692 -57364 -57356 -49196 -32876 0
-112 -232 -456 -904 -14356 -28692 -57364 -49180 -49196 -32876 0
-112 -232 -456 -904 -28692 -57364 -49180 -32828 -32876 0
-236 -484 -456 -904 -1800 -3592 -28692 -57364 -49180 -32828 -32876 0
-236 -484 -7176 -14344 -28680 -24600 -57364 -49180 -32828 -32876 0
-236 -484 -28680 -24600 -49176 -32800 -32828 -32876 0
-112 -232 -184 -408 -916 -1812 -57356 -49228 -32876 0
-112 -232 -424 -904 -916 -1812 -3604 -7188 -57356 -49228 -32876 0
-236 -484 -424 -408 -792 -1560 -3604 -57356 -49228 -32876 0
-236 -484 -932 -14344 -12312 -24600 -49176 -49180 -49228 -32876 0
-236 -232 -184 -312 -792 -1812 -57356 -49228 -32972 0
-236 -484 -932 -808 -792 -1560 -3096 -7188 -57356 -49228 -32972 0
-236 -484 -932 -1828 -28680 -24600 -49176 -32800 -32860 -32972 0
-460 -484 -424 -808 -568 -1560 -3604 -7188 -57356 -49228 -32972 0
-460 -932 -1828 -3620 -3112 -7176 -14344 -12312 -28692 -57364 -49180 -49228 -32972 0
-460 -932 -1828 -3620 -7204 -28680 -24600 -49176 -32800 -32860 -32972 0
-460 -3620 -7204 -14372 -28708 -28680 -24600 -49176 -32800 -32860 -32972 0
-460 -7204 -6184 -4152 -8248 -24600 -57364 -57356 -49228 -32972 0
-460 -7204 -6184 -12328 -8248 -24600 -57364 -49180 -49228 -32972 0
-460 -14372 -12328 -8248 -16440 -49176 -49180 -49228 -32972 0
-460 -14372 -12328 -24616 -16440 -49176 -49180 -32860 -32972 0
-460 -28708 -24616 -16440 -32824 -32800 -32860 -32972 0
-112 -64 -184 -408 -916 -49228 -32876 0
-112 -176 -184 -408 -916 -1812 -49228 -32876 0
-112 -176 -424 -408 -916 -1812 -3604 -49228 -32876 0
-112 -176 -424 -904 -916 -1812 -3604 -7188 -49228 -32876 0
-112 -176 -424 -904 -14356 -28692 -57364 -49236 -49228 -32876 0
-112 -176 -424 -904 -28692 -57364 -49236 -32860 -32876 0
-236 -176 -184 -408 -792 -1812 -49228 -32876 0
-236 -176 -424 -904 -1800 -28692 -57364 -49236 -32860 -32876 0
-236 -428 -932 -7176 -14344 -28680 -24600 -57364 -49236 -32860 -32876 0
-236 -428 -932 -14344 -28680 -24600 -49176 -49236 -32860 -32876 0
-236 -176 -424 -808 -1800 -7188 -14356 -28692 -57364 -49228 -32972 0
-236 -176 -424 -808 -1800 -28692 -57364 -49236 -32860 -32972 0
-236 -428 -932 -1828 -14344 -28680 -24600 -49176 -49236 -32860 -32972 0
-460 -428 -424 -312 -568 -1560 -3604 -49228 -32972 0
-460 -428 -932 -808 -568 -1560 -3096 -7188 -49228 -32972 0
-460 -428 -932 -1828 -1576 -3592 -7176 -14344 -28692 -57364 -49236 -32860 -32972 0
-460 -428 -932 -1828 -3620 -28680 -24600 -49176 -32856 -32860 -32972 0
-460 -908 -932 -808 -568 -1080 -3096 -7188 -49228 -32972 0
-460 -908 -932 -1828 -3620 -3112 -7176 -14344 -12312 -28692 -57364 -49236 -49228 -32972 0
-460 -908 -1828 -1576 -1080 -2104 -6168 -14356 -49228 -32972 0
-460 -908 -7204 -6184 -4152 -8248 -24600 -57364 -49228 -32972 0
-460 -908 -7204 -14372 -12328 -8248 -24600 -49176 -49236 -49228 -32972 0
-460 -908 -14372 -12328 -8248 -16440 -49176 -49236 -49228 -32972 0
-460 -908 -14372 -12328 -24616 -16440 -49176 -49236 -32860 -32972 0
-460 -908 -28708 -24616 -16440 -32824 -32856 -32860 -32972 0
-236 -176 -64 -312 -792 -1812 -32972 0
-236 -176 -304 -808 -1800 -28692 -57364 -49236 -32980 -32972 0
-236 -428 -304 -312 -792 -1560 -3604 -32972 0
-236 -428 -304 -808 -1800 -3592 -28692 -57364 -49236 -32980 -32972 0
-460 -428 -304 -808 -1576 -3592 -3604 -7188 -14356 -28692 -32972 0
-460 -428 -304 -808 -1576 -3592 -14356 -28692 -57364 -49236 -32972 0
-460 -428 -304 -808 -1576 -3592 -28692 -57364 -49236 -32980 -32972 0
-460 -908 -812 -808 -568 -1080 -3096 -7188 -32972 0
-460 -908 -812 -808 -1576 -3112 -7176 -28692 -57364 -49236 -32980 -32972 0
-460 -908 -1804 -14372 -12328 -8248 -16440 -49176 -49236 -32972 0
-460 -428 -304 -64 -568 -1560 -3604 0
-460 -428 -304 -560 -1576 -3592 -14356 -28692 -57364 -49236 0
-460 -908 -812 -560 -568 -1080 -3096 -7188 0
-460 -908 -812 -560 -1576 -3112 -7176 -28692 -57364 -49236 -32980 0
-460 -908 -1804 -3596 -14372 -12328 -8248 -16440 -49176 -49236 0
-908 -812 -560 -64 -1080 -3096 -7188 0
-908 -812 -560 -1072 -3112 -7176 -14356 -28692 -57364 -49236 0
-908 -812 -1580 -3116 -7204 -7176 -6168 -12312 -24600 -57364 0
-908 -812 -1580 -3116 -7204 -7176 -14344 -28680 -24600 -57364 -49236 -32980 0
-908 -1804 -1580 -1072 -1080 -2104 -6168 -14356 0
-908 -1804 -3596 -3116 -7204 -6184 -12328 -28680 -24600 -57364 -49236 -32980 0
-1804 -1580 -1072 -64 -2104 -6168 -14356 0
-1804 -1580 -1072 -2096 -2104 -6168 -14356 -28692 0
-1804 -1580 -3116 -2096 -6184 -14344 -12312 -28692 -57364 -49236 0
-1804 -1580 -3116 -6188 -6184 -14344 -12312 -24600 -57364 -49236 0
-1804 -3596 -7180 -6188 -14372 -12328 -8248 -24600 -49176 -49236 0
-1804 -3596 -7180 -14348 -14372 -12328 -24616 -16440 -49176 -49236 -32980 0
-3596 -3116 -2096 -64 -4152 -12312 -28692 0
-3596 -3116 -2096 -4144 -4152 -12312 -28692 -57364 0
-3596 -3116 -2096 -4144 -12328 -12312 -28692 -57364 -49236 0
-3596 -7180 -6188 -4144 -12328 -8248 -24600 -57364 -49236 0
-3596 -7180 -6188 -4144 -12328 -24616 -24600 -57364 -49236 -32980 0
-7180 -6188 -4144 -64 -8248 -24600 -57364 0
-14348 -12332 -8240 -64 -16440 -49176 -49236 0
-14348 -12332 -8240 -16432 -16440 -49176 -49236 -32980 0
-14348 -12332 -24620 -16432 -16440 -49176 -32856 -32980 0
-28684 -24620 -16432 -64 -32824 -32856 -32980 0
-64 -120 -216 -456 -57356 -49196 -32828 0
-124 -120 -216 -456 -904 -57356 -49196 -32828 0
-124 -244 -216 -456 -904 -1800 -57356 -49196 -32828 0
-124 -244 -468 -456 -904 -1800 -3592 -57356 -49196 -32828 0
-124 -244 -468 -7176 -14344 -28680 -57352 -57356 -49196 -32828 0
-124 -244 -468 -14344 -28680 -57352 -49168 -49196 -32828 0
-124 -244 -468 -28680 -57352 -49168 -32816 -32828 0
-124 -120 -216 -408 -904 -57356 -49196 -32876 0
-124 -244 -468 -408 -904 -1800 -3592 -57356 -49196 -32876 0
-124 -244 -468 -916 -7176 -14344 -28680 -57352 -57356 -49196 -32876 0
-236 -244 -468 -408 -792 -1800 -3592 -57356 -49196 -32876 0
-236 -484 -468 -916 -1812 -3604 -28680 -57352 -49168 -32816 -32876 0
-124 -244 -436 -916 -7176 -14344 -28680 -57352 -57356 -49228 -32876 0
-236 -484 -932 -7188 -6168 -12312 -24600 -57352 -57356 -49228 -32876 0
-236 -484 -932 -14356 -12312 -24600 -49176 -49168 -49228 -32876 0
-236 -484 -932 -28692 -24600 -49176 -32800 -32848 -32876 0
-236 -244 -184 -312 -792 -1800 -57356 -49228 -32972 0
-236 -244 -436 -820 -1812 -28680 -57352 -49168 -32848 -32972 0
-236 -484 -932 -820 -1812 -3604 -7188 -7176 -14344 -28680 -57352 -57356 -49228 -32972 0
-460 -484 -436 -312 -568 -1560 -3592 -57356 -49228 -32972 0
-460 -484 -932 -820 -568 -1560 -3096 -7176 -57356 -49228 -32972 0
-460 -484 -932 -820 -1588 -3604 -3096 -7176 -14344 -28680 -57356 -49228 -32972 0
-460 -3620 -3124 -6196 -4152 -12312 -28680 -57352 -57356 -49228 -32972 0
-460 -3620 -3124 -6196 -12340 -12312 -28680 -57352 -49168 -49228 -32972 0
-460 -3620 -7204 -14372 -28708 -28692 -24600 -49176 -32800 -32848 -32972 0
-460 -7204 -6196 -12340 -8248 -24600 -57352 -49168 -49228 -32972 0
-460 -14372 -12340 -8248 -16440 -49176 -49168 -49228 -32972 0
-460 -14372 -12340 -24628 -16440 -49176 -49168 -32848 -32972 0
-460 -14372 -28708 -24628 -16440 -49176 -32800 -32848 -32972 0
-124 -64 -184 -408 -904 -49228 -32876 0
-124 -188 -184 -408 -904 -1800 -49228 -32876 0
-124 -188 -436 -408 -904 -1800 -3592 -49228 -32876 0
-124 -188 -436 -916 -904 -1800 -3592 -7176 -49228 -32876 0
-124 -188 -436 -916 -14344 -28680 -57352 -49224 -49228 -32876 0
-124 -188 -436 -916 -28680 -57352 -49224 -32848 -32876 0
-236 -188 -184 -408 -792 -1800 -49228 -32876 0
-236 -188 -436 -916 -1812 -14344 -28680 -57352 -49224 -49228 -32876 0
-236 -188 -436 -916 -1812 -28680 -57352 -49224 -32848 -32876 0
-236 -428 -436 -916 -1812 -1560 -3592 -7176 -14344 -49228 -32876 0
-236 -188 -184 -312 -792 -1800 -49228 -32972 0
-236 -188 -436 -820 -1812 -28680 -57352 -49224 -32848 -32972 0
-236 -428 -932 -1828 -28692 -24600 -49176 -32856 -32848 -32972 0
-460 -428 -436 -312 -568 -1560 -3592 -49228 -32972 0
-460 -428 -436 -820 -1588 -3604 -14344 -28680 -57352 -49224 -49228 -32972 0
-460 -428 -932 -820 -568 -1560 -3096 -7176 -49228 -32972 0
-460 -428 -932 -1828 -1588 -3604 -7188 -14356 -28680 -57352 -49224 -32848 -32972 0
-460 -428 -932 -1828 -3620 -7188 -14356 -28692 -24600 -57352 -49224 -32848 -32972 0
-460 -908 -932 -820 -568 -1080 -3096 -7176 -49228 -32972 0
-460 -908 -932 -1828 -1588 -1080 -3096 -6168 -14344 -49228 -32972 0
-460 -908 -932 -1828 -1588 -3124 -7188 -6168 -14344 -28680 -57352 -49228 -32972 0
-460 -908 -1828 -1588 -1080 -2104 -6168 -14344 -49228 -32972 0
-460 -908 -3620 -7204 -6196 -12340 -28692 -24600 -57352 -49224 -32848 -32972 0
-460 -908 -7204 -6196 -12340 -8248 -24600 -57352 -49224 -49228 -32972 0
-460 -908 -14372 -12340 -8248 -16440 -49176 -49224 -49228 -32972 0
-460 -908 -14372 -12340 -24628 -16440 -49176 -49224 -32848 -32972 0
-460 -908 -28708 -24628 -16440 -32824 -32856 -32848 -32972 0
-236 -188 -64 -312 -792 -1800 -32972 0
-236 -188 -316 -820 -1812 -28680 -57352 -49224 -32968 -32972 0
-460 -428 -316 -312 -568 -1560 -3592 -32972 0
-460 -428 -812 -1828 -3620 -7188 -14356 -28692 -24600 -57352 -49224 -32968 -32972 0
-460 -908 -1804 -1828 -1588 -3124 -2104 -6168 -14344 -28680 -32972 0
-460 -908 -1804 -14372 -12340 -8248 -16440 -49176 -49224 -32972 0
-460 -908 -1804 -14372 -28708 -24628 -16440 -49176 -32856 -32968 -32972 0
-460 -908 -1804 -28708 -24628 -16440 -32824 -32856 -32968 -32972 0
-460 -428 -316 -64 -568 -1560 -3592 0
-460 -428 -316 -572 -1588 -3604 -28680 -57352 -49224 -32968 0
-460 -908 -812 -572 -568 -1080 -3096 -7176 0
-460 -908 -1804 -1580 -1588 -1080 -2104 -6168 -14344 0
-908 -812 -572 -64 -1080 -3096 -7176 0
-908 -812 -572 -1084 -3124 -7188 -7176 -14344 -28680 -57352 0
-908 -812 -572 -1084 -3124 -7188 -28680 -57352 -49224 -32968 0
-1804 -1580 -1084 -64 -2104 -6168 -14344 0
-1804 -3596 -7180 -14348 -14372 -12340 -24628 -16440 -49176 -49224 -32968 0
-1804 -3596 -7180 -14348 -14372 -28708 -24628 -16440 -49176 -32856 -32968 0
-3596 -3116 -2108 -64 -4152 -12312 -28680 0
-3596 -3116 -2108 -4156 -12340 -12312 -28680 -57352 -49224 0
-3596 -7180 -14348 -12332 -12340 -24628 -16440 -49176 -49224 -32968 0
-7180 -6188 -4156 -64 -8248 -24600 -57352 0
-7180 -6188 -4156 -8252 -8248 -24600 -57352 -49224 0
-7180 -6188 -12332 -24620 -24628 -24600 -49176 -32856 -32968 0
-7180 -14348 -12332 -24620 -24628 -16440 -49176 -32856 -32968 0
-7180 -14348 -28684 -24620 -24628 -16440 -32824 -32856 -32968 0
-14348 -12332 -8252 -64 -16440 -49176 -49224 0
-14348 -12332 -8252 -16444 -16440 -49176 -49224 -32968 0
-14348 -12332 -24620 -16444 -16440 -49176 -32856 -32968 0
-28684 -24620 -16444 -64 -32824 -32856 -32968 0
-64 -112 -236 -484 -57364 -49176 -32800 0
-96 -112 -236 -484 -932 -57364 -49176 -32800 0
-96 -208 -236 -484 -932 -1828 -57364 -49176 -32800 0
-96 -208 -460 -484 -932 -1828 -3620 -57364 -49176 -32800 0
-96 -208 -460 -932 -1828 -3620 -7204 -57364 -49176 -32800 0
-96 -208 -460 -3620 -7204 -14372 -28708 -57364 -49176 -32800 0
-96 -208 -460 -28708 -57380 -49204 -32824 -32800 0
-96 -112 -236 -428 -932 -57364 -49176 -32856 0
-96 -208 -460 -428 -932 -1828 -3620 -57364 -49176 -32856 0
-96 -208 -460 -908 -7204 -14372 -28708 -57380 -57364 -49176 -32856 0
-216 -208 -460 -908 -812 -1828 -3620 -7204 -57364 -49176 -32856 0
-216 -456 -460 -908 -1804 -1580 -3620 -7204 -14372 -57364 -49176 -32856 0
-216 -456 -460 -908 -1804 -3596 -28708 -57380 -49204 -32824 -32856 0
-216 -456 -28684 -24620 -49196 -32828 -32824 -32856 0
-96 -208 -400 -908 -932 -1828 -3620 -7204 -57364 -49236 -32856 0
-96 -208 -400 -908 -7204 -14372 -28708 -57380 -57364 -49236 -32856 0
-96 -208 -400 -908 -14372 -28708 -57380 -49204 -49236 -32856 0
-216 -208 -176 -428 -812 -1828 -57364 -49236 -32856 0
-216 -456 -904 -908 -812 -1580 -3116 -7204 -57364 -49236 -32856 0
-216 -208 -176 -304 -812 -1828 -57364 -49236 -32980 0
-216 -456 -400 -304 -812 -1580 -3620 -57364 -49236 -32980 0
-216 -456 -904 -1800 -14348 -12332 -24620 -49196 -49204 -49236 -32980 0
-468 -456 -400 -304 -560 -1580 -3620 -57364 -49236 -32980 0
-468 -456 -400 -784 -560 -1580 -3620 -7204 -57364 -49236 -32980 0
-468 -456 -904 -784 -560 -1580 -3116 -7204 -57364 -49236 -32980 0
-468 -904 -784 -560 -1072 -3116 -7204 -57364 -49236 -32980 0
-468 -904 -784 -1552 -3088 -3116 -7204 -14372 -28708 -57364 -49236 -32980 0
-468 -3592 -3088 -2096 -4144 -12332 -28708 -57364 -49236 -32980 0
-468 -3592 -7176 -6160 -4144 -12332 -24620 -57380 -57364 -49236 -32980 0
-468 -7176 -6160 -12304 -24592 -24620 -57380 -49204 -32884 -32980 0
-468 -14344 -12304 -8240 -16432 -49196 -49204 -49236 -32980 0
-468 -14344 -12304 -24592 -16432 -49196 -49204 -32884 -32980 0
-468 -14344 -28680 -24592 -16432 -49196 -32828 -32884 -32980 0
-96 -64 -176 -428 -932 -49236 -32856 0
-96 -160 -400 -428 -932 -1828 -3620 -49236 -32856 0
-96 -160 -400 -908 -932 -1828 -3620 -7204 -49236 -32856 0
-96 -160 -400 -908 -28708 -57380 -49252 -32884 -32856 0
-216 -160 -176 -428 -812 -1828 -49236 -32856 0
-216 -160 -400 -908 -1804 -7204 -14372 -28708 -57380 -49236 -32856 0
-216 -408 -400 -908 -1804 -1580 -3620 -7204 -14372 -49236 -32856 0
-216 -160 -176 -304 -812 -1828 -49236 -32980 0
-216 -160 -400 -784 -1804 -1828 -3620 -7204 -14372 -49236 -32980 0
-216 -408 -904 -784 -812 -1580 -3116 -7204 -49236 -32980 0
-468 -408 -400 -304 -560 -1580 -3620 -49236 -32980 0
-468 -408 -904 -1800 -1552 -3596 -7180 -14348 -14372 -28708 -57380 -49252 -49236 -32980 0
-468 -408 -904 -1800 -1552 -3596 -7180 -14348 -28708 -57380 -49252 -32884 -32980 0
-468 -408 -904 -1800 -3592 -7180 -14348 -12332 -24620 -57380 -49252 -49236 -32980 0
-468 -408 -904 -1800 -3592 -7180 -14348 -28684 -24620 -57380 -49252 -32884 -32980 0
-468 -916 -904 -784 -1552 -1072 -3116 -7204 -14372 -49236 -32980 0
-468 -916 -1800 -1552 -3088 -2096 -6188 -14372 -28708 -49236 -32980 0
-468 -916 -1800 -3592 -7176 -6160 -14348 -28684 -24620 -57380 -49252 -32884 -32980 0
-468 -916 -7176 -6160 -12304 -8240 -24620 -57380 -49252 -49236 -32980 0
-468 -916 -14344 -12304 -8240 -16432 -49196 -49252 -49236 -32980 0
-468 -916 -28680 -24592 -16432 -32816 -32876 -32884 -32980 0
-216 -160 -64 -304 -812 -1828 -32980 0
-216 -160 -288 -784 -1804 -28708 -57380 -49252 -32996 -32980 0
-468 -408 -792 -784 -560 -1580 -3116 -7204 -32980 0
-468 -408 -792 -1800 -3592 -28684 -24620 -49196 -32876 -32996 -32980 0
-468 -916 -792 -784 -560 -1072 -3116 -7204 -32980 0
-468 -916 -792 -1800 -1552 -1072 -3116 -6188 -14372 -32980 0
-468 -916 -1812 -1800 -3592 -7176 -6160 -14348 -28684 -24620 -57380 -49252 -32996 -32980 0
-468 -916 -1812 -1800 -3592 -7176 -14344 -14348 -28684 -24620 -49196 -49252 -32996 -32980 0
-468 -916 -1812 -7176 -6160 -4144 -8240 -24620 -57380 -32980 0
-468 -916 -1812 -14344 -12304 -8240 -16432 -49196 -49252 -32980 0
-468 -916 -1812 -14344 -28680 -24592 -16432 -49196 -32876 -32996 -32980 0
-468 -916 -1812 -28680 -24592 -16432 -32816 -32876 -32996 -32980 0
-468 -408 -288 -64 -560 -1580 -3620 0
-468 -408 -288 -544 -1552 -3596 -14372 -28708 -57380 -49252 0
-468 -408 -288 -544 -1552 -3596 -28708 -57380 -49252 -32996 0
-468 -408 -792 -544 -560 -1580 -3116 -7204 0
-468 -408 -792 -544 -1552 -3596 -7180 -28708 -57380 -49252 -32996 0
-468 -916 -792 -544 -1552 -3088 -7180 -7204 -14372 -28708 -57380 0
-468 -916 -792 -544 -1552 -3088 -7180 -14372 -28708 -57380 -49252 0
-468 -916 -792 -544 -1552 -3088 -7180 -28708 -57380 -49252 -32996 0
-468 -916 -1812 -1560 -1552 -1072 -2096 -6188 -14372 0
-468 -916 -1812 -1560 -3592 -7176 -6160 -14348 -28684 -24620 -57380 -49252 -32996 0
-916 -792 -544 -64 -1072 -3116 -7204 0
-916 -792 -1560 -1056 -1072 -3116 -6188 -14372 0
-1812 -1560 -1056 -64 -2096 -6188 -14372 0
-1812 -1560 -1056 -2080 -6160 -14348 -28708 -57380 -49252 -32996 0
-3604 -3096 -2080 -64 -4144 -12332 -28708 0
-3604 -3096 -2080 -4128 -12304 -12332 -28708 -57380 -49252 0
-3604 -7188 -6168 -4128 -12304 -8240 -24620 -57380 -49252 0
-3604 -7188 -14356 -12312 -12304 -8240 -16432 -49196 -49252 0
-7188 -6168 -4128 -64 -8240 -24620 -57380 0
-7188 -6168 -4128 -8224 -24592 -24620 -57380 -49252 -32996 0
-14356 -12312 -8224 -64 -16432 -49196 -49252 0
-14356 -12312 -8224 -16416 -16432 -49196 -49252 -32996 0
-14356 -12312 -24600 -16416 -16432 -49196 -32876 -32996 0
-28692 -24600 -16416 -64 -32816 -32876 -32996 0
-64 -112 -236 -460 -57364 -49176 -32824 0
-120 -112 -236 -460 -908 -57364 -49176 -32824 0
-120 -232 -236 -460 -908 -1804 -57364 -49176 -32824 0
-120 -232 -484 -460 -908 -1804 -3596 -57364 -49176 -32824 0
-120 -112 -236 -428 -908 -57364 -49176 -32856 0
-120 -232 -484 -428 -908 -1804 -3596 -57364 -49176 -32856 0
-120 -232 -484 -932 -7180 -14348 -28684 -57356 -57364 -49176 -32856 0
-216 -456 -7204 -14372 -28708 -24620 -57356 -49180 -32800 -32856 0
-216 -456 -28708 -24620 -49196 -32828 -32800 -32856 0
-120 -232 -176 -428 -908 -1804 -57364 -49236 -32856 0
-120 -232 -424 -932 -908 -1804 -3596 -7180 -57364 -49236 -32856 0
-216 -456 -904 -932 -812 -1580 -3116 -7180 -57364 -49236 -32856 0
-216 -232 -176 -304 -812 -1804 -57364 -49236 -32980 0
-216 -456 -424 -304 -812 -1580 -3596 -57364 -49236 -32980 0
-216 -456 -904 -808 -1828 -3620 -3116 -7180 -14348 -28684 -57364 -49236 -32980 0
-216 -456 -904 -808 -1828 -3620 -7204 -14348 -28684 -57356 -49180 -49236 -32980 0
-468 -456 -904 -808 -560 -1580 -3116 -7180 -57364 -49236 -32980 0
-468 -456 -904 -1800 -3592 -28708 -24620 -49196 -32828 -32860 -32980 0
-468 -904 -808 -1576 -1072 -3116 -7180 -14348 -57364 -49236 -32980 0
-468 -904 -1800 -3592 -3112 -7204 -14372 -12332 -28684 -57356 -49180 -49236 -32980 0
-468 -3592 -7176 -6184 -4144 -12332 -24620 -57356 -57364 -49236 -32980 0
-468 -3592 -7176 -14344 -28680 -28708 -24620 -49196 -32828 -32860 -32980 0
-468 -7176 -6184 -4144 -8240 -24620 -57356 -57364 -49236 -32980 0
-468 -7176 -6184 -12328 -8240 -24620 -57356 -49180 -49236 -32980 0
-468 -14344 -12328 -8240 -16432 -49196 -49180 -49236 -32980 0
-120 -64 -176 -428 -908 -49236 -32856 0
-120 -184 -176 -428 -908 -1804 -49236 -32856 0
-120 -184 -424 -428 -908 -1804 -3596 -49236 -32856 0
-120 -184 -424 -932 -908 -1804 -3596 -7180 -49236 -32856 0
-120 -184 -424 -932 -14348 -28684 -57356 -49228 -49236 -32856 0
-120 -184 -424 -932 -28684 -57356 -49228 -32860 -32856 0
-216 -184 -176 -428 -812 -1804 -49236 -32856 0
-216 -408 -904 -932 -1828 -1580 -3116 -7180 -14348 -49236 -32856 0
-216 -408 -904 -14372 -28708 -24620 -49196 -49228 -32860 -32856 0
-216 -184 -424 -808 -1828 -28684 -57356 -49228 -32860 -32980 0
-216 -408 -904 -1800 -3620 -7204 -14372 -12332 -28684 -57356 -49228 -49236 -32980 0
-216 -408 -904 -1800 -28708 -24620 -49196 -32876 -32860 -32980 0
-468 -408 -424 -304 -560 -1580 -3596 -49236 -32980 0
-468 -408 -904 -1800 -1576 -1580 -3116 -6188 -14348 -49236 -32980 0
-468 -408 -904 -1800 -1576 -3620 -7204 -6188 -14348 -28684 -57356 -49236 -32980 0
-468 -408 -904 -1800 -1576 -3620 -7204 -14372 -28684 -57356 -49228 -32860 -32980 0
-468 -916 -904 -808 -560 -1072 -3116 -7180 -49236 -32980 0
-468 -916 -904 -1800 -1576 -1072 -3116 -6188 -14348 -49236 -32980 0
-468 -916 -1800 -3592 -7176 -6184 -14372 -28708 -24620 -57356 -49228 -32860 -32980 0
-468 -916 -7176 -6184 -4144 -8240 -24620 -57356 -49236 -32980 0
-468 -916 -14344 -12328 -8240 -16432 -49196 -49228 -49236 -32980 0
-468 -916 -14344 -12328 -24616 -16432 -49196 -49228 -32860 -32980 0
-468 -916 -28680 -24616 -16432 -32816 -32876 -32860 -32980 0
-216 -184 -64 -304 -812 -1804 -32980 0
-216 -408 -312 -808 -1828 -1580 -3596 -7180 -14348 -32980 0
-216 -408 -312 -808 -1828 -3620 -28684 -57356 -49228 -32972 -32980 0
-216 -408 -792 -1800 -14372 -28708 -24620 -49196 -49228 -32972 -32980 0
-468 -408 -312 -304 -560 -1580 -3596 -32980 0
-468 -916 -792 -808 -560 -1072 -3116 -7180 -32980 0
-468 -916 -792 -808 -1576 -1072 -3116 -7180 -14348 -32980 0
-468 -916 -792 -1800 -1576 -1072 -3116 -6188 -14348 -32980 0
-468 -916 -1812 -14344 -12328 -8240 -16432 -49196 -49228 -32980 0
-468 -916 -1812 -14344 -28680 -24616 -16432 -49196 -32876 -32972 -32980 0
-468 -408 -312 -64 -560 -1580 -3596 0
-468 -916 -792 -568 -1576 -1072 -3116 -7180 -14348 0
-468 -916 -1812 -3604 -3592 -3112 -2096 -4144 -12332 -28684 0
-916 -792 -568 -64 -1072 -3116 -7180 0
-916 -792 -568 -1080 -3112 -7204 -28684 -57356 -49228 -32972 0
-916 -1812 -1560 -1080 -1072 -2096 -6188 -14348 0
-916 -1812 -1560 -1080 -3112 -2096 -6188 -14348 -28684 0
-916 -1812 -1560 -1080 -3112 -6184 -14372 -14348 -28684 -57356 -49228 0
-916 -1812 -1560 -1080 -3112 -6184 -14372 -28684 -57356 -49228 -32972 0
-1812 -1560 -1080 -64 -2096 -6188 -14348 0
-1812 -1560 -1080 -2104 -6184 -14372 -14348 -28684 -57356 -49228 0
-1812 -1560 -3096 -2104 -6184 -14372 -12332 -28684 -57356 -49228 0
-1812 -1560 -3096 -2104 -6184 -14372 -28708 -28684 -57356 -49228 -32972 0
-3604 -3096 -2104 -64 -4144 -12332 -28684 0
-7188 -6168 -4152 -64 -8240 -24620 -57356 0
-7188 -6168 -4152 -8248 -8240 -24620 -57356 -49228 0
-7188 -6168 -4152 -8248 -24616 -24620 -57356 -49228 -32972 0
-7188 -14356 -12312 -8248 -24616 -16432 -49196 -49228 -32972 0
-7188 -14356 -28692 -24600 -24616 -16432 -32816 -32876 -32972 0
-14356 -12312 -8248 -64 -16432 -49196 -49228 0
-14356 -12312 -24600 -16440 -16432 -49196 -32876 -32972 0
-28692 -24600 -16440 -64 -32816 -32876 -32972 0
-64 -112 -232 -484 -57364 -49180 -32800 0
-96 -208 -232 -484 -932 -1828 -57364 -49180 -32800 0
-96 -208 -456 -484 -932 -1828 -3620 -57364 -49180 -32800 0
-96 -208 -456 -7204 -14372 -28708 -57380 -57364 -49180 -32800 0
-96 -208 -456 -28708 -57380 -49204 -32828 -32800 0
-96 -208 -456 -424 -932 -1828 -3620 -57364 -49180 -32860 0
-96 -208 -456 -904 -1828 -3620 -7204 -14372 -57364 -49180 -32860 0
-96 -208 -456 -904 -7204 -14372 -28708 -57380 -57364 -49180 -32860 0
-220 -460 -456 -904 -1800 -3592 -28708 -57380 -49204 -32828 -32860 0
-220 -460 -904 -808 -1576 -3112 -7204 -57364 -49180 -32860 0
-220 -460 -28680 -24616 -49192 -32824 -32828 -32860 0
-96 -112 -176 -424 -932 -57364 -49236 -32860 0
-96 -208 -176 -424 -932 -1828 -57364 -49236 -32860 0
-96 -208 -400 -904 -932 -1828 -3620 -7204 -57364 -49236 -32860 0
-96 -208 -400 -904 -14372 -28708 -57380 -49204 -49236 -32860 0
-220 -208 -176 -424 -808 -1828 -57364 -49236 -32860 0
-220 -460 -400 -424 -808 -1576 -3620 -57364 -49236 -32860 0
-220 -208 -176 -304 -808 -1828 -57364 -49236 -32980 0
-220 -208 -400 -784 -1800 -28708 -57380 -49204 -32884 -32980 0
-220 -460 -400 -304 -808 -1576 -3620 -57364 -49236 -32980 0
-220 -460 -908 -784 -1800 -3592 -3112 -7204 -14372 -28708 -57364 -49236 -32980 0
-220 -460 -908 -784 -1800 -3592 -7176 -14372 -28708 -57380 -49204 -49236 -32980 0
-468 -460 -400 -304 -560 -1576 -3620 -57364 -49236 -32980 0
-468 -460 -400 -784 -560 -1576 -3620 -7204 -57364 -49236 -32980 0
-468 -460 -908 -1804 -1552 -3592 -7176 -6184 -14372 -28708 -57380 -57364 -49236 -32980 0
-468 -460 -908 -1804 -3596 -28680 -24616 -49192 -32824 -32884 -32980 0
-468 -908 -784 -1552 -3088 -7176 -14372 -28708 -57380 -49204 -49236 -32980 0
-468 -908 -1804 -3596 -7180 -28680 -24616 -49192 -32824 -32884 -32980 0
-468 -7180 -6160 -4144 -8240 -24616 -57380 -57364 -49236 -32980 0
-468 -7180 -6160 -12304 -8240 -24616 -57380 -49204 -49236 -32980 0
-468 -7180 -6160 -12304 -24592 -24616 -57380 -49204 -32884 -32980 0
-468 -14348 -12304 -8240 -16432 -49192 -49204 -49236 -32980 0
-468 -14348 -28684 -24592 -16432 -49192 -32824 -32884 -32980 0
-468 -28684 -24592 -16432 -32816 -32824 -32884 -32980 0
-96 -64 -176 -424 -932 -49236 -32860 0
-96 -160 -176 -424 -932 -1828 -49236 -32860 0
-96 -160 -400 -424 -932 -1828 -3620 -49236 -32860 0
-96 -160 -400 -904 -932 -1828 -3620 -7204 -49236 -32860 0
-96 -160 -400 -904 -14372 -28708 -57380 -49252 -49236 -32860 0
-96 -160 -400 -904 -28708 -57380 -49252 -32884 -32860 0
-220 -160 -176 -424 -808 -1828 -49236 -32860 0
-220 -160 -400 -904 -1800 -14372 -28708 -57380 -49252 -49236 -32860 0
-220 -160 -400 -784 -1800 -7204 -14372 -28708 -57380 -49236 -32980 0
-220 -412 -400 -304 -808 -1576 -3620 -49236 -32980 0
-468 -412 -400 -304 -560 -1576 -3620 -49236 -32980 0
-468 -412 -908 -784 -560 -1576 -3112 -7204 -49236 -32980 0
-468 -412 -908 -1804 -1552 -1576 -3112 -6184 -14372 -49236 -32980 0
-468 -412 -908 -1804 -1552 -3592 -7176 -14344 -28708 -57380 -49252 -32884 -32980 0
-468 -412 -908 -1804 -3596 -7176 -14344 -28680 -24616 -57380 -49252 -32884 -32980 0
-468 -916 -908 -1804 -1552 -1072 -3112 -6184 -14372 -49236 -32980 0
-468 -916 -1804 -3596 -7180 -6160 -14344 -28680 -24616 -57380 -49252 -32884 -32980 0
-468 -916 -14348 -12304 -8240 -16432 -49192 -49252 -49236 -32980 0
-468 -916 -14348 -12304 -24592 -16432 -49192 -49252 -32884 -32980 0
-468 -916 -28684 -24592 -16432 -32816 -32872 -32884 -32980 0
-220 -160 -64 -304 -808 -1828 -32980 0
-220 -160 -288 -784 -1800 -14372 -28708 -57380 -49252 -32980 0
-220 -160 -288 -784 -1800 -28708 -57380 -49252 -32996 -32980 0
-220 -412 -288 -784 -1800 -1576 -3620 -7204 -14372 -32980 0
-220 -412 -288 -784 -1800 -3592 -28708 -57380 -49252 -32996 -32980 0
-468 -916 -796 -784 -560 -1072 -3112 -7204 -32980 0
-468 -916 -796 -1804 -1552 -1072 -3112 -6184 -14372 -32980 0
-468 -916 -796 -1804 -3596 -3088 -7176 -14344 -28680 -28708 -57380 -49252 -32996 -32980 0
-468 -916 -1812 -1804 -1552 -1072 -2096 -6184 -14372 -32980 0
-468 -916 -1812 -1804 -1552 -3088 -2096 -6184 -14372 -28708 -32980 0
-468 -916 -1812 -7180 -6160 -4144 -8240 -24616 -57380 -32980 0
-468 -916 -1812 -14348 -12304 -24592 -16432 -49192 -49252 -32996 -32980 0
-468 -916 -1812 -14348 -28684 -24592 -16432 -49192 -32872 -32996 -32980 0
-468 -916 -1812 -28684 -24592 -16432 -32816 -32872 -32996 -32980 0
-468 -412 -288 -64 -560 -1576 -3620 0
-468 -412 -288 -544 -1552 -1576 -3620 -7204 -14372 0
-468 -412 -796 -544 -1552 -3592 -3112 -7204 -14372 -28708 0
-468 -916 -796 -544 -1552 -3088 -7176 -7204 -14372 -28708 -57380 0
-468 -916 -796 -544 -1552 -3088 -7176 -28708 -57380 -49252 -32996 0
-468 -916 -1812 -1564 -1552 -1072 -2096 -6184 -14372 0
-468 -916 -1812 -3604 -28684 -24592 -16432 -32816 -32872 -32996 0
-916 -796 -544 -64 -1072 -3112 -7204 0
-916 -796 -1564 -1056 -3088 -7176 -6184 -14372 -28708 -57380 0
-916 -1812 -1564 -1056 -3088 -2096 -6184 -14372 -28708 0
-1812 -1564 -1056 -64 -2096 -6184 -14372 0
-1812 -1564 -3100 -6172 -14348 -14344 -28680 -24616 -49192 -49252 -32996 0
-1812 -3604 -3100 -2080 -6160 -4144 -12328 -28708 -57380 0
-1812 -3604 -7188 -14356 -14348 -12304 -24592 -16432 -49192 -49252 -32996 0
-3604 -3100 -2080 -64 -4144 -12328 -28708 0
-3604 -3100 -2080 -4128 -12304 -28680 -28708 -57380 -49252 -32996 0
-7188 -6172 -4128 -64 -8240 -24616 -57380 0
-7188 -6172 -4128 -8224 -24592 -24616 -57380 -49252 -32996 0
-14356 -12316 -8224 -64 -16432 -49192 -49252 0
-28692 -24604 -16416 -64 -32816 -32872 -32996 0
-64 -112 -232 -456 -57364 -49180 -32828 0
-124 -112 -232 -456 -904 -57364 -49180 -32828 0
-124 -236 -232 -456 -904 -1800 -57364 -49180 -32828 0
-124 -236 -484 -456 -904 -1800 -3592 -57364 -49180 -32828 0
-124 -236 -484 -7176 -14344 -28680 -57352 -57364 -49180 -32828 0
-124 -236 -484 -14344 -28680 -57352 -49176 -49180 -32828 0
-124 -112 -232 -424 -904 -57364 -49180 -32860 0
-124 -236 -484 -424 -904 -1800 -3592 -57364 -49180 -32860 0
-124 -236 -484 -932 -904 -1800 -3592 -7176 -57364 -49180 -32860 0
-124 -236 -484 -932 -7176 -14344 -28680 -57352 -57364 -49180 -32860 0
-220 -460 -484 -932 -1828 -3620 -28680 -57352 -49176 -32800 -32860 0
-220 -460 -7204 -14372 -12328 -24616 -57352 -49176 -49180 -32860 0
-220 -460 -7204 -14372 -28708 -24616 -57352 -49176 -32800 -32860 0
-124 -236 -428 -932 -904 -1800 -3592 -7176 -57364 -49236 -32860 0
-124 -236 -428 -932 -14344 -28680 -57352 -49176 -49236 -32860 0
-220 -236 -176 -304 -808 -1800 -57364 -49236 -32980 0
-220 -236 -428 -812 -1828 -28680 -57352 -49176 -32856 -32980 0
-220 -460 -428 -304 -808 -1576 -3592 -57364 -49236 -32980 0
-220 -460 -908 -1804 -3620 -7204 -14372 -12328 -28680 -57352 -49176 -49236 -32980 0
-220 -460 -908 -1804 -14372 -12328 -24616 -49192 -49176 -49236 -32980 0
-220 -460 -908 -1804 -28708 -24616 -49192 -32824 -32856 -32980 0
-468 -460 -428 -304 -560 -1576 -3592 -57364 -49236 -32980 0
-468 -908 -812 -560 -1072 -3112 -7176 -57364 -49236 -32980 0
-468 -908 -1804 -1580 -1072 -3112 -6184 -14344 -57364 -49236 -32980 0
-468 -3596 -3116 -6188 -4144 -12328 -28680 -57352 -57364 -49236 -32980 0
-468 -7180 -6188 -4144 -8240 -24616 -57352 -57364 -49236 -32980 0
-468 -14348 -12332 -8240 -16432 -49192 -49176 -49236 -32980 0
-468 -14348 -12332 -24620 -16432 -49192 -49176 -32856 -32980 0
-468 -14348 -28684 -24620 -16432 -49192 -32824 -32856 -32980 0
-468 -28684 -24620 -16432 -32816 -32824 -32856 -32980 0
-124 -64 -176 -424 -904 -49236 -32860 0
-124 -188 -428 -424 -904 -1800 -3592 -49236 -32860 0
-124 -188 -428 -932 -904 -1800 -3592 -7176 -49236 -32860 0
-124 -188 -428 -932 -14344 -28680 -57352 -49224 -49236 -32860 0
-124 -188 -428 -932 -28680 -57352 -49224 -32856 -32860 0
-220 -188 -176 -424 -808 -1800 -49236 -32860 0
-220 -188 -428 -424 -808 -1800 -3592 -49236 -32860 0
-220 -188 -428 -932 -808 -1800 -3592 -7176 -49236 -32860 0
-220 -188 -428 -932 -1828 -14344 -28680 -57352 -49224 -49236 -32860 0
-220 -412 -428 -932 -1828 -1576 -3592 -7176 -14344 -49236 -32860 0
-220 -188 -428 -812 -1828 -1800 -3592 -7176 -14344 -49236 -32980 0
-220 -188 -428 -812 -1828 -28680 -57352 -49224 -32856 -32980 0
-220 -412 -908 -1804 -3620 -7204 -6184 -12328 -28680 -57352 -49236 -32980 0
-220 -412 -908 -1804 -28708 -24616 -49192 -32872 -32856 -32980 0
-468 -412 -428 -304 -560 -1576 -3592 -49236 -32980 0
-468 -412 -908 -1804 -1580 -1576 -3112 -6184 -14344 -49236 -32980 0
-468 -412 -908 -1804 -1580 -3620 -3112 -6184 -14344 -28680 -49236 -32980 0
-468 -412 -908 -1804 -1580 -3620 -7204 -6184 -14344 -28680 -57352 -49236 -32980 0
-468 -412 -908 -1804 -3596 -3620 -7204 -14372 -28708 -28680 -57352 -49224 -32856 -32980 0
-468 -412 -908 -1804 -3596 -7204 -14372 -28708 -24616 -57352 -49224 -32856 -32980 0
-468 -916 -908 -812 -560 -1072 -3112 -7176 -49236 -32980 0
-468 -916 -908 -1804 -1580 -1072 -3112 -6184 -14344 -49236 -32980 0
-468 -916 -1804 -1580 -1072 -2096 -6184 -14344 -49236 -32980 0
-468 -916 -7180 -6188 -12332 -8240 -24616 -57352 -49224 -49236 -32980 0
-468 -916 -28684 -24620 -16432 -32816 -32872 -32856 -32980 0
-220 -188 -64 -304 -808 -1800 -32980 0
-220 -188 -316 -812 -1828 -7176 -14344 -28680 -57352 -32980 0
-220 -188 -316 -812 -1828 -14344 -28680 -57352 -49224 -32980 0
-220 -188 -316 -812 -1828 -28680 -57352 -49224 -32968 -32980 0
-220 -412 -316 -812 -1828 -1576 -3592 -7176 -14344 -32980 0
-468 -412 -316 -812 -560 -1576 -3592 -7176 -32980 0
-468 -412 -316 -812 -1580 -3620 -3592 -7176 -14344 -28680 -32980 0
-468 -412 -316 -812 -1580 -3620 -14344 -28680 -57352 -49224 -32980 0
-468 -412 -796 -1804 -1580 -1576 -3112 -6184 -14344 -32980 0
-468 -916 -796 -812 -560 -1072 -3112 -7176 -32980 0
-468 -916 -1812 -7180 -6188 -4144 -8240 -24616 -57352 -32980 0
-468 -916 -1812 -7180 -6188 -12332 -8240 -24616 -57352 -49224 -32980 0
-468 -916 -1812 -14348 -12332 -8240 -16432 -49192 -49224 -32980 0
-468 -916 -1812 -14348 -28684 -24620 -16432 -49192 -32872 -32968 -32980 0
-468 -916 -1812 -28684 -24620 -16432 -32816 -32872 -32968 -32980 0
-468 -412 -316 -64 -560 -1576 -3592 0
-468 -412 -316 -572 -1580 -1576 -3592 -7176 -14344 0
-468 -412 -796 -1564 -3596 -14372 -28708 -24616 -49192 -49224 -32968 0
-468 -916 -796 -572 -1580 -3116 -7204 -28680 -57352 -49224 -32968 0
-468 -916 -1812 -1564 -1580 -1072 -2096 -6184 -14344 0
-468 -916 -1812 -3604 -28684 -24620 -16432 -32816 -32872 -32968 0
-916 -796 -572 -64 -1072 -3112 -7176 0
-1812 -1564 -1084 -64 -2096 -6184 -14344 0
-1812 -1564 -1084 -2108 -6188 -6184 -14344 -28680 -57352 0
-1812 -1564 -3100 -2108 -6188 -14372 -12328 -28680 -57352 -49224 0
-1812 -3604 -7188 -6172 -6188 -4144 -8240 -24616 -57352 0
-1812 -3604 -7188 -14356 -14348 -12332 -24620 -16432 -49192 -49224 -32968 0
-3604 -3100 -2108 -64 -4144 -12328 -28680 0
-3604 -7188 -6172 -4156 -12332 -24620 -24616 -57352 -49224 -32968 0
-7188 -6172 -4156 -64 -8240 -24616 -57352 0
-7188 -6172 -4156 -8252 -24620 -24616 -57352 -49224 -32968 0
-14356 -12316 -8252 -64 -16432 -49192 -49224 0
-14356 -12316 -8252 -16444 -16432 -49192 -49224 -32968 0
-28692 -24604 -16444 -64 -32816 -32872 -32968 0
-64 -112 -208 -460 -57364 -49204 -32824 0
-120 -112 -208 -460 -908 -57364 -49204 -32824 0
-120 -232 -208 -460 -908 -1804 -57364 -49204 -32824 0
-120 -232 -456 -460 -908 -1804 -3596 -57364 -49204 -32824 0
-120 -232 -456 -7180 -14348 -28684 -57356 -57364 -49204 -32824 0
-120 -112 -208 -400 -908 -57364 -49204 -32884 0
-120 -232 -208 -400 -908 -1804 -57364 -49204 -32884 0
-120 -232 -456 -400 -908 -1804 -3596 -57364 -49204 -32884 0
-120 -232 -456 -904 -7180 -14348 -28684 -57356 -57364 -49204 -32884 0
-120 -232 -456 -904 -14348 -28684 -57356 -49180 -49204 -32884 0
-244 -232 -456 -400 -784 -1804 -3596 -57364 -49204 -32884 0
-244 -484 -456 -904 -784 -1552 -3596 -7180 -57364 -49204 -32884 0
-120 -112 -176 -400 -908 -57364 -49236 -32884 0
-120 -232 -424 -904 -908 -1804 -3596 -7180 -57364 -49236 -32884 0
-120 -232 -424 -904 -14348 -28684 -57356 -49180 -49236 -32884 0
-244 -484 -424 -400 -784 -1552 -3596 -57364 -49236 -32884 0
-244 -484 -932 -28680 -24592 -49168 -32800 -32860 -32884 0
-244 -232 -176 -304 -784 -1804 -57364 -49236 -32980 0
-244 -484 -424 -304 -784 -1552 -3596 -57364 -49236 -32980 0
-244 -484 -932 -1828 -3592 -7176 -14344 -12304 -28684 -57356 -49180 -49236 -32980 0
-468 -484 -424 -808 -560 -1552 -3596 -7180 -57364 -49236 -32980 0
-468 -484 -932 -808 -560 -1552 -3088 -7180 -57364 -49236 -32980 0
-468 -484 -932 -1828 -1576 -3592 -7176 -6160 -14348 -28684 -57356 -57364 -49236 -32980 0
-468 -932 -808 -1576 -3112 -7176 -28684 -57356 -49180 -32860 -32980 0
-468 -3620 -7204 -6184 -4144 -12304 -24592 -57356 -57364 -49236 -32980 0
-468 -3620 -7204 -14372 -28708 -28680 -24592 -49168 -32800 -32860 -32980 0
-468 -7204 -6184 -12328 -8240 -24592 -57356 -49180 -49236 -32980 0
-468 -14372 -12328 -8240 -16432 -49168 -49180 -49236 -32980 0
-468 -14372 -12328 -24616 -16432 -49168 -49180 -32860 -32980 0
-468 -14372 -28708 -24616 -16432 -49168 -32800 -32860 -32980 0
-120 -64 -176 -400 -908 -49236 -32884 0
-120 -184 -176 -400 -908 -1804 -49236 -32884 0
-120 -184 -424 -400 -908 -1804 -3596 -49236 -32884 0
-120 -184 -424 -904 -908 -1804 -3596 -7180 -49236 -32884 0
-120 -184 -424 -904 -28684 -57356 -49228 -32860 -32884 0
-244 -184 -176 -400 -784 -1804 -49236 -32884 0
-244 -184 -424 -904 -1800 -14348 -28684 -57356 -49228 -49236 -32884 0
-244 -436 -932 -904 -1800 -1552 -3088 -7180 -14348 -49236 -32884 0
-244 -184 -424 -808 -1800 -1804 -3596 -7180 -14348 -49236 -32980 0
-244 -184 -424 -808 -1800 -28684 -57356 -49228 -32860 -32980 0
-244 -436 -932 -1828 -7176 -6160 -12304 -24592 -57356 -49236 -32980 0
-468 -436 -424 -808 -1576 -3592 -28684 -57356 -49228 -32860 -32980 0
-468 -436 -932 -1828 -1576 -3592 -7176 -14344 -28684 -57356 -49228 -32860 -32980 0
-468 -916 -932 -808 -560 -1072 -3088 -7180 -49236 -32980 0
-468 -916 -932 -808 -1576 -1072 -3088 -7180 -14348 -49236 -32980 0
-468 -916 -1828 -1576 -1072 -2096 -6160 -14348 -49236 -32980 0
-468 -916 -3620 -3112 -2096 -4144 -12304 -28684 -49236 -32980 0
-468 -916 -14372 -12328 -8240 -16432 -49168 -49228 -49236 -32980 0
-468 -916 -14372 -12328 -24616 -16432 -49168 -49228 -32860 -32980 0
-468 -916 -28708 -24616 -16432 -32816 -32848 -32860 -32980 0
-244 -184 -64 -304 -784 -1804 -32980 0
-244 -184 -312 -808 -1800 -28684 -57356 -49228 -32972 -32980 0
-244 -436 -312 -808 -1800 -3592 -28684 -57356 -49228 -32972 -32980 0
-468 -436 -312 -304 -560 -1552 -3596 -32980 0
-468 -436 -820 -808 -560 -1552 -3088 -7180 -32980 0
-468 -436 -820 -1828 -1576 -3592 -7176 -6160 -14348 -28684 -57356 -32980 0
-468 -436 -820 -1828 -1576 -3592 -7176 -14344 -14348 -28684 -57356 -49228 -32980 0
-468 -916 -820 -1828 -1576 -1072 -3088 -6160 -14348 -32980 0
-468 -916 -1812 -1828 -1576 -1072 -2096 -6160 -14348 -32980 0
-468 -916 -1812 -14372 -12328 -8240 -16432 -49168 -49228 -32980 0
-468 -916 -1812 -14372 -28708 -24616 -16432 -49168 -32848 -32972 -32980 0
-468 -916 -1812 -28708 -24616 -16432 -32816 -32848 -32972 -32980 0
-468 -436 -312 -64 -560 -1552 -3596 0
-468 -436 -820 -1588 -3620 -14344 -28680 -24592 -49168 -49228 -32972 0
-468 -916 -820 -568 -1576 -3112 -7176 -28684 -57356 -49228 -32972 0
-468 -916 -1812 -1588 -1576 -1072 -2096 -6160 -14348 0
-468 -916 -1812 -1588 -1576 -3112 -2096 -6160 -14348 -28684 0
-916 -820 -568 -64 -1072 -3088 -7180 0
-1812 -1588 -1080 -64 -2096 -6160 -14348 0
-1812 -1588 -1080 -2104 -2096 -6160 -14348 -28684 0
-1812 -3604 -7188 -6196 -6184 -12328 -8240 -24592 -57356 -49228 0
-3604 -3124 -2104 -64 -4144 -12304 -28684 0
-3604 -3124 -2104 -4152 -12328 -12304 -28684 -57356 -49228 0
-3604 -7188 -6196 -4152 -12328 -8240 -24592 -57356 -49228 0
-7188 -6196 -4152 -64 -8240 -24592 -57356 0
-7188 -6196 -4152 -8248 -24616 -24592 -57356 -49228 -32972 0
-7188 -14356 -28692 -24628 -24616 -16432 -32816 -32848 -32972 0
-14356 -12340 -8248 -64 -16432 -49168 -49228 0
-14356 -12340 -8248 -16440 -16432 -49168 -49228 -32972 0
-14356 -12340 -24628 -16440 -16432 -49168 -32848 -32972 0
-28692 -24628 -16440 -64 -32816 -32848 -32972 0
-64 -112 -208 -456 -57364 -49204 -32828 0
-124 -236 -208 -456 -904 -1800 -57364 -49204 -32828 0
-124 -236 -460 -456 -904 -1800 -3592 -57364 -49204 -32828 0
-124 -236 -460 -904 -1800 -3592 -7176 -57364 -49204 -32828 0
-124 -236 -460 -28680 -57352 -49176 -32824 -32828 0
-124 -236 -208 -400 -904 -1800 -57364 -49204 -32884 0
-124 -236 -460 -908 -7176 -14344 -28680 -57352 -57364 -49204 -32884 0
-124 -236 -460 -908 -28680 -57352 -49176 -32824 -32884 0
-244 -236 -208 -400 -784 -1800 -57364 -49204 -32884 0
-244 -236 -460 -400 -784 -1800 -3592 -57364 -49204 -32884 0
-244 -484 -460 -908 -1804 -3596 -28680 -57352 -49176 -32824 -32884 0
-244 -484 -908 -1804 -3596 -7180 -28680 -57352 -49176 -32824 -32884 0
-124 -112 -176 -400 -904 -57364 -49236 -32884 0
-124 -236 -428 -908 -7176 -14344 -28680 -57352 -57364 -49236 -32884 0
-244 -236 -176 -400 -784 -1800 -57364 -49236 -32884 0
-244 -236 -176 -304 -784 -1800 -57364 -49236 -32980 0
-244 -484 -428 -304 -784 -1552 -3592 -57364 -49236 -32980 0
-244 -484 -932 -1828 -28684 -24592 -49168 -32800 -32856 -32980 0
-468 -484 -428 -304 -560 -1552 -3592 -57364 -49236 -32980 0
-468 -484 -428 -812 -1580 -3596 -28680 -57352 -49176 -32856 -32980 0
-468 -484 -932 -812 -560 -1552 -3088 -7176 -57364 -49236 -32980 0
-468 -484 -932 -1828 -1580 -3596 -7180 -6160 -14344 -28680 -57352 -57364 -49236 -32980 0
-468 -932 -812 -560 -1072 -3088 -7176 -57364 -49236 -32980 0
-468 -932 -1828 -1580 -1072 -3088 -6160 -14344 -57364 -49236 -32980 0
-468 -3620 -3116 -6188 -4144 -12304 -28680 -57352 -57364 -49236 -32980 0
-468 -3620 -3116 -6188 -12332 -12304 -28680 -57352 -49176 -49236 -32980 0
-468 -3620 -7204 -6188 -4144 -12304 -24592 -57352 -57364 -49236 -32980 0
-468 -3620 -7204 -14372 -28708 -28684 -24592 -49168 -32800 -32856 -32980 0
-468 -7204 -6188 -12332 -8240 -24592 -57352 -49176 -49236 -32980 0
-468 -7204 -6188 -12332 -24620 -24592 -57352 -49176 -32856 -32980 0
-468 -14372 -12332 -8240 -16432 -49168 -49176 -49236 -32980 0
-468 -14372 -12332 -24620 -16432 -49168 -49176 -32856 -32980 0
-124 -64 -176 -400 -904 -49236 -32884 0
-124 -188 -428 -400 -904 -1800 -3592 -49236 -32884 0
-124 -188 -428 -908 -904 -1800 -3592 -7176 -49236 -32884 0
-124 -188 -428 -908 -14344 -28680 -57352 -49224 -49236 -32884 0
-124 -188 -428 -908 -28680 -57352 -49224 -32856 -32884 0
-244 -188 -428 -400 -784 -1800 -3592 -49236 -32884 0
-244 -188 -428 -908 -784 -1800 -3592 -7176 -49236 -32884 0
-244 -188 -428 -908 -1804 -14344 -28680 -57352 -49224 -49236 -32884 0
-244 -188 -428 -908 -1804 -28680 -57352 -49224 -32856 -32884 0
-244 -436 -932 -14348 -28684 -24592 -49168 -49224 -32856 -32884 0
-244 -188 -428 -304 -784 -1800 -3592 -49236 -32980 0
-244 -188 -428 -812 -1804 -1800 -3592 -7176 -14344 -49236 -32980 0
-244 -188 -428 -812 -1804 -28680 -57352 -49224 -32856 -32980 0
-244 -436 -932 -1828 -14348 -28684 -24592 -49168 -49224 -32856 -32980 0
-244 -436 -932 -1828 -28684 -24592 -49168 -32848 -32856 -32980 0
-468 -436 -428 -304 -560 -1552 -3592 -49236 -32980 0
-468 -436 -428 -812 -560 -1552 -3592 -7176 -49236 -32980 0
-468 -436 -932 -812 -560 -1552 -3088 -7176 -49236 -32980 0
-468 -916 -932 -1828 -1580 -1072 -3088 -6160 -14344 -49236 -32980 0
-468 -916 -1828 -1580 -1072 -2096 -6160 -14344 -49236 -32980 0
-468 -916 -7204 -6188 -4144 -8240 -24592 -57352 -49236 -32980 0
-468 -916 -7204 -6188 -12332 -24620 -24592 -57352 -49224 -32856 -32980 0
-468 -916 -7204 -14372 -12332 -8240 -24592 -49168 -49224 -49236 -32980 0
-468 -916 -14372 -12332 -8240 -16432 -49168 -49224 -49236 -32980 0
-468 -916 -14372 -12332 -24620 -16432 -49168 -49224 -32856 -32980 0
-468 -916 -28708 -24620 -16432 -32816 -32848 -32856 -32980 0
-244 -188 -64 -304 -784 -1800 -32980 0
-244 -188 -316 -812 -1804 -1800 -3592 -7176 -14344 -32980 0
-244 -188 -316 -812 -1804 -28680 -57352 -49224 -32968 -32980 0
-244 -436 -316 -812 -1804 -3596 -28680 -57352 -49224 -32968 -32980 0
-468 -436 -316 -304 -560 -1552 -3592 -32980 0
-468 -916 -820 -1828 -1580 -1072 -3088 -6160 -14344 -32980 0
-468 -916 -1812 -7204 -6188 -4144 -8240 -24592 -57352 -32980 0
-468 -916 -1812 -14372 -12332 -8240 -16432 -49168 -49224 -32980 0
-468 -916 -1812 -14372 -28708 -24620 -16432 -49168 -32848 -32968 -32980 0
-468 -916 -1812 -28708 -24620 -16432 -32816 -32848 -32968 -32980 0
-468 -436 -316 -64 -560 -1552 -3592 0
-468 -436 -316 -572 -1580 -1552 -3592 -7176 -14344 0
-468 -916 -820 -572 -1580 -3116 -7180 -7176 -14344 -28680 -57352 0
-468 -916 -820 -572 -1580 -3116 -7180 -28680 -57352 -49224 -32968 0
-468 -916 -1812 -3604 -14372 -28708 -24620 -16432 -49168 -32848 -32968 0
-916 -820 -572 -64 -1072 -3088 -7176 0
-916 -820 -572 -1084 -3116 -7180 -14344 -28680 -57352 -49224 0
-916 -1812 -1588 -3124 -7204 -6188 -14348 -28684 -24592 -57352 -49224 -32968 0
-916 -1812 -3604 -7188 -7204 -6188 -12332 -8240 -24592 -57352 -49224 0
-1812 -1588 -1084 -64 -2096 -6160 -14344 0
-1812 -1588 -1084 -2108 -6188 -14348 -14344 -28680 -57352 -49224 0
-1812 -1588 -3124 -6196 -6188 -14348 -12304 -24592 -57352 -49224 0
-1812 -3604 -7188 -14356 -14372 -12332 -8240 -16432 -49168 -49224 0
-1812 -3604 -7188 -14356 -14372 -12332 -24620 -16432 -49168 -49224 -32968 0
-3604 -3124 -2108 -64 -4144 -12304 -28680 0
-3604 -3124 -2108 -4156 -12332 -12304 -28680 -57352 -49224 0
-7188 -6196 -4156 -64 -8240 -24592 -57352 0
-7188 -6196 -12340 -8252 -24620 -24592 -49168 -49224 -32968 0
-7188 -6196 -12340 -24628 -24620 -24592 -49168 -32848 -32968 0
-14356 -12340 -8252 -64 -16432 -49168 -49224 0
-14356 -12340 -24628 -16444 -16432 -49168 -32848 -32968 0
-28692 -24628 -16444 -64 -32816 -32848 -32968 0
-64 -96 -220 -468 -57380 -49192 -32816 0
-112 -96 -220 -468 -916 -57380 -49192 -32816 0
-112 -208 -220 -468 -916 -1812 -57380 -49192 -32816 0
-112 -208 -460 -468 -916 -1812 -3604 -57380 -49192 -32816 0
-112 -208 -460 -7188 -14356 -28692 -57364 -57380 -49192 -32816 0
-112 -208 -460 -28692 -57364 -49204 -32824 -32816 0
-112 -96 -220 -412 -916 -57380 -49192 -32872 0
-112 -208 -220 -412 -916 -1812 -57380 -49192 -32872 0
-112 -208 -460 -412 -916 -1812 -3604 -57380 -49192 -32872 0
-112 -208 -460 -908 -916 -1812 -3604 -7188 -57380 -49192 -32872 0
-112 -208 -460 -908 -7188 -14356 -28692 -57364 -57380 -49192 -32872 0
-112 -208 -460 -908 -28692 -57364 -49204 -32824 -32872 0
-232 -208 -460 -412 -796 -1812 -3604 -57380 -49192 -32872 0
-232 -208 -460 -908 -796 -1812 -3604 -7188 -57380 -49192 -32872 0
-232 -456 -14348 -12316 -24604 -49180 -49204 -49192 -32872 0
-232 -456 -28684 -24604 -49180 -32828 -32824 -32872 0
-112 -96 -160 -412 -916 -57380 -49252 -32872 0
-112 -208 -400 -412 -916 -1812 -3604 -57380 -49252 -32872 0
-112 -208 -400 -908 -916 -1812 -3604 -7188 -57380 -49252 -32872 0
-232 -456 -400 -412 -796 -1564 -3604 -57380 -49252 -32872 0
-232 -208 -160 -288 -796 -1812 -57380 -49252 -32996 0
-232 -208 -400 -784 -1804 -28692 -57364 -49204 -32884 -32996 0
-232 -456 -400 -288 -796 -1564 -3604 -57380 -49252 -32996 0
-232 -456 -904 -1800 -28684 -24604 -49180 -32828 -32884 -32996 0
-484 -456 -400 -288 -544 -1564 -3604 -57380 -49252 -32996 0
-484 -456 -400 -784 -544 -1564 -3604 -7188 -57380 -49252 -32996 0
-484 -456 -904 -784 -544 -1564 -3100 -7188 -57380 -49252 -32996 0
-484 -904 -1800 -1552 -1056 -3100 -6172 -14356 -57380 -49252 -32996 0
-484 -904 -1800 -3592 -3088 -7180 -14348 -12316 -28692 -57364 -49204 -49252 -32996 0
-484 -3592 -7176 -6160 -4128 -12316 -24604 -57364 -57380 -49252 -32996 0
-484 -3592 -7176 -14344 -28680 -28684 -24604 -49180 -32828 -32884 -32996 0
-484 -7176 -6160 -4128 -8224 -24604 -57364 -57380 -49252 -32996 0
-484 -7176 -6160 -12304 -8224 -24604 -57364 -49204 -49252 -32996 0
-484 -14344 -12304 -8224 -16416 -49180 -49204 -49252 -32996 0
-484 -28680 -24592 -16416 -32800 -32828 -32884 -32996 0
-112 -64 -160 -412 -916 -49252 -32872 0
-112 -176 -400 -412 -916 -1812 -3604 -49252 -32872 0
-112 -176 -400 -908 -916 -1812 -3604 -7188 -49252 -32872 0
-112 -176 -400 -908 -14356 -28692 -57364 -49236 -49252 -32872 0
-112 -176 -400 -908 -28692 -57364 -49236 -32884 -32872 0
-232 -176 -160 -412 -796 -1812 -49252 -32872 0
-232 -176 -400 -908 -1804 -14356 -28692 -57364 -49236 -49252 -32872 0
-232 -424 -400 -908 -1804 -3596 -28692 -57364 -49236 -32884 -32872 0
-232 -176 -160 -288 -796 -1812 -49252 -32996 0
-232 -176 -400 -784 -1804 -28692 -57364 -49236 -32884 -32996 0
-484 -424 -400 -288 -544 -1564 -3604 -49252 -32996 0
-484 -424 -904 -1800 -1552 -3596 -7180 -14348 -14356 -28692 -57364 -49236 -49252 -32996 0
-484 -424 -904 -1800 -1552 -3596 -7180 -14348 -28692 -57364 -49236 -32884 -32996 0
-484 -424 -904 -1800 -3592 -7180 -14348 -28684 -24604 -57364 -49236 -32884 -32996 0
-484 -932 -1800 -1552 -1056 -2080 -6172 -14356 -49252 -32996 0
-484 -932 -1800 -3592 -7176 -6160 -14348 -28684 -24604 -57364 -49236 -32884 -32996 0
-484 -932 -3592 -3088 -2080 -4128 -12316 -28692 -49252 -32996 0
-484 -932 -3592 -3088 -6160 -4128 -12316 -28692 -57364 -49252 -32996 0
-484 -932 -7176 -6160 -4128 -8224 -24604 -57364 -49252 -32996 0
-484 -932 -7176 -14344 -28680 -24592 -24604 -49180 -32860 -32884 -32996 0
-484 -932 -14344 -12304 -8224 -16416 -49180 -49236 -49252 -32996 0
-484 -932 -28680 -24592 -16416 -32800 -32860 -32884 -32996 0
-232 -176 -64 -288 -796 -1812 -32996 0
-232 -176 -304 -784 -796 -1812 -3604 -7188 -32996 0
-232 -176 -304 -784 -1804 -1812 -3604 -7188 -14356 -32996 0
-232 -176 -304 -784 -1804 -14356 -28692 -57364 -49236 -32996 0
-232 -176 -304 -784 -1804 -28692 -57364 -49236 -32980 -32996 0
-232 -424 -304 -784 -1804 -3596 -28692 -57364 -49236 -32980 -32996 0
-232 -424 -808 -784 -1804 -1564 -3100 -7188 -14356 -32996 0
-484 -424 -304 -288 -544 -1564 -3604 -32996 0
-484 -424 -808 -1800 -1552 -1564 -3100 -6172 -14356 -32996 0
-484 -932 -808 -784 -1552 -3088 -7180 -28692 -57364 -49236 -32980 -32996 0
-484 -932 -1828 -14344 -28680 -24592 -16416 -49180 -32860 -32980 -32996 0
-484 -932 -1828 -28680 -24592 -16416 -32800 -32860 -32980 -32996 0
-484 -424 -304 -64 -544 -1564 -3604 0
-484 -424 -304 -560 -1552 -3596 -28692 -57364 -49236 -32980 0
-484 -932 -808 -560 -1552 -1056 -3100 -7188 -14356 0
-484 -932 -808 -560 -1552 -3088 -7180 -28692 -57364 -49236 -32980 0
-484 -932 -1828 -3620 -3592 -3088 -6160 -4128 -12316 -28692 -57364 0
-484 -932 -1828 -3620 -28680 -24592 -16416 -32800 -32860 -32980 0
-932 -808 -560 -64 -1056 -3100 -7188 0
-932 -1828 -3620 -7204 -14344 -12304 -24592 -16416 -49180 -49236 -32980 0
-1828 -1576 -1072 -64 -2080 -6172 -14356 0
-1828 -1576 -1072 -2096 -2080 -6172 -14356 -28692 0
-1828 -1576 -1072 -2096 -6160 -6172 -14356 -28692 -57364 0
-1828 -3620 -7204 -14372 -14344 -12304 -24592 -16416 -49180 -49236 -32980 0
-3620 -3112 -2096 -64 -4128 -12316 -28692 0
-3620 -3112 -2096 -4144 -4128 -12316 -28692 -57364 0
-3620 -3112 -2096 -4144 -12304 -12316 -28692 -57364 -49236 0
-3620 -3112 -2096 -4144 -12304 -28684 -28692 -57364 -49236 -32980 0
-7204 -6184 -4144 -64 -8224 -24604 -57364 0
-7204 -6184 -4144 -8240 -24592 -24604 -57364 -49236 -32980 0
-14372 -12328 -8240 -64 -16416 -49180 -49236 0
-28708 -24616 -16432 -64 -32800 -32860 -32980 0
-64 -96 -220 -460 -57380 -49192 -32824 0
-120 -96 -220 -460 -908 -57380 -49192 -32824 0
-120 -216 -220 -460 -908 -1804 -57380 -49192 -32824 0
-120 -216 -468 -460 -908 -1804 -3596 -57380 -49192 -32824 0
-120 -216 -468 -7180 -14348 -28684 -57356 -57380 -49192 -32824 0
-120 -96 -220 -412 -908 -57380 -49192 -32872 0
-120 -216 -408 -916 -908 -1804 -3596 -7180 -57380 -49252 -32872 0
-120 -216 -408 -916 -14348 -28684 -57356 -49196 -49252 -32872 0
-232 -216 -160 -412 -796 -1804 -57380 -49252 -32872 0
-232 -456 -904 -28692 -24604 -49180 -32828 -32876 -32872 0
-232 -216 -160 -288 -796 -1804 -57380 -49252 -32996 0
-232 -216 -408 -792 -1812 -14348 -28684 -57356 -49196 -49252 -32996 0
-232 -456 -408 -288 -796 -1564 -3596 -57380 -49252 -32996 0
-232 -456 -904 -1800 -1812 -3604 -3100 -6172 -14348 -28684 -57380 -49252 -32996 0
-232 -456 -904 -1800 -28692 -24604 -49180 -32828 -32876 -32996 0
-484 -456 -408 -288 -544 -1564 -3596 -57380 -49252 -32996 0
-484 -456 -408 -792 -544 -1564 -3596 -7180 -57380 -49252 -32996 0
-484 -456 -904 -792 -544 -1564 -3100 -7180 -57380 -49252 -32996 0
-484 -456 -904 -1800 -3592 -28692 -24604 -49180 -32828 -32876 -32996 0
-484 -904 -1800 -1560 -1056 -3100 -6172 -14348 -57380 -49252 -32996 0
-484 -3592 -3096 -2080 -4128 -12316 -28684 -57380 -49252 -32996 0
-484 -7176 -6168 -12312 -8224 -24604 -57356 -49196 -49252 -32996 0
-484 -7176 -6168 -12312 -24600 -24604 -57356 -49196 -32876 -32996 0
-484 -14344 -12312 -8224 -16416 -49180 -49196 -49252 -32996 0
-484 -14344 -12312 -24600 -16416 -49180 -49196 -32876 -32996 0
-484 -28680 -24600 -16416 -32800 -32828 -32876 -32996 0
-120 -64 -160 -412 -908 -49252 -32872 0
-120 -184 -160 -412 -908 -1804 -49252 -32872 0
-120 -184 -408 -412 -908 -1804 -3596 -49252 -32872 0
-120 -184 -408 -916 -908 -1804 -3596 -7180 -49252 -32872 0
-120 -184 -408 -916 -28684 -57356 -49228 -32876 -32872 0
-232 -184 -160 -412 -796 -1804 -49252 -32872 0
-232 -184 -408 -412 -796 -1804 -3596 -49252 -32872 0
-232 -184 -408 -916 -1812 -14348 -28684 -57356 -49228 -49252 -32872 0
-232 -184 -408 -792 -1812 -1804 -3596 -7180 -14348 -49252 -32996 0
-232 -184 -408 -792 -1812 -14348 -28684 -57356 -49228 -49252 -32996 0
-232 -184 -408 -792 -1812 -28684 -57356 -49228 -32876 -32996 0
-232 -424 -904 -792 -796 -1564 -3100 -7180 -49252 -32996 0
-232 -424 -904 -1800 -7188 -6172 -12316 -24604 -57356 -49252 -32996 0
-484 -424 -408 -288 -544 -1564 -3596 -49252 -32996 0
-484 -424 -904 -792 -544 -1564 -3100 -7180 -49252 -32996 0
-484 -932 -904 -792 -1560 -3096 -7188 -28684 -57356 -49228 -32876 -32996 0
-484 -932 -1800 -1560 -1056 -2080 -6172 -14348 -49252 -32996 0
-484 -932 -7176 -6168 -12312 -24600 -24604 -57356 -49228 -32876 -32996 0
-484 -932 -7176 -14344 -12312 -8224 -24604 -49180 -49228 -49252 -32996 0
-484 -932 -14344 -12312 -8224 -16416 -49180 -49228 -49252 -32996 0
-484 -932 -14344 -12312 -24600 -16416 -49180 -49228 -32876 -32996 0
-484 -932 -28680 -24600 -16416 -32800 -32860 -32876 -32996 0
-232 -184 -64 -288 -796 -1804 -32996 0
-232 -184 -312 -792 -796 -1804 -3596 -7180 -32996 0
-232 -184 -312 -792 -1812 -28684 -57356 -49228 -32972 -32996 0
-232 -424 -312 -792 -1812 -3604 -28684 -57356 -49228 -32972 -32996 0
-232 -424 -808 -792 -796 -1564 -3100 -7180 -32996 0
-232 -424 -808 -792 -1812 -1564 -3100 -7180 -14348 -32996 0
-484 -424 -312 -792 -544 -1564 -3596 -7180 -32996 0
-484 -424 -312 -792 -1560 -3604 -3596 -7180 -14348 -28684 -32996 0
-484 -424 -312 -792 -1560 -3604 -14348 -28684 -57356 -49228 -32996 0
-484 -424 -312 -792 -1560 -3604 -28684 -57356 -49228 -32972 -32996 0
-484 -932 -808 -792 -544 -1056 -3100 -7180 -32996 0
-484 -932 -808 -1800 -1560 -1056 -3100 -6172 -14348 -32996 0
-484 -932 -1828 -14344 -28680 -24600 -16416 -49180 -32860 -32972 -32996 0
-484 -932 -1828 -28680 -24600 -16416 -32800 -32860 -32972 -32996 0
-484 -424 -312 -64 -544 -1564 -3596 0
-484 -424 -808 -568 -544 -1564 -3100 -7180 0
-484 -932 -808 -568 -544 -1056 -3100 -7180 0
-484 -932 -808 -1576 -3592 -7176 -14356 -28692 -24604 -49180 -49228 -32972 0
-484 -932 -1828 -3620 -7176 -6168 -12312 -24600 -24604 -57356 -49228 -32972 0
-932 -808 -568 -64 -1056 -3100 -7180 0
-932 -1828 -1576 -1080 -1056 -2080 -6172 -14348 0
-932 -1828 -1576 -1080 -3096 -6168 -14356 -28684 -57356 -49228 -32972 0
-1828 -1576 -1080 -64 -2080 -6172 -14348 0
-1828 -1576 -1080 -2104 -6168 -14356 -28684 -57356 -49228 -32972 0
-1828 -3620 -3112 -2104 -6168 -12312 -28692 -28684 -57356 -49228 -32972 0
-1828 -3620 -7204 -6184 -14344 -12312 -8224 -24604 -49180 -49228 0
-3620 -3112 -2104 -64 -4128 -12316 -28684 0
-3620 -3112 -2104 -4152 -12312 -12316 -28684 -57356 -49228 0
-3620 -7204 -6184 -4152 -12312 -8224 -24604 -57356 -49228 0
-7204 -6184 -4152 -64 -8224 -24604 -57356 0
-7204 -6184 -4152 -8248 -24600 -24604 -57356 -49228 -32972 0
-7204 -14372 -28708 -24616 -24600 -16416 -32800 -32860 -32972 0
-14372 -12328 -8248 -64 -16416 -49180 -49228 0
-14372 -12328 -8248 -16440 -16416 -49180 -49228 -32972 0
-28708 -24616 -16440 -64 -32800 -32860 -32972 0
-64 -96 -216 -468 -57380 -49196 -32816 0
-112 -96 -216 -468 -916 -57380 -49196 -32816 0
-112 -208 -216 -468 -916 -1812 -57380 -49196 -32816 0
-112 -208 -456 -468 -916 -1812 -3604 -57380 -49196 -32816 0
-112 -96 -216 -408 -916 -57380 -49196 -32876 0
-112 -208 -456 -408 -916 -1812 -3604 -57380 -49196 -32876 0
-112 -208 -456 -904 -7188 -14356 -28692 -57364 -57380 -49196 -32876 0
-112 -208 -456 -904 -14356 -28692 -57364 -49204 -49196 -32876 0
-236 -208 -216 -408 -792 -1812 -57380 -49196 -32876 0
-236 -460 -456 -904 -1800 -3592 -28692 -57364 -49204 -32828 -32876 0
-236 -460 -14344 -28680 -24600 -49176 -49204 -32828 -32876 0
-236 -460 -28680 -24600 -49176 -32824 -32828 -32876 0
-112 -208 -400 -408 -916 -1812 -3604 -57380 -49252 -32876 0
-112 -208 -400 -904 -7188 -14356 -28692 -57364 -57380 -49252 -32876 0
-112 -208 -400 -904 -14356 -28692 -57364 -49204 -49252 -32876 0
-112 -208 -400 -904 -28692 -57364 -49204 -32884 -32876 0
-236 -208 -160 -288 -792 -1812 -57380 -49252 -32996 0
-236 -460 -908 -784 -1800 -3592 -7176 -14356 -28692 -57364 -49204 -49252 -32996 0
-484 -460 -400 -288 -544 -1560 -3604 -57380 -49252 -32996 0
-484 -908 -784 -1552 -1056 -3096 -7188 -14356 -57380 -49252 -32996 0
-484 -14348 -12304 -8224 -16416 -49176 -49204 -49252 -32996 0
-112 -64 -160 -408 -916 -49252 -32876 0
-112 -176 -160 -408 -916 -1812 -49252 -32876 0
-112 -176 -400 -408 -916 -1812 -3604 -49252 -32876 0
-112 -176 -400 -904 -916 -1812 -3604 -7188 -49252 -32876 0
-112 -176 -400 -904 -14356 -28692 -57364 -49236 -49252 -32876 0
-112 -176 -400 -904 -28692 -57364 -49236 -32884 -32876 0
-236 -176 -160 -408 -792 -1812 -49252 -32876 0
-236 -176 -400 -904 -1800 -14356 -28692 -57364 -49236 -49252 -32876 0
-236 -428 -400 -904 -1800 -1560 -3604 -7188 -14356 -49252 -32876 0
-236 -428 -908 -14344 -28680 -24600 -49176 -49236 -32884 -32876 0
-236 -176 -160 -288 -792 -1812 -49252 -32996 0
-236 -176 -400 -288 -792 -1812 -3604 -49252 -32996 0
-236 -176 -400 -784 -1800 -14356 -28692 -57364 -49236 -49252 -32996 0
-236 -176 -400 -784 -1800 -28692 -57364 -49236 -32884 -32996 0
-236 -428 -400 -288 -792 -1560 -3604 -49252 -32996 0
-236 -428 -908 -784 -792 -1560 -3096 -7188 -49252 -32996 0
-236 -428 -908 -1804 -28680 -24600 -49176 -32856 -32884 -32996 0
-484 -428 -400 -288 -544 -1560 -3604 -49252 -32996 0
-484 -428 -400 -784 -1552 -3592 -28692 -57364 -49236 -32884 -32996 0
-484 -428 -908 -1804 -1552 -3592 -7176 -14344 -28692 -57364 -49236 -32884 -32996 0
-484 -428 -908 -1804 -3596 -7176 -14344 -28680 -24600 -57364 -49236 -32884 -32996 0
-484 -932 -908 -1804 -1552 -1056 -3096 -6168 -14356 -49252 -32996 0
-484 -932 -1804 -1552 -1056 -2080 -6168 -14356 -49252 -32996 0
-484 -932 -3596 -3088 -2080 -4128 -12312 -28692 -49252 -32996 0
-484 -932 -7180 -6160 -4128 -8224 -24600 -57364 -49252 -32996 0
-484 -932 -7180 -14348 -12304 -8224 -24600 -49176 -49236 -49252 -32996 0
-484 -932 -14348 -12304 -8224 -16416 -49176 -49236 -49252 -32996 0
-484 -932 -14348 -12304 -24592 -16416 -49176 -49236 -32884 -32996 0
-484 -932 -28684 -24592 -16416 -32800 -32856 -32884 -32996 0
-236 -176 -64 -288 -792 -1812 -32996 0
-236 -176 -304 -784 -1800 -28692 -57364 -49236 -32980 -32996 0
-236 -428 -304 -784 -1800 -1560 -3604 -7188 -14356 -32996 0
-484 -428 -304 -288 -544 -1560 -3604 -32996 0
-484 -428 -304 -784 -1552 -3592 -3604 -7188 -14356 -28692 -32996 0
-484 -428 -304 -784 -1552 -3592 -14356 -28692 -57364 -49236 -32996 0
-484 -932 -812 -784 -1552 -3088 -7176 -28692 -57364 -49236 -32980 -32996 0
-484 -932 -1828 -14348 -12304 -8224 -16416 -49176 -49236 -32996 0
-484 -932 -1828 -14348 -28684 -24592 -16416 -49176 -32856 -32980 -32996 0
-484 -428 -304 -64 -544 -1560 -3604 0
-484 -428 -304 -560 -1552 -3592 -28692 -57364 -49236 -32980 0
-484 -428 -812 -560 -1552 -3592 -7176 -28692 -57364 -49236 -32980 0
-484 -932 -1828 -3620 -3596 -7180 -6160 -4128 -12312 -24600 -57364 0
-484 -932 -1828 -3620 -7180 -6160 -4128 -8224 -24600 -57364 0
-932 -812 -560 -64 -1056 -3096 -7188 0
-932 -812 -560 -1072 -3088 -7176 -14356 -28692 -57364 -49236 0
-932 -812 -560 -1072 -3088 -7176 -28692 -57364 -49236 -32980 0
-1828 -1580 -1072 -64 -2080 -6168 -14356 0
-1828 -1580 -1072 -2096 -2080 -6168 -14356 -28692 0
-1828 -1580 -3116 -2096 -6160 -14344 -12312 -28692 -57364 -49236 0
-1828 -3620 -7204 -6188 -14348 -12304 -8224 -24600 -49176 -49236 0
-3620 -3116 -2096 -64 -4128 -12312 -28692 0
-3620 -3116 -2096 -4144 -12304 -12312 -28692 -57364 -49236 0
-3620 -3116 -2096 -4144 -12304 -28680 -28692 -57364 -49236 -32980 0
-3620 -7204 -6188 -4144 -4128 -8224 -24600 -57364 0
-3620 -7204 -14372 -12332 -28684 -24592 -16416 -49176 -32856 -32980 0
-7204 -6188 -4144 -64 -8224 -24600 -57364 0
-14372 -12332 -8240 -64 -16416 -49176 -49236 0
-14372 -12332 -8240 -16432 -16416 -49176 -49236 -32980 0
-28708 -24620 -16432 -64 -32800 -32856 -32980 0
-64 -96 -216 -456 -57380 -49196 -32828 0
-124 -96 -216 -456 -904 -57380 -49196 -32828 0
-124 -220 -216 -456 -904 -1800 -57380 -49196 -32828 0
-124 -220 -468 -456 -904 -1800 -3592 -57380 -49196 -32828 0
-124 -220 -468 -14344 -28680 -57352 -49192 -49196 -32828 0
-124 -220 -468 -916 -7176 -14344 -28680 -57352 -57380 -49196 -32876 0
-124 -220 -468 -916 -28680 -57352 -49192 -32816 -32876 0
-236 -460 -468 -916 -792 -1560 -3592 -7176 -57380 -49196 -32876 0
-236 -460 -468 -916 -1812 -3604 -28680 -57352 -49192 -32816 -32876 0
-236 -460 -7188 -14356 -28692 -24600 -57352 -49192 -32816 -32876 0
-236 -460 -14356 -28692 -24600 -49176 -49192 -32816 -32876 0
-236 -460 -28692 -24600 -49176 -32824 -32816 -32876 0
-124 -220 -412 -916 -904 -1800 -3592 -7176 -57380 -49252 -32876 0
-124 -220 -412 -916 -14344 -28680 -57352 -49192 -49252 -32876 0
-236 -220 -160 -408 -792 -1800 -57380 -49252 -32876 0
-236 -460 -908 -28692 -24600 -49176 -32824 -32872 -32876 0
-236 -220 -160 -288 -792 -1800 -57380 -49252 -32996 0
-236 -220 -412 -796 -1812 -14344 -28680 -57352 -49192 -49252 -32996 0
-236 -220 -412 -796 -1812 -28680 -57352 -49192 -32872 -32996 0
-236 -460 -908 -1804 -3604 -7188 -14356 -12312 -28680 -57352 -49192 -49252 -32996 0
-484 -460 -908 -1804 -3596 -28692 -24600 -49176 -32824 -32872 -32996 0
-484 -908 -796 -544 -1056 -3096 -7176 -57380 -49252 -32996 0
-484 -908 -796 -1564 -1056 -3096 -7176 -14344 -57380 -49252 -32996 0
-484 -3596 -7180 -14348 -28684 -28692 -24600 -49176 -32824 -32872 -32996 0
-484 -14348 -12316 -8224 -16416 -49176 -49192 -49252 -32996 0
-484 -14348 -12316 -24604 -16416 -49176 -49192 -32872 -32996 0
-124 -64 -160 -408 -904 -49252 -32876 0
-124 -188 -160 -408 -904 -1800 -49252 -32876 0
-124 -188 -412 -916 -904 -1800 -3592 -7176 -49252 -32876 0
-124 -188 -412 -916 -28680 -57352 -49224 -32872 -32876 0
-236 -188 -160 -408 -792 -1800 -49252 -32876 0
-236 -188 -412 -916 -1812 -14344 -28680 -57352 -49224 -49252 -32876 0
-236 -428 -412 -916 -792 -1560 -3592 -7176 -49252 -32876 0
-236 -428 -412 -916 -1812 -3604 -28680 -57352 -49224 -32872 -32876 0
-236 -428 -908 -916 -1812 -1560 -3096 -7176 -14344 -49252 -32876 0
-236 -188 -412 -288 -792 -1800 -3592 -49252 -32996 0
-236 -428 -908 -1804 -28692 -24600 -49176 -32856 -32872 -32996 0
-484 -428 -412 -288 -544 -1560 -3592 -49252 -32996 0
-484 -428 -412 -796 -1564 -3604 -28680 -57352 -49224 -32872 -32996 0
-484 -428 -908 -1804 -3596 -28692 -24600 -49176 -32856 -32872 -32996 0
-484 -932 -908 -1804 -1564 -1056 -3096 -6168 -14344 -49252 -32996 0
-484 -932 -908 -1804 -3596 -7180 -7188 -14356 -28692 -24600 -57352 -49224 -32872 -32996 0
-484 -932 -3596 -3100 -2080 -4128 -12312 -28680 -49252 -32996 0
-484 -932 -14348 -12316 -24604 -16416 -49176 -49224 -32872 -32996 0
-484 -932 -28684 -24604 -16416 -32800 -32856 -32872 -32996 0
-236 -188 -64 -288 -792 -1800 -32996 0
-236 -188 -316 -288 -792 -1800 -3592 -32996 0
-236 -188 -316 -796 -792 -1800 -3592 -7176 -32996 0
-236 -188 -316 -796 -1812 -28680 -57352 -49224 -32968 -32996 0
-236 -428 -316 -796 -792 -1560 -3592 -7176 -32996 0
-236 -428 -316 -796 -1812 -1560 -3592 -7176 -14344 -32996 0
-236 -428 -316 -796 -1812 -3604 -28680 -57352 -49224 -32968 -32996 0
-484 -428 -316 -288 -544 -1560 -3592 -32996 0
-484 -428 -316 -796 -1564 -1560 -3592 -7176 -14344 -32996 0
-484 -428 -316 -796 -1564 -3604 -14344 -28680 -57352 -49224 -32996 0
-484 -428 -812 -1804 -1564 -1560 -3096 -6168 -14344 -32996 0
-484 -428 -812 -1804 -3596 -28692 -24600 -49176 -32856 -32968 -32996 0
-484 -932 -1828 -14348 -12316 -8224 -16416 -49176 -49224 -32996 0
-484 -932 -1828 -14348 -28684 -24604 -16416 -49176 -32856 -32968 -32996 0
-484 -932 -1828 -28684 -24604 -16416 -32800 -32856 -32968 -32996 0
-484 -428 -316 -64 -544 -1560 -3592 0
-484 -428 -316 -572 -1564 -1560 -3592 -7176 -14344 0
-484 -428 -316 -572 -1564 -3604 -7176 -14344 -28680 -57352 0
-484 -932 -812 -572 -1564 -3100 -7188 -28680 -57352 -49224 -32968 0
-484 -932 -1828 -3620 -3596 -3100 -2080 -4128 -12312 -28680 0
-484 -932 -1828 -3620 -14348 -28684 -24604 -16416 -49176 -32856 -32968 0
-932 -812 -572 -64 -1056 -3096 -7176 0
-932 -812 -572 -1084 -3100 -3096 -7176 -14344 -28680 0
-932 -812 -572 -1084 -3100 -7188 -14344 -28680 -57352 -49224 0
-932 -812 -572 -1084 -3100 -7188 -28680 -57352 -49224 -32968 0
-1828 -1580 -1084 -64 -2080 -6168 -14344 0
-1828 -3620 -7204 -14372 -14348 -12316 -24604 -16416 -49176 -49224 -32968 0
-3620 -3116 -2108 -64 -4128 -12312 -28680 0
-3620 -3116 -6188 -4156 -12316 -28692 -24600 -57352 -49224 -32968 0
-3620 -7204 -14372 -12332 -12316 -8224 -16416 -49176 -49224 0
-7204 -6188 -4156 -64 -8224 -24600 -57352 0
-7204 -6188 -4156 -8252 -24604 -24600 -57352 -49224 -32968 0
-7204 -6188 -12332 -8252 -8224 -24600 -49176 -49224 0
-7204 -14372 -28708 -24620 -24604 -16416 -32800 -32856 -32968 0
-14372 -12332 -8252 -64 -16416 -49176 -49224 0
-28708 -24620 -16444 -64 -32800 -32856 -32968 0
-64 -96 -208 -460 -57380 -49204 -32824 0
-120 -96 -208 -460 -908 -57380 -49204 -32824 0
-120 -216 -208 -460 -908 -1804 -57380 -49204 -32824 0
-120 -216 -456 -460 -908 -1804 -3596 -57380 -49204 -32824 0
-244 -216 -456 -400 -784 -1804 -3596 -57380 -49204 -32884 0
-244 -216 -456 -904 -1800 -28684 -57356 -49196 -32828 -32884 0
-244 -468 -14344 -28680 -24592 -49168 -49196 -32828 -32884 0
-244 -468 -28680 -24592 -49168 -32816 -32828 -32884 0
-120 -216 -160 -400 -908 -1804 -57380 -49252 -32884 0
-244 -468 -916 -28680 -24592 -49168 -32816 -32876 -32884 0
-244 -216 -160 -288 -784 -1804 -57380 -49252 -32996 0
-244 -216 -408 -792 -1800 -28684 -57356 -49196 -32876 -32996 0
-244 -468 -916 -1812 -14344 -12304 -24592 -49168 -49196 -49252 -32996 0
-244 -468 -916 -1812 -28680 -24592 -49168 -32816 -32876 -32996 0
-484 -468 -916 -1812 -3604 -28680 -24592 -49168 -32816 -32876 -32996 0
-484 -3604 -7188 -6168 -4128 -12304 -24592 -57356 -57380 -49252 -32996 0
-484 -7188 -6168 -12312 -24600 -24592 -57356 -49196 -32876 -32996 0
-484 -14356 -12312 -8224 -16416 -49168 -49196 -49252 -32996 0
-120 -64 -160 -400 -908 -49252 -32884 0
-120 -184 -408 -400 -908 -1804 -3596 -49252 -32884 0
-120 -184 -408 -904 -908 -1804 -3596 -7180 -49252 -32884 0
-120 -184 -408 -904 -14348 -28684 -57356 -49228 -49252 -32884 0
-120 -184 -408 -904 -28684 -57356 -49228 -32876 -32884 0
-244 -184 -160 -400 -784 -1804 -49252 -32884 0
-244 -184 -408 -904 -1800 -14348 -28684 -57356 -49228 -49252 -32884 0
-244 -436 -916 -904 -1800 -1552 -3088 -7180 -14348 -49252 -32884 0
-244 -436 -916 -14344 -28680 -24592 -49168 -49228 -32876 -32884 0
-244 -184 -160 -288 -784 -1804 -49252 -32996 0
-244 -184 -408 -792 -784 -1804 -3596 -7180 -49252 -32996 0
-244 -184 -408 -792 -1800 -1804 -3596 -7180 -14348 -49252 -32996 0
-244 -184 -408 -792 -1800 -14348 -28684 -57356 -49228 -49252 -32996 0
-244 -184 -408 -792 -1800 -28684 -57356 -49228 -32876 -32996 0
-244 -436 -408 -288 -784 -1552 -3596 -49252 -32996 0
-244 -436 -916 -792 -784 -1552 -3088 -7180 -49252 -32996 0
-244 -436 -916 -792 -1800 -1552 -3088 -7180 -14348 -49252 -32996 0
-244 -436 -916 -1812 -28680 -24592 -49168 -32848 -32876 -32996 0
-484 -436 -408 -288 -544 -1552 -3596 -49252 -32996 0
-484 -436 -408 -792 -1560 -3592 -28684 -57356 -49228 -32876 -32996 0
-484 -436 -916 -1812 -3604 -14344 -12304 -24592 -49168 -49228 -49252 -32996 0
-484 -932 -916 -792 -1560 -1056 -3088 -7180 -14348 -49252 -32996 0
-484 -932 -916 -792 -1560 -3096 -7176 -28684 -57356 -49228 -32876 -32996 0
-484 -932 -916 -1812 -1560 -1056 -3088 -6160 -14348 -49252 -32996 0
-484 -932 -1812 -1560 -1056 -2080 -6160 -14348 -49252 -32996 0
-484 -932 -14356 -12312 -8224 -16416 -49168 -49228 -49252 -32996 0
-484 -932 -14356 -12312 -24600 -16416 -49168 -49228 -32876 -32996 0
-244 -184 -64 -288 -784 -1804 -32996 0
-244 -184 -312 -288 -784 -1804 -3596 -32996 0
-244 -184 -312 -792 -1800 -1804 -3596 -7180 -14348 -32996 0
-244 -184 -312 -792 -1800 -14348 -28684 -57356 -49228 -32996 0
-244 -436 -312 -288 -784 -1552 -3596 -32996 0
-244 -436 -312 -792 -1800 -3592 -28684 -57356 -49228 -32972 -32996 0
-484 -932 -820 -792 -544 -1056 -3088 -7180 -32996 0
-484 -932 -1828 -7188 -6168 -4128 -8224 -24592 -57356 -32996 0
-484 -932 -1828 -14356 -28692 -24600 -16416 -49168 -32848 -32972 -32996 0
-484 -932 -1828 -28692 -24600 -16416 -32800 -32848 -32972 -32996 0
-484 -436 -312 -64 -544 -1552 -3596 0
-484 -932 -820 -568 -544 -1056 -3088 -7180 0
-484 -932 -1828 -3620 -3604 -3096 -2080 -4128 -12304 -28684 0
-484 -932 -1828 -3620 -3604 -3096 -6168 -4128 -12304 -28684 -57356 0
-484 -932 -1828 -3620 -28692 -24600 -16416 -32800 -32848 -32972 0
-932 -820 -568 -64 -1056 -3088 -7180 0
-1828 -1588 -1080 -64 -2080 -6160 -14348 0
-1828 -1588 -1080 -2104 -6168 -6160 -14348 -28684 -57356 0
-1828 -1588 -3124 -6196 -14356 -14344 -12304 -24592 -49168 -49228 0
-1828 -3620 -3124 -2104 -6168 -12312 -28680 -28684 -57356 -49228 -32972 0
-3620 -3124 -2104 -64 -4128 -12304 -28684 0
-3620 -3124 -2104 -4152 -12312 -12304 -28684 -57356 -49228 0
-3620 -3124 -2104 -4152 -12312 -28680 -28684 -57356 -49228 -32972 0
-3620 -3124 -6196 -4152 -12312 -28680 -24592 -57356 -49228 -32972 0
-7204 -6196 -4152 -64 -8224 -24592 -57356 0
-7204 -6196 -4152 -8248 -8224 -24592 -57356 -49228 0
-7204 -6196 -4152 -8248 -24600 -24592 -57356 -49228 -32972 0
-14372 -12340 -8248 -64 -16416 -49168 -49228 0
-14372 -12340 -24628 -16440 -16416 -49168 -32848 -32972 0
-28708 -24628 -16440 -64 -32800 -32848 -32972 0
-64 -96 -208 -456 -57380 -49204 -32828 0
-124 -220 -208 -456 -904 -1800 -57380 -49204 -32828 0
-124 -220 -460 -400 -904 -1800 -3592 -57380 -49204 -32884 0
-124 -220 -460 -908 -904 -1800 -3592 -7176 -57380 -49204 -32884 0
-124 -220 -460 -908 -7176 -14344 -28680 -57352 -57380 -49204 -32884 0
-244 -468 -460 -908 -1804 -3596 -28680 -57352 -49192 -32824 -32884 0
-244 -468 -7180 -14348 -28684 -24592 -57352 -49192 -32824 -32884 0
-124 -220 -412 -908 -904 -1800 -3592 -7176 -57380 -49252 -32884 0
-124 -220 -412 -908 -14344 -28680 -57352 -49192 -49252 -32884 0
-124 -220 -412 -908 -28680 -57352 -49192 -32872 -32884 0
-244 -220 -160 -400 -784 -1800 -57380 -49252 -32884 0
-244 -468 -916 -7180 -6160 -12304 -24592 -57352 -57380 -49252 -32884 0
-244 -468 -916 -14348 -12304 -24592 -49168 -49192 -49252 -32884 0
-244 -468 -916 -14348 -28684 -24592 -49168 -49192 -32872 -32884 0
-244 -468 -916 -28684 -24592 -49168 -32816 -32872 -32884 0
-244 -220 -160 -288 -784 -1800 -57380 -49252 -32996 0
-244 -468 -916 -796 -784 -1552 -3088 -7176 -57380 -49252 -32996 0
-244 -468 -916 -1812 -28684 -24592 -49168 -32816 -32872 -32996 0
-484 -468 -412 -288 -544 -1552 -3592 -57380 -49252 -32996 0
-484 -468 -412 -796 -544 -1552 -3592 -7176 -57380 -49252 -32996 0
-484 -468 -916 -1812 -3604 -28684 -24592 -49168 -32816 -32872 -32996 0
-484 -1812 -1564 -1056 -2080 -6160 -14344 -57380 -49252 -32996 0
-484 -7188 -6172 -4128 -8224 -24592 -57352 -57380 -49252 -32996 0
-484 -7188 -6172 -12316 -8224 -24592 -57352 -49192 -49252 -32996 0
-484 -7188 -6172 -12316 -24604 -24592 -57352 -49192 -32872 -32996 0
-484 -14356 -12316 -8224 -16416 -49168 -49192 -49252 -32996 0
-484 -14356 -12316 -24604 -16416 -49168 -49192 -32872 -32996 0
-124 -64 -160 -400 -904 -49252 -32884 0
-124 -188 -160 -400 -904 -1800 -49252 -32884 0
-124 -188 -412 -400 -904 -1800 -3592 -49252 -32884 0
-124 -188 -412 -908 -904 -1800 -3592 -7176 -49252 -32884 0
-124 -188 -412 -908 -28680 -57352 -49224 -32872 -32884 0
-244 -188 -412 -908 -1804 -14344 -28680 -57352 -49224 -49252 -32884 0
-244 -436 -412 -908 -1804 -1552 -3592 -7176 -14344 -49252 -32884 0
-244 -188 -412 -796 -784 -1800 -3592 -7176 -49252 -32996 0
-244 -188 -412 -796 -1804 -1800 -3592 -7176 -14344 -49252 -32996 0
-244 -188 -412 -796 -1804 -28680 -57352 -49224 -32872 -32996 0
-244 -436 -916 -1812 -28684 -24592 -49168 -32848 -32872 -32996 0
-484 -436 -412 -288 -544 -1552 -3592 -49252 -32996 0
-484 -436 -916 -1812 -3604 -7180 -14348 -28684 -24592 -57352 -49224 -32872 -32996 0
-484 -932 -916 -1812 -3604 -3100 -7180 -14348 -12304 -28680 -57352 -49224 -49252 -32996 0
-484 -932 -916 -1812 -3604 -7188 -7180 -14348 -28684 -24592 -57352 -49224 -32872 -32996 0
-484 -932 -1812 -1564 -1056 -2080 -6160 -14344 -49252 -32996 0
-484 -932 -7188 -6172 -4128 -8224 -24592 -57352 -49252 -32996 0
-484 -932 -7188 -6172 -12316 -8224 -24592 -57352 -49224 -49252 -32996 0
-484 -932 -14356 -12316 -24604 -16416 -49168 -49224 -32872 -32996 0
-484 -932 -14356 -28692 -24604 -16416 -49168 -32848 -32872 -32996 0
-484 -932 -28692 -24604 -16416 -32800 -32848 -32872 -32996 0
-244 -188 -64 -288 -784 -1800 -32996 0
-244 -188 -316 -796 -1804 -28680 -57352 -49224 -32968 -32996 0
-244 -436 -316 -796 -1804 -3596 -28680 -57352 -49224 -32968 -32996 0
-244 -436 -820 -796 -1804 -1552 -3088 -7176 -14344 -32996 0
-484 -436 -316 -288 -544 -1552 -3592 -32996 0
-484 -436 -316 -796 -1564 -3596 -28680 -57352 -49224 -32968 -32996 0
-484 -932 -820 -796 -544 -1056 -3088 -7176 -32996 0
-484 -932 -1828 -1812 -1564 -1056 -2080 -6160 -14344 -32996 0
-484 -932 -1828 -7188 -6172 -4128 -8224 -24592 -57352 -32996 0
-484 -932 -1828 -7188 -6172 -12316 -8224 -24592 -57352 -49224 -32996 0
-484 -932 -1828 -14356 -12316 -8224 -16416 -49168 -49224 -32996 0
-484 -932 -1828 -14356 -28692 -24604 -16416 -49168 -32848 -32968 -32996 0
-484 -436 -316 -64 -544 -1552 -3592 0
-484 -436 -316 -572 -1564 -3596 -28680 -57352 -49224 -32968 0
-484 -932 -1828 -3620 -28692 -24604 -16416 -32800 -32848 -32968 0
-932 -820 -572 -64 -1056 -3088 -7176 0
-932 -820 -572 -1084 -3100 -7180 -28680 -57352 -49224 -32968 0
-932 -1828 -3620 -3124 -3100 -2080 -4128 -12304 -28680 0
-1828 -1588 -1084 -64 -2080 -6160 -14344 0
-1828 -1588 -1084 -2108 -6172 -6160 -14344 -28680 -57352 0
-1828 -3620 -3124 -2108 -6172 -12316 -28684 -28680 -57352 -49224 -32968 0
-3620 -3124 -2108 -64 -4128 -12304 -28680 0
-3620 -3124 -2108 -4156 -4128 -12304 -28680 -57352 0
-3620 -3124 -2108 -4156 -12316 -12304 -28680 -57352 -49224 0
-3620 -3124 -2108 -4156 -12316 -28684 -28680 -57352 -49224 -32968 0
-3620 -3124 -6196 -4156 -12316 -28684 -24592 -57352 -49224 -32968 0
-7204 -6196 -4156 -64 -8224 -24592 -57352 0
-7204 -14372 -28708 -24628 -24604 -16416 -32800 -32848 -32968 0
-14372 -12340 -8252 -64 -16416 -49168 -49224 0
-14372 -12340 -24628 -16444 -16416 -49168 -32848 -32968 0
-28708 -24628 -16444 -64 -32800 -32848 -32968 0
