p cnf 258112 15574
-6 0
-10 0
-18 0
-34 0
-66 0
-130 0
-258 0
-514 0
-1026 0
-2050 0
-15 0
-23 0
-39 0
-71 0
-135 0
-263 0
-519 0
-1031 0
-2055 0
-27 0
-43 0
-75 0
-139 0
-267 0
-523 0
-1035 0
-2059 0
-51 0
-83 0
-147 0
-275 0
-531 0
-1043 0
-2067 0
-99 0
-163 0
-291 0
-547 0
-1059 0
-2083 0
-195 0
-323 0
-579 0
-387 0
-643 0
-1155 0
-771 0
-1283 0
-2307 0
-1539 0
-2563 0
-3075 0
-32 0
-48 0
-80 0
-144 0
-272 0
-528 0
-1040 0
-2064 0
-56 0
-88 0
-152 0
-280 0
-536 0
-1048 0
-2072 0
-104 0
-168 0
-296 0
-552 0
-1064 0
-2088 0
-200 0
-328 0
-584 0
-392 0
-648 0
-1160 0
-776 0
-1288 0
-2312 0
-1544 0
-2568 0
-3080 0
-60 0
-92 0
-156 0
-284 0
-540 0
-1052 0
-2076 0
-108 0
-172 0
-300 0
-556 0
-1068 0
-2092 0
-204 0
-332 0
-588 0
-2124 0
-396 0
-652 0
-1164 0
-780 0
-1292 0
-2316 0
-1548 0
-2572 0
-3084 0
-116 0
-180 0
-308 0
-564 0
-1076 0
-2100 0
-212 0
-340 0
-596 0
-1108 0
-404 0
-660 0
-1172 0
-2196 0
-788 0
-1300 0
-2324 0
-1556 0
-2580 0
-3092 0
-228 0
-356 0
-612 0
-1124 0
-420 0
-676 0
-1188 0
-2212 0
-804 0
-1316 0
-2340 0
-1572 0
-2596 0
-3108 0
-452 0
-708 0
-836 0
-1348 0
-1604 0
-900 0
-2436 0
-1668 0
-3204 0
-1796 0
-2820 0
-3332 0
-3588 0
-208 207 0
-216 215 0
-408 407 0
-428 427 0
-820 819 0
-1588 1587 0
-14 5 0
-198 70 134 6 -5 0
-326 70 262 6 -5 0
-582 70 518 6 -5 0
-390 134 262 6 -5 0
-646 134 518 6 -5 0
-1158 134 1030 6 -5 0
-774 262 518 6 -5 0
-1286 262 1030 6 -5 0
-2310 262 2054 6 -5 0
-1542 518 1030 6 -5 0
-2566 518 2054 6 -5 0
-3078 1030 2054 6 -5 0
-14 9 0
-202 74 138 10 -9 0
-330 74 266 10 -9 0
-586 74 522 10 -9 0
-394 138 266 10 -9 0
-650 138 522 10 -9 0
-1162 138 1034 10 -9 0
-778 266 522 10 -9 0
-1290 266 1034 10 -9 0
-2314 266 2058 10 -9 0
-1546 522 1034 10 -9 0
-2570 522 2058 10 -9 0
-3082 1034 2058 10 -9 0
-22 17 0
-210 82 146 18 -17 0
-338 82 274 18 -17 0
-594 82 530 18 -17 0
-402 146 274 18 -17 0
-658 146 530 18 -17 0
-1170 146 1042 18 -17 0
-786 274 530 18 -17 0
-1298 274 1042 18 -17 0
-2322 274 2066 18 -17 0
-1554 530 1042 18 -17 0
-2578 530 2066 18 -17 0
-3090 1042 2066 18 -17 0
-38 33 0
-226 98 162 34 -33 0
-354 98 290 34 -33 0
-610 98 546 34 -33 0
-418 162 290 34 -33 0
-674 162 546 34 -33 0
-1186 162 1058 34 -33 0
-802 290 546 34 -33 0
-1314 290 1058 34 -33 0
-1570 546 1058 34 -33 0
-2594 546 2082 34 -33 0
-3106 1058 2082 34 -33 0
-78 70 74 66 -65 0
-86 70 82 66 -65 0
-102 70 98 66 -65 0
-90 74 82 66 -65 0
-106 74 98 66 -65 0
-194 65 0
-142 134 138 130 -129 0
-150 134 146 130 -129 0
-166 134 162 130 -129 0
-154 138 146 130 -129 0
-170 138 162 130 -129 0
-178 146 162 130 -129 0
-194 129 0
-270 262 266 258 -257 0
-278 262 274 258 -257 0
-294 262 290 258 -257 0
-282 266 274 258 -257 0
-298 266 290 258 -257 0
-306 274 290 258 -257 0
-322 257 0
-526 518 522 514 -513 0
-534 518 530 514 -513 0
-550 518 546 514 -513 0
-538 522 530 514 -513 0
-554 522 546 514 -513 0
-562 530 546 514 -513 0
-578 513 0
-1038 1030 1034 1026 -1025 0
-1046 1030 1042 1026 -1025 0
-1062 1030 1058 1026 -1025 0
-1074 1042 1058 1026 -1025 0
-1154 1025 0
-2062 2054 2058 2050 -2049 0
-2070 2054 2066 2050 -2049 0
-2086 2054 2082 2050 -2049 0
-2074 2058 2066 2050 -2049 0
-2306 2049 0
-31 14 0
-14 78 0
-207 79 143 15 -14 0
-335 79 271 15 -14 0
-591 79 527 15 -14 0
-14 142 0
-399 143 271 15 -14 0
-655 143 527 15 -14 0
-1167 143 1039 15 -14 0
-14 270 0
-783 271 527 15 -14 0
-1295 271 1039 15 -14 0
-2319 271 2063 15 -14 0
-14 526 0
-1551 527 1039 15 -14 0
-2575 527 2063 15 -14 0
-14 1038 0
-3087 1039 2063 15 -14 0
-14 2062 0
-31 22 0
-22 86 0
-215 87 151 23 -22 0
-343 87 279 23 -22 0
-599 87 535 23 -22 0
-2135 87 2071 23 -22 0
-22 150 0
-407 151 279 23 -22 0
-663 151 535 23 -22 0
-1175 151 1047 23 -22 0
-22 278 0
-791 279 535 23 -22 0
-1303 279 1047 23 -22 0
-2327 279 2071 23 -22 0
-22 534 0
-1559 535 1047 23 -22 0
-2583 535 2071 23 -22 0
-22 1046 0
-3095 1047 2071 23 -22 0
-22 2070 0
-47 38 0
-38 102 0
-231 103 167 39 -38 0
-359 103 295 39 -38 0
-615 103 551 39 -38 0
-38 166 0
-423 167 295 39 -38 0
-679 167 551 39 -38 0
-1191 167 1063 39 -38 0
-38 294 0
-807 295 551 39 -38 0
-1319 295 1063 39 -38 0
-2343 295 2087 39 -38 0
-38 550 0
-1575 551 1063 39 -38 0
-2599 551 2087 39 -38 0
-38 1062 0
-3111 1063 2087 39 -38 0
-38 2086 0
-79 70 0
-95 79 87 71 -70 0
-111 79 103 71 -70 0
-207 79 199 71 -70 0
-335 79 327 71 -70 0
-591 79 583 71 -70 0
-87 70 0
-119 87 103 71 -70 0
-215 87 199 71 -70 0
-343 87 327 71 -70 0
-599 87 583 71 -70 0
-1111 87 1095 71 -70 0
-103 70 0
-231 103 199 71 -70 0
-359 103 327 71 -70 0
-615 103 583 71 -70 0
-199 70 0
-455 199 327 71 -70 0
-711 199 583 71 -70 0
-327 70 0
-839 327 583 71 -70 0
-583 70 0
-70 2118 0
-143 134 0
-159 143 151 135 -134 0
-175 143 167 135 -134 0
-207 143 199 135 -134 0
-399 143 391 135 -134 0
-655 143 647 135 -134 0
-151 134 0
-183 151 167 135 -134 0
-215 151 199 135 -134 0
-407 151 391 135 -134 0
-663 151 647 135 -134 0
-167 134 0
-231 167 199 135 -134 0
-423 167 391 135 -134 0
-679 167 647 135 -134 0
-199 134 0
-455 199 391 135 -134 0
-711 199 647 135 -134 0
-391 134 0
-903 391 647 135 -134 0
-1415 391 1159 135 -134 0
-647 134 0
-1671 647 1159 135 -134 0
-1159 134 0
-2183 134 0
-271 262 0
-287 271 279 263 -262 0
-303 271 295 263 -262 0
-335 271 327 263 -262 0
-399 271 391 263 -262 0
-783 271 775 263 -262 0
-1295 271 1287 263 -262 0
-2319 271 2311 263 -262 0
-279 262 0
-311 279 295 263 -262 0
-343 279 327 263 -262 0
-407 279 391 263 -262 0
-791 279 775 263 -262 0
-1303 279 1287 263 -262 0
-2327 279 2311 263 -262 0
-295 262 0
-359 295 327 263 -262 0
-423 295 391 263 -262 0
-807 295 775 263 -262 0
-1319 295 1287 263 -262 0
-2343 295 2311 263 -262 0
-327 262 0
-455 327 391 263 -262 0
-839 327 775 263 -262 0
-391 262 0
-903 391 775 263 -262 0
-1415 391 1287 263 -262 0
-775 262 0
-1799 775 1287 263 -262 0
-2823 775 2311 263 -262 0
-1287 262 0
-3335 1287 2311 263 -262 0
-2311 262 0
-527 518 0
-543 527 535 519 -518 0
-559 527 551 519 -518 0
-591 527 583 519 -518 0
-655 527 647 519 -518 0
-783 527 775 519 -518 0
-1551 527 1543 519 -518 0
-2575 527 2567 519 -518 0
-535 518 0
-567 535 551 519 -518 0
-791 535 775 519 -518 0
-1559 535 1543 519 -518 0
-2583 535 2567 519 -518 0
-551 518 0
-679 551 647 519 -518 0
-807 551 775 519 -518 0
-1575 551 1543 519 -518 0
-2599 551 2567 519 -518 0
-583 518 0
-839 583 775 519 -518 0
-647 518 0
-903 647 775 519 -518 0
-1671 647 1543 519 -518 0
-775 518 0
-1799 775 1543 519 -518 0
-2823 775 2567 519 -518 0
-1543 518 0
-3591 1543 2567 519 -518 0
-2567 518 0
-1039 1030 0
-1055 1039 1047 1031 -1030 0
-1071 1039 1063 1031 -1030 0
-1551 1039 1543 1031 -1030 0
-3087 1039 3079 1031 -1030 0
-1047 1030 0
-1079 1047 1063 1031 -1030 0
-1559 1047 1543 1031 -1030 0
-3095 1047 3079 1031 -1030 0
-1063 1030 0
-1575 1063 1543 1031 -1030 0
-3111 1063 3079 1031 -1030 0
-1159 1030 0
-1671 1159 1543 1031 -1030 0
-1287 1030 0
-1799 1287 1543 1031 -1030 0
-3335 1287 3079 1031 -1030 0
-1543 1030 0
-3591 1543 3079 1031 -1030 0
-3079 1030 0
-2063 2054 0
-2079 2063 2071 2055 -2054 0
-2095 2063 2087 2055 -2054 0
-2575 2063 2567 2055 -2054 0
-3087 2063 3079 2055 -2054 0
-2071 2054 0
-2103 2071 2087 2055 -2054 0
-3095 2071 3079 2055 -2054 0
-2087 2054 0
-2599 2087 2567 2055 -2054 0
-3111 2087 3079 2055 -2054 0
-3143 2119 3079 2055 -2054 0
-2311 2054 0
-3335 2311 3079 2055 -2054 0
-2567 2054 0
-3591 2567 3079 2055 -2054 0
-3079 2054 0
-31 26 0
-26 90 0
-219 91 155 27 -26 0
-347 91 283 27 -26 0
-603 91 539 27 -26 0
-26 154 0
-411 155 283 27 -26 0
-667 155 539 27 -26 0
-1179 155 1051 27 -26 0
-26 282 0
-795 283 539 27 -26 0
-1307 283 1051 27 -26 0
-2331 283 2075 27 -26 0
-26 538 0
-1563 539 1051 27 -26 0
-2587 539 2075 27 -26 0
-26 1050 0
-3099 1051 2075 27 -26 0
-26 2074 0
-47 42 0
-42 106 0
-235 107 171 43 -42 0
-363 107 299 43 -42 0
-619 107 555 43 -42 0
-42 170 0
-427 171 299 43 -42 0
-683 171 555 43 -42 0
-1195 171 1067 43 -42 0
-42 298 0
-811 299 555 43 -42 0
-1323 299 1067 43 -42 0
-2347 299 2091 43 -42 0
-42 554 0
-1579 555 1067 43 -42 0
-2603 555 2091 43 -42 0
-42 1066 0
-3115 1067 2091 43 -42 0
-42 2090 0
-79 74 0
-95 79 91 75 -74 0
-111 79 107 75 -74 0
-207 79 203 75 -74 0
-335 79 331 75 -74 0
-91 74 0
-123 91 107 75 -74 0
-219 91 203 75 -74 0
-2139 91 2123 75 -74 0
-107 74 0
-235 107 203 75 -74 0
-363 107 331 75 -74 0
-203 74 0
-459 203 331 75 -74 0
-715 203 587 75 -74 0
-331 74 0
-843 331 587 75 -74 0
-587 74 0
-143 138 0
-159 143 155 139 -138 0
-175 143 171 139 -138 0
-207 143 203 139 -138 0
-399 143 395 139 -138 0
-155 138 0
-187 155 171 139 -138 0
-219 155 203 139 -138 0
-411 155 395 139 -138 0
-667 155 651 139 -138 0
-1179 155 1163 139 -138 0
-171 138 0
-235 171 203 139 -138 0
-427 171 395 139 -138 0
-683 171 651 139 -138 0
-203 138 0
-459 203 395 139 -138 0
-715 203 651 139 -138 0
-395 138 0
-907 395 651 139 -138 0
-1419 395 1163 139 -138 0
-651 138 0
-1163 138 0
-271 266 0
-287 271 283 267 -266 0
-303 271 299 267 -266 0
-335 271 331 267 -266 0
-399 271 395 267 -266 0
-783 271 779 267 -266 0
-1295 271 1291 267 -266 0
-283 266 0
-315 283 299 267 -266 0
-347 283 331 267 -266 0
-411 283 395 267 -266 0
-795 283 779 267 -266 0
-1307 283 1291 267 -266 0
-299 266 0
-363 299 331 267 -266 0
-427 299 395 267 -266 0
-811 299 779 267 -266 0
-1323 299 1291 267 -266 0
-331 266 0
-459 331 395 267 -266 0
-843 331 779 267 -266 0
-395 266 0
-907 395 779 267 -266 0
-1419 395 1291 267 -266 0
-779 266 0
-1803 779 1291 267 -266 0
-2827 779 2315 267 -266 0
-1291 266 0
-2315 266 0
-527 522 0
-543 527 539 523 -522 0
-559 527 555 523 -522 0
-591 527 587 523 -522 0
-655 527 651 523 -522 0
-783 527 779 523 -522 0
-1551 527 1547 523 -522 0
-2575 527 2571 523 -522 0
-539 522 0
-571 539 555 523 -522 0
-795 539 779 523 -522 0
-1563 539 1547 523 -522 0
-2587 539 2571 523 -522 0
-555 522 0
-683 555 651 523 -522 0
-811 555 779 523 -522 0
-1579 555 1547 523 -522 0
-2603 555 2571 523 -522 0
-587 522 0
-715 587 651 523 -522 0
-843 587 779 523 -522 0
-651 522 0
-907 651 779 523 -522 0
-1675 651 1547 523 -522 0
-779 522 0
-1803 779 1547 523 -522 0
-2827 779 2571 523 -522 0
-1547 522 0
-3595 1547 2571 523 -522 0
-2571 522 0
-1039 1034 0
-1055 1039 1051 1035 -1034 0
-1071 1039 1067 1035 -1034 0
-1295 1039 1291 1035 -1034 0
-1551 1039 1547 1035 -1034 0
-1051 1034 0
-1563 1051 1547 1035 -1034 0
-3099 1051 3083 1035 -1034 0
-1067 1034 0
-1323 1067 1291 1035 -1034 0
-1579 1067 1547 1035 -1034 0
-3115 1067 3083 1035 -1034 0
-1163 1034 0
-1675 1163 1547 1035 -1034 0
-1291 1034 0
-1803 1291 1547 1035 -1034 0
-3339 1291 3083 1035 -1034 0
-1547 1034 0
-3595 1547 3083 1035 -1034 0
-3083 1034 0
-2063 2058 0
-2079 2063 2075 2059 -2058 0
-2095 2063 2091 2059 -2058 0
-2319 2063 2315 2059 -2058 0
-2575 2063 2571 2059 -2058 0
-3087 2063 3083 2059 -2058 0
-2075 2058 0
-2107 2075 2091 2059 -2058 0
-3099 2075 3083 2059 -2058 0
-2091 2058 0
-2603 2091 2571 2059 -2058 0
-3115 2091 3083 2059 -2058 0
-2315 2058 0
-2827 2315 2571 2059 -2058 0
-3339 2315 3083 2059 -2058 0
-2571 2058 0
-3595 2571 3083 2059 -2058 0
-3083 2058 0
-55 50 0
-50 114 0
-243 115 179 51 -50 0
-371 115 307 51 -50 0
-627 115 563 51 -50 0
-50 178 0
-435 179 307 51 -50 0
-691 179 563 51 -50 0
-1203 179 1075 51 -50 0
-2227 179 2099 51 -50 0
-50 306 0
-819 307 563 51 -50 0
-1331 307 1075 51 -50 0
-2355 307 2099 51 -50 0
-50 562 0
-1587 563 1075 51 -50 0
-2611 563 2099 51 -50 0
-50 1074 0
-3123 1075 2099 51 -50 0
-50 2098 0
-87 82 0
-95 87 91 83 -82 0
-119 87 115 83 -82 0
-215 87 211 83 -82 0
-343 87 339 83 -82 0
-91 82 0
-123 91 115 83 -82 0
-219 91 211 83 -82 0
-603 91 595 83 -82 0
-115 82 0
-243 115 211 83 -82 0
-371 115 339 83 -82 0
-627 115 595 83 -82 0
-211 82 0
-467 211 339 83 -82 0
-723 211 595 83 -82 0
-339 82 0
-851 339 595 83 -82 0
-595 82 0
-151 146 0
-159 151 155 147 -146 0
-183 151 179 147 -146 0
-215 151 211 147 -146 0
-407 151 403 147 -146 0
-663 151 659 147 -146 0
-2199 151 2195 147 -146 0
-155 146 0
-187 155 179 147 -146 0
-219 155 211 147 -146 0
-411 155 403 147 -146 0
-667 155 659 147 -146 0
-179 146 0
-243 179 211 147 -146 0
-435 179 403 147 -146 0
-691 179 659 147 -146 0
-211 146 0
-467 211 403 147 -146 0
-723 211 659 147 -146 0
-403 146 0
-915 403 659 147 -146 0
-1427 403 1171 147 -146 0
-659 146 0
-1171 146 0
-279 274 0
-287 279 283 275 -274 0
-311 279 307 275 -274 0
-343 279 339 275 -274 0
-407 279 403 275 -274 0
-791 279 787 275 -274 0
-1303 279 1299 275 -274 0
-283 274 0
-315 283 307 275 -274 0
-347 283 339 275 -274 0
-411 283 403 275 -274 0
-795 283 787 275 -274 0
-1307 283 1299 275 -274 0
-307 274 0
-371 307 339 275 -274 0
-435 307 403 275 -274 0
-819 307 787 275 -274 0
-1331 307 1299 275 -274 0
-339 274 0
-467 339 403 275 -274 0
-851 339 787 275 -274 0
-403 274 0
-915 403 787 275 -274 0
-1427 403 1299 275 -274 0
-787 274 0
-1811 787 1299 275 -274 0
-2835 787 2323 275 -274 0
-1299 274 0
-2323 274 0
-535 530 0
-543 535 539 531 -530 0
-567 535 563 531 -530 0
-599 535 595 531 -530 0
-791 535 787 531 -530 0
-1559 535 1555 531 -530 0
-2583 535 2579 531 -530 0
-539 530 0
-571 539 563 531 -530 0
-603 539 595 531 -530 0
-667 539 659 531 -530 0
-795 539 787 531 -530 0
-1563 539 1555 531 -530 0
-2587 539 2579 531 -530 0
-563 530 0
-627 563 595 531 -530 0
-691 563 659 531 -530 0
-819 563 787 531 -530 0
-1587 563 1555 531 -530 0
-2611 563 2579 531 -530 0
-595 530 0
-723 595 659 531 -530 0
-851 595 787 531 -530 0
-659 530 0
-915 659 787 531 -530 0
-1683 659 1555 531 -530 0
-787 530 0
-1811 787 1555 531 -530 0
-2835 787 2579 531 -530 0
-1555 530 0
-3603 1555 2579 531 -530 0
-2579 530 0
-1047 1042 0
-1055 1047 1051 1043 -1042 0
-1079 1047 1075 1043 -1042 0
-1559 1047 1555 1043 -1042 0
-3095 1047 3091 1043 -1042 0
-1051 1042 0
-1083 1051 1075 1043 -1042 0
-1563 1051 1555 1043 -1042 0
-3099 1051 3091 1043 -1042 0
-1075 1042 0
-1587 1075 1555 1043 -1042 0
-3123 1075 3091 1043 -1042 0
-1171 1042 0
-1427 1171 1299 1043 -1042 0
-1683 1171 1555 1043 -1042 0
-1299 1042 0
-1811 1299 1555 1043 -1042 0
-3347 1299 3091 1043 -1042 0
-1555 1042 0
-3603 1555 3091 1043 -1042 0
-3091 1042 0
-2071 2066 0
-2079 2071 2075 2067 -2066 0
-2103 2071 2099 2067 -2066 0
-2327 2071 2323 2067 -2066 0
-2583 2071 2579 2067 -2066 0
-3095 2071 3091 2067 -2066 0
-2075 2066 0
-2107 2075 2099 2067 -2066 0
-2587 2075 2579 2067 -2066 0
-3099 2075 3091 2067 -2066 0
-2099 2066 0
-2611 2099 2579 2067 -2066 0
-3123 2099 3091 2067 -2066 0
-2323 2066 0
-2835 2323 2579 2067 -2066 0
-3347 2323 3091 2067 -2066 0
-2579 2066 0
-3603 2579 3091 2067 -2066 0
-3091 2066 0
-103 98 0
-111 103 107 99 -98 0
-119 103 115 99 -98 0
-231 103 227 99 -98 0
-359 103 355 99 -98 0
-107 98 0
-123 107 115 99 -98 0
-235 107 227 99 -98 0
-363 107 355 99 -98 0
-619 107 611 99 -98 0
-1131 107 1123 99 -98 0
-115 98 0
-243 115 227 99 -98 0
-371 115 355 99 -98 0
-627 115 611 99 -98 0
-227 98 0
-483 227 355 99 -98 0
-739 227 611 99 -98 0
-355 98 0
-867 355 611 99 -98 0
-611 98 0
-167 162 0
-175 167 171 163 -162 0
-183 167 179 163 -162 0
-231 167 227 163 -162 0
-423 167 419 163 -162 0
-2215 167 2211 163 -162 0
-171 162 0
-187 171 179 163 -162 0
-235 171 227 163 -162 0
-427 171 419 163 -162 0
-683 171 675 163 -162 0
-179 162 0
-243 179 227 163 -162 0
-435 179 419 163 -162 0
-691 179 675 163 -162 0
-227 162 0
-483 227 419 163 -162 0
-739 227 675 163 -162 0
-419 162 0
-931 419 675 163 -162 0
-1443 419 1187 163 -162 0
-675 162 0
-1187 162 0
-295 290 0
-303 295 299 291 -290 0
-311 295 307 291 -290 0
-359 295 355 291 -290 0
-423 295 419 291 -290 0
-807 295 803 291 -290 0
-1319 295 1315 291 -290 0
-299 290 0
-315 299 307 291 -290 0
-363 299 355 291 -290 0
-427 299 419 291 -290 0
-811 299 803 291 -290 0
-1323 299 1315 291 -290 0
-307 290 0
-371 307 355 291 -290 0
-435 307 419 291 -290 0
-819 307 803 291 -290 0
-1331 307 1315 291 -290 0
-355 290 0
-483 355 419 291 -290 0
-867 355 803 291 -290 0
-419 290 0
-931 419 803 291 -290 0
-803 290 0
-1827 803 1315 291 -290 0
-2851 803 2339 291 -290 0
-1315 290 0
-2339 290 0
-551 546 0
-559 551 555 547 -546 0
-567 551 563 547 -546 0
-807 551 803 547 -546 0
-1575 551 1571 547 -546 0
-555 546 0
-571 555 563 547 -546 0
-683 555 675 547 -546 0
-811 555 803 547 -546 0
-1579 555 1571 547 -546 0
-2603 555 2595 547 -546 0
-563 546 0
-627 563 611 547 -546 0
-691 563 675 547 -546 0
-819 563 803 547 -546 0
-1587 563 1571 547 -546 0
-2611 563 2595 547 -546 0
-611 546 0
-739 611 675 547 -546 0
-867 611 803 547 -546 0
-675 546 0
-931 675 803 547 -546 0
-1699 675 1571 547 -546 0
-803 546 0
-1827 803 1571 547 -546 0
-2851 803 2595 547 -546 0
-1571 546 0
-3619 1571 2595 547 -546 0
-2595 546 0
-1063 1058 0
-1079 1063 1075 1059 -1058 0
-1127 1063 1123 1059 -1058 0
-1575 1063 1571 1059 -1058 0
-3111 1063 3107 1059 -1058 0
-1067 1058 0
-1083 1067 1075 1059 -1058 0
-1323 1067 1315 1059 -1058 0
-1579 1067 1571 1059 -1058 0
-1075 1058 0
-1331 1075 1315 1059 -1058 0
-1587 1075 1571 1059 -1058 0
-3123 1075 3107 1059 -1058 0
-1187 1058 0
-1443 1187 1315 1059 -1058 0
-1699 1187 1571 1059 -1058 0
-3235 1187 3107 1059 -1058 0
-1315 1058 0
-1827 1315 1571 1059 -1058 0
-3363 1315 3107 1059 -1058 0
-1571 1058 0
-3619 1571 3107 1059 -1058 0
-3107 1058 0
-2087 2082 0
-2095 2087 2091 2083 -2082 0
-2103 2087 2099 2083 -2082 0
-2599 2087 2595 2083 -2082 0
-3111 2087 3107 2083 -2082 0
-2091 2082 0
-2107 2091 2099 2083 -2082 0
-2603 2091 2595 2083 -2082 0
-3115 2091 3107 2083 -2082 0
-2099 2082 0
-2611 2099 2595 2083 -2082 0
-3123 2099 3107 2083 -2082 0
-2339 2082 0
-2595 2082 0
-3619 2595 3107 2083 -2082 0
-3107 2082 0
-194 198 0
-207 199 203 195 -194 0
-215 199 211 195 -194 0
-231 199 227 195 -194 0
-194 202 0
-219 203 211 195 -194 0
-235 203 227 195 -194 0
-194 210 0
-243 211 227 195 -194 0
-194 226 0
-451 194 0
-322 326 0
-335 327 331 323 -322 0
-343 327 339 323 -322 0
-359 327 355 323 -322 0
-322 330 0
-347 331 339 323 -322 0
-363 331 355 323 -322 0
-322 338 0
-371 339 355 323 -322 0
-1363 339 1347 323 -322 0
-322 354 0
-451 322 0
-578 582 0
-591 583 587 579 -578 0
-599 583 595 579 -578 0
-615 583 611 579 -578 0
-578 586 0
-578 594 0
-627 595 611 579 -578 0
-578 610 0
-707 578 0
-386 390 0
-399 391 395 387 -386 0
-407 391 403 387 -386 0
-423 391 419 387 -386 0
-386 394 0
-411 395 403 387 -386 0
-427 395 419 387 -386 0
-386 402 0
-435 403 419 387 -386 0
-386 418 0
-451 386 0
-642 646 0
-655 647 651 643 -642 0
-663 647 659 643 -642 0
-679 647 675 643 -642 0
-642 650 0
-667 651 659 643 -642 0
-683 651 675 643 -642 0
-642 658 0
-691 659 675 643 -642 0
-642 674 0
-707 642 0
-1154 1158 0
-1154 1162 0
-1154 1170 0
-3219 1171 3203 1155 -1154 0
-1154 1186 0
-1411 1154 0
-770 774 0
-783 775 779 771 -770 0
-791 775 787 771 -770 0
-807 775 803 771 -770 0
-770 778 0
-795 779 787 771 -770 0
-811 779 803 771 -770 0
-770 786 0
-819 787 803 771 -770 0
-770 802 0
-835 770 0
-1282 1286 0
-1319 1287 1315 1283 -1282 0
-1282 1290 0
-1282 1298 0
-1282 1314 0
-1411 1282 0
-2306 2310 0
-2319 2311 2315 2307 -2306 0
-2306 2314 0
-2306 2322 0
-2451 2323 2435 2307 -2306 0
-2819 2306 0
-1538 1542 0
-1551 1543 1547 1539 -1538 0
-1559 1543 1555 1539 -1538 0
-1575 1543 1571 1539 -1538 0
-1538 1546 0
-1563 1547 1555 1539 -1538 0
-1579 1547 1571 1539 -1538 0
-1538 1554 0
-1587 1555 1571 1539 -1538 0
-1538 1570 0
-1667 1538 0
-2562 2566 0
-2575 2567 2571 2563 -2562 0
-2599 2567 2595 2563 -2562 0
-2562 2570 0
-2587 2571 2579 2563 -2562 0
-2603 2571 2595 2563 -2562 0
-2562 2578 0
-2562 2594 0
-2819 2562 0
-3074 3078 0
-3087 3079 3083 3075 -3074 0
-3095 3079 3091 3075 -3074 0
-3111 3079 3107 3075 -3074 0
-3074 3082 0
-3099 3083 3091 3075 -3074 0
-3115 3083 3107 3075 -3074 0
-3074 3090 0
-3123 3091 3107 3075 -3074 0
-3074 3106 0
-3331 3074 0
-64 31 0
-31 95 0
-224 96 160 32 -31 0
-352 96 288 32 -31 0
-608 96 544 32 -31 0
-1120 96 1056 32 -31 0
-31 159 0
-416 160 288 32 -31 0
-672 160 544 32 -31 0
-1184 160 1056 32 -31 0
-2208 160 2080 32 -31 0
-31 287 0
-800 288 544 32 -31 0
-1312 288 1056 32 -31 0
-2336 288 2080 32 -31 0
-31 543 0
-1568 544 1056 32 -31 0
-2592 544 2080 32 -31 0
-31 1055 0
-3104 1056 2080 32 -31 0
-31 2079 0
-64 47 0
-47 111 0
-240 112 176 48 -47 0
-368 112 304 48 -47 0
-624 112 560 48 -47 0
-1136 112 1072 48 -47 0
-2160 112 2096 48 -47 0
-47 175 0
-432 176 304 48 -47 0
-688 176 560 48 -47 0
-1200 176 1072 48 -47 0
-47 303 0
-816 304 560 48 -47 0
-1328 304 1072 48 -47 0
-2352 304 2096 48 -47 0
-47 559 0
-1584 560 1072 48 -47 0
-2608 560 2096 48 -47 0
-47 1071 0
-3120 1072 2096 48 -47 0
-47 2095 0
-96 79 0
-128 96 112 80 -79 0
-224 96 208 80 -79 0
-352 96 336 80 -79 0
-608 96 592 80 -79 0
-1120 96 1104 80 -79 0
-112 79 0
-240 112 208 80 -79 0
-368 112 336 80 -79 0
-624 112 592 80 -79 0
-1136 112 1104 80 -79 0
-79 207 0
-208 79 0
-463 207 335 79 -78 0
-464 208 336 80 -79 0
-719 207 591 79 -78 0
-720 208 592 80 -79 0
-79 335 0
-336 79 0
-847 335 591 79 -78 0
-848 336 592 80 -79 0
-1359 335 1103 79 -78 0
-79 591 0
-592 79 0
-79 1103 0
-1104 79 0
-160 143 0
-192 160 176 144 -143 0
-224 160 208 144 -143 0
-416 160 400 144 -143 0
-672 160 656 144 -143 0
-1184 160 1168 144 -143 0
-2208 160 2192 144 -143 0
-176 143 0
-240 176 208 144 -143 0
-432 176 400 144 -143 0
-688 176 656 144 -143 0
-143 207 0
-208 143 0
-464 208 400 144 -143 0
-719 207 655 143 -142 0
-720 208 656 144 -143 0
-143 399 0
-400 143 0
-912 400 656 144 -143 0
-1424 400 1168 144 -143 0
-143 655 0
-656 143 0
-1168 143 0
-288 271 0
-320 288 304 272 -271 0
-352 288 336 272 -271 0
-416 288 400 272 -271 0
-800 288 784 272 -271 0
-1312 288 1296 272 -271 0
-2336 288 2320 272 -271 0
-304 271 0
-368 304 336 272 -271 0
-432 304 400 272 -271 0
-816 304 784 272 -271 0
-1328 304 1296 272 -271 0
-271 335 0
-336 271 0
-464 336 400 272 -271 0
-847 335 783 271 -270 0
-848 336 784 272 -271 0
-1360 336 1296 272 -271 0
-271 399 0
-400 271 0
-912 400 784 272 -271 0
-1424 400 1296 272 -271 0
-2448 400 2320 272 -271 0
-271 783 0
-784 271 0
-1808 784 1296 272 -271 0
-2831 783 2319 271 -270 0
-2832 784 2320 272 -271 0
-271 1295 0
-1296 271 0
-3344 1296 2320 272 -271 0
-271 2319 0
-2320 271 0
-544 527 0
-576 544 560 528 -527 0
-672 544 656 528 -527 0
-800 544 784 528 -527 0
-1568 544 1552 528 -527 0
-2592 544 2576 528 -527 0
-560 527 0
-624 560 592 528 -527 0
-688 560 656 528 -527 0
-816 560 784 528 -527 0
-1584 560 1552 528 -527 0
-2608 560 2576 528 -527 0
-527 591 0
-592 527 0
-719 591 655 527 -526 0
-720 592 656 528 -527 0
-847 591 783 527 -526 0
-848 592 784 528 -527 0
-1616 592 1552 528 -527 0
-527 655 0
-656 527 0
-911 655 783 527 -526 0
-912 656 784 528 -527 0
-1679 655 1551 527 -526 0
-1680 656 1552 528 -527 0
-527 783 0
-784 527 0
-1808 784 1552 528 -527 0
-2831 783 2575 527 -526 0
-2832 784 2576 528 -527 0
-527 1551 0
-1552 527 0
-3600 1552 2576 528 -527 0
-527 2575 0
-2576 527 0
-1056 1039 0
-1088 1056 1072 1040 -1039 0
-1120 1056 1104 1040 -1039 0
-1184 1056 1168 1040 -1039 0
-1312 1056 1296 1040 -1039 0
-1568 1056 1552 1040 -1039 0
-3104 1056 3088 1040 -1039 0
-1072 1039 0
-1200 1072 1168 1040 -1039 0
-1328 1072 1296 1040 -1039 0
-1584 1072 1552 1040 -1039 0
-3120 1072 3088 1040 -1039 0
-1039 1103 0
-1104 1039 0
-3152 1104 3088 1040 -1039 0
-1168 1039 0
-1424 1168 1296 1040 -1039 0
-1679 1167 1551 1039 -1038 0
-1680 1168 1552 1040 -1039 0
-1039 1295 0
-1296 1039 0
-1807 1295 1551 1039 -1038 0
-1808 1296 1552 1040 -1039 0
-3344 1296 3088 1040 -1039 0
-1039 1551 0
-1552 1039 0
-3600 1552 3088 1040 -1039 0
-1039 3087 0
-3088 1039 0
-2080 2063 0
-2112 2080 2096 2064 -2063 0
-2336 2080 2320 2064 -2063 0
-2592 2080 2576 2064 -2063 0
-3104 2080 3088 2064 -2063 0
-2096 2063 0
-2224 2096 2192 2064 -2063 0
-2608 2096 2576 2064 -2063 0
-3120 2096 3088 2064 -2063 0
-2063 2319 0
-2320 2063 0
-2832 2320 2576 2064 -2063 0
-3344 2320 3088 2064 -2063 0
-2063 2575 0
-2576 2063 0
-3599 2575 3087 2063 -2062 0
-3600 2576 3088 2064 -2063 0
-2063 3087 0
-3088 2063 0
-64 55 0
-55 119 0
-248 120 184 56 -55 0
-376 120 312 56 -55 0
-632 120 568 56 -55 0
-1144 120 1080 56 -55 0
-55 183 0
-440 184 312 56 -55 0
-696 184 568 56 -55 0
-1208 184 1080 56 -55 0
-55 311 0
-824 312 568 56 -55 0
-1336 312 1080 56 -55 0
-2360 312 2104 56 -55 0
-55 567 0
-1592 568 1080 56 -55 0
-2616 568 2104 56 -55 0
-55 1079 0
-3128 1080 2104 56 -55 0
-55 2103 0
-96 87 0
-128 96 120 88 -87 0
-224 96 216 88 -87 0
-352 96 344 88 -87 0
-608 96 600 88 -87 0
-1120 96 1112 88 -87 0
-120 87 0
-248 120 216 88 -87 0
-376 120 344 88 -87 0
-632 120 600 88 -87 0
-1144 120 1112 88 -87 0
-87 215 0
-216 87 0
-472 216 344 88 -87 0
-727 215 599 87 -86 0
-728 216 600 88 -87 0
-1240 216 1112 88 -87 0
-87 343 0
-344 87 0
-855 343 599 87 -86 0
-856 344 600 88 -87 0
-1368 344 1112 88 -87 0
-87 599 0
-600 87 0
-87 1111 0
-1112 87 0
-160 151 0
-192 160 184 152 -151 0
-224 160 216 152 -151 0
-416 160 408 152 -151 0
-672 160 664 152 -151 0
-184 151 0
-248 184 216 152 -151 0
-440 184 408 152 -151 0
-696 184 664 152 -151 0
-151 215 0
-216 151 0
-472 216 408 152 -151 0
-728 216 664 152 -151 0
-151 407 0
-408 151 0
-919 407 663 151 -150 0
-920 408 664 152 -151 0
-1432 408 1176 152 -151 0
-151 663 0
-664 151 0
-1687 663 1175 151 -150 0
-151 1175 0
-1176 151 0
-2200 151 0
-288 279 0
-320 288 312 280 -279 0
-352 288 344 280 -279 0
-416 288 408 280 -279 0
-800 288 792 280 -279 0
-1312 288 1304 280 -279 0
-2336 288 2328 280 -279 0
-312 279 0
-376 312 344 280 -279 0
-440 312 408 280 -279 0
-824 312 792 280 -279 0
-1336 312 1304 280 -279 0
-279 343 0
-344 279 0
-472 344 408 280 -279 0
-856 344 792 280 -279 0
-279 407 0
-408 279 0
-920 408 792 280 -279 0
-1432 408 1304 280 -279 0
-2456 408 2328 280 -279 0
-279 791 0
-792 279 0
-1816 792 1304 280 -279 0
-2840 792 2328 280 -279 0
-279 1303 0
-1304 279 0
-279 2327 0
-2328 279 0
-544 535 0
-576 544 568 536 -535 0
-608 544 600 536 -535 0
-672 544 664 536 -535 0
-800 544 792 536 -535 0
-1568 544 1560 536 -535 0
-568 535 0
-632 568 600 536 -535 0
-696 568 664 536 -535 0
-824 568 792 536 -535 0
-1592 568 1560 536 -535 0
-2616 568 2584 536 -535 0
-535 599 0
-600 535 0
-727 599 663 535 -534 0
-728 600 664 536 -535 0
-855 599 791 535 -534 0
-856 600 792 536 -535 0
-535 663 0
-664 535 0
-920 664 792 536 -535 0
-1687 663 1559 535 -534 0
-1688 664 1560 536 -535 0
-535 791 0
-792 535 0
-1816 792 1560 536 -535 0
-2839 791 2583 535 -534 0
-2840 792 2584 536 -535 0
-535 1559 0
-1560 535 0
-3608 1560 2584 536 -535 0
-535 2583 0
-2584 535 0
-1056 1047 0
-1088 1056 1080 1048 -1047 0
-1184 1056 1176 1048 -1047 0
-1312 1056 1304 1048 -1047 0
-1568 1056 1560 1048 -1047 0
-3104 1056 3096 1048 -1047 0
-1080 1047 0
-1144 1080 1112 1048 -1047 0
-1208 1080 1176 1048 -1047 0
-1336 1080 1304 1048 -1047 0
-1592 1080 1560 1048 -1047 0
-3128 1080 3096 1048 -1047 0
-1047 1111 0
-1112 1047 0
-1240 1112 1176 1048 -1047 0
-1624 1112 1560 1048 -1047 0
-1047 1175 0
-1176 1047 0
-1431 1175 1303 1047 -1046 0
-1432 1176 1304 1048 -1047 0
-1688 1176 1560 1048 -1047 0
-3224 1176 3096 1048 -1047 0
-1047 1303 0
-1304 1047 0
-1815 1303 1559 1047 -1046 0
-1816 1304 1560 1048 -1047 0
-3352 1304 3096 1048 -1047 0
-1047 1559 0
-1560 1047 0
-3608 1560 3096 1048 -1047 0
-1047 3095 0
-3096 1047 0
-2080 2071 0
-2112 2080 2104 2072 -2071 0
-2336 2080 2328 2072 -2071 0
-2592 2080 2584 2072 -2071 0
-3104 2080 3096 2072 -2071 0
-2104 2071 0
-2360 2104 2328 2072 -2071 0
-2616 2104 2584 2072 -2071 0
-3128 2104 3096 2072 -2071 0
-2071 2199 0
-2071 2327 0
-2328 2071 0
-2839 2327 2583 2071 -2070 0
-3352 2328 3096 2072 -2071 0
-2071 2583 0
-2584 2071 0
-3608 2584 3096 2072 -2071 0
-2071 3095 0
-3096 2071 0
-112 103 0
-128 112 120 104 -103 0
-240 112 232 104 -103 0
-368 112 360 104 -103 0
-624 112 616 104 -103 0
-1136 112 1128 104 -103 0
-120 103 0
-248 120 232 104 -103 0
-376 120 360 104 -103 0
-632 120 616 104 -103 0
-2168 120 2152 104 -103 0
-103 231 0
-232 103 0
-487 231 359 103 -102 0
-488 232 360 104 -103 0
-743 231 615 103 -102 0
-744 232 616 104 -103 0
-103 359 0
-360 103 0
-103 615 0
-616 103 0
-103 1127 0
-176 167 0
-192 176 184 168 -167 0
-240 176 232 168 -167 0
-432 176 424 168 -167 0
-688 176 680 168 -167 0
-184 167 0
-248 184 232 168 -167 0
-440 184 424 168 -167 0
-696 184 680 168 -167 0
-2232 184 2216 168 -167 0
-167 231 0
-232 167 0
-487 231 423 167 -166 0
-488 232 424 168 -167 0
-743 231 679 167 -166 0
-744 232 680 168 -167 0
-2280 232 2216 168 -167 0
-167 423 0
-424 167 0
-935 423 679 167 -166 0
-936 424 680 168 -167 0
-1448 424 1192 168 -167 0
-167 679 0
-680 167 0
-1704 680 1192 168 -167 0
-167 1191 0
-1192 167 0
-2216 167 0
-304 295 0
-320 304 312 296 -295 0
-368 304 360 296 -295 0
-432 304 424 296 -295 0
-816 304 808 296 -295 0
-1328 304 1320 296 -295 0
-312 295 0
-376 312 360 296 -295 0
-440 312 424 296 -295 0
-824 312 808 296 -295 0
-1336 312 1320 296 -295 0
-295 359 0
-360 295 0
-488 360 424 296 -295 0
-871 359 807 295 -294 0
-872 360 808 296 -295 0
-295 423 0
-424 295 0
-936 424 808 296 -295 0
-1447 423 1319 295 -294 0
-1448 424 1320 296 -295 0
-295 807 0
-808 295 0
-1832 808 1320 296 -295 0
-2856 808 2344 296 -295 0
-295 1319 0
-1320 295 0
-2344 295 0
-560 551 0
-576 560 568 552 -551 0
-688 560 680 552 -551 0
-816 560 808 552 -551 0
-1584 560 1576 552 -551 0
-2608 560 2600 552 -551 0
-568 551 0
-632 568 616 552 -551 0
-696 568 680 552 -551 0
-824 568 808 552 -551 0
-1592 568 1576 552 -551 0
-2616 568 2600 552 -551 0
-551 615 0
-616 551 0
-872 616 808 552 -551 0
-1640 616 1576 552 -551 0
-551 679 0
-680 551 0
-935 679 807 551 -550 0
-936 680 808 552 -551 0
-1703 679 1575 551 -550 0
-1704 680 1576 552 -551 0
-551 807 0
-808 551 0
-1832 808 1576 552 -551 0
-2856 808 2600 552 -551 0
-551 1575 0
-1576 551 0
-3623 1575 2599 551 -550 0
-3624 1576 2600 552 -551 0
-551 2599 0
-2600 551 0
-1072 1063 0
-1088 1072 1080 1064 -1063 0
-1136 1072 1128 1064 -1063 0
-1200 1072 1192 1064 -1063 0
-1328 1072 1320 1064 -1063 0
-1584 1072 1576 1064 -1063 0
-3120 1072 3112 1064 -1063 0
-1080 1063 0
-1336 1080 1320 1064 -1063 0
-1592 1080 1576 1064 -1063 0
-3128 1080 3112 1064 -1063 0
-1128 1063 0
-1256 1128 1192 1064 -1063 0
-3176 1128 3112 1064 -1063 0
-1192 1063 0
-1448 1192 1320 1064 -1063 0
-1703 1191 1575 1063 -1062 0
-1704 1192 1576 1064 -1063 0
-3240 1192 3112 1064 -1063 0
-1320 1063 0
-1831 1319 1575 1063 -1062 0
-1832 1320 1576 1064 -1063 0
-3367 1319 3111 1063 -1062 0
-3368 1320 3112 1064 -1063 0
-1063 1575 0
-1576 1063 0
-3623 1575 3111 1063 -1062 0
-3624 1576 3112 1064 -1063 0
-1063 3111 0
-3112 1063 0
-2096 2087 0
-2112 2096 2104 2088 -2087 0
-2608 2096 2600 2088 -2087 0
-3120 2096 3112 2088 -2087 0
-2104 2087 0
-2616 2104 2600 2088 -2087 0
-3128 2104 3112 2088 -2087 0
-2087 2215 0
-2216 2087 0
-2087 2343 0
-2344 2087 0
-2856 2344 2600 2088 -2087 0
-2087 2599 0
-2600 2087 0
-3623 2599 3111 2087 -2086 0
-3624 2600 3112 2088 -2087 0
-2087 3111 0
-3112 2087 0
-199 207 0
-208 199 0
-223 207 215 199 -198 0
-224 208 216 200 -199 0
-240 208 232 200 -199 0
-464 208 456 200 -199 0
-720 208 712 200 -199 0
-2256 208 2248 200 -199 0
-199 215 0
-216 199 0
-248 216 232 200 -199 0
-472 216 456 200 -199 0
-728 216 712 200 -199 0
-199 231 0
-232 199 0
-488 232 456 200 -199 0
-744 232 712 200 -199 0
-456 199 0
-968 456 712 200 -199 0
-712 199 0
-327 335 0
-336 327 0
-351 335 343 327 -326 0
-352 336 344 328 -327 0
-367 335 359 327 -326 0
-368 336 360 328 -327 0
-464 336 456 328 -327 0
-848 336 840 328 -327 0
-327 343 0
-344 327 0
-375 343 359 327 -326 0
-376 344 360 328 -327 0
-472 344 456 328 -327 0
-327 359 0
-360 327 0
-488 360 456 328 -327 0
-872 360 840 328 -327 0
-456 327 0
-968 456 840 328 -327 0
-840 327 0
-583 591 0
-607 591 599 583 -582 0
-623 591 615 583 -582 0
-720 592 712 584 -583 0
-848 592 840 584 -583 0
-583 599 0
-856 600 840 584 -583 0
-1624 600 1608 584 -583 0
-583 615 0
-616 583 0
-744 616 712 584 -583 0
-712 583 0
-968 712 840 584 -583 0
-840 583 0
-1095 3143 0
-2119 2135 0
-3159 2135 3143 2119 -2118 0
-391 399 0
-400 391 0
-416 400 408 392 -391 0
-431 399 423 391 -390 0
-432 400 424 392 -391 0
-464 400 456 392 -391 0
-912 400 904 392 -391 0
-391 407 0
-408 391 0
-439 407 423 391 -390 0
-440 408 424 392 -391 0
-472 408 456 392 -391 0
-920 408 904 392 -391 0
-1432 408 1416 392 -391 0
-391 423 0
-424 391 0
-488 424 456 392 -391 0
-936 424 904 392 -391 0
-456 391 0
-968 456 904 392 -391 0
-904 391 0
-1928 904 1416 392 -391 0
-1416 391 0
-647 655 0
-656 647 0
-672 656 664 648 -647 0
-688 656 680 648 -647 0
-720 656 712 648 -647 0
-912 656 904 648 -647 0
-647 663 0
-664 647 0
-696 664 680 648 -647 0
-728 664 712 648 -647 0
-920 664 904 648 -647 0
-647 679 0
-680 647 0
-744 680 712 648 -647 0
-936 680 904 648 -647 0
-1704 680 1672 648 -647 0
-712 647 0
-968 712 904 648 -647 0
-904 647 0
-1928 904 1672 648 -647 0
-1672 647 0
-1168 1159 0
-1200 1168 1192 1160 -1159 0
-1159 1175 0
-1159 1191 0
-1448 1192 1416 1160 -1159 0
-1416 1159 0
-1928 1416 1672 1160 -1159 0
-1672 1159 0
-3720 1672 3208 1160 -1159 0
-3208 2183 0
-775 783 0
-784 775 0
-800 784 792 776 -775 0
-815 783 807 775 -774 0
-816 784 808 776 -775 0
-848 784 840 776 -775 0
-912 784 904 776 -775 0
-1808 784 1800 776 -775 0
-2832 784 2824 776 -775 0
-775 791 0
-792 775 0
-823 791 807 775 -774 0
-824 792 808 776 -775 0
-856 792 840 776 -775 0
-920 792 904 776 -775 0
-1816 792 1800 776 -775 0
-2840 792 2824 776 -775 0
-775 807 0
-808 775 0
-872 808 840 776 -775 0
-936 808 904 776 -775 0
-1832 808 1800 776 -775 0
-2856 808 2824 776 -775 0
-840 775 0
-968 840 904 776 -775 0
-904 775 0
-1928 904 1800 776 -775 0
-1800 775 0
-3848 1800 2824 776 -775 0
-2824 775 0
-1287 1295 0
-1296 1287 0
-1311 1295 1303 1287 -1286 0
-1312 1296 1304 1288 -1287 0
-1327 1295 1319 1287 -1286 0
-1328 1296 1320 1288 -1287 0
-1808 1296 1800 1288 -1287 0
-1287 1303 0
-1304 1287 0
-1335 1303 1319 1287 -1286 0
-1336 1304 1320 1288 -1287 0
-1816 1304 1800 1288 -1287 0
-1287 1319 0
-1320 1287 0
-1448 1320 1416 1288 -1287 0
-1832 1320 1800 1288 -1287 0
-3368 1320 3336 1288 -1287 0
-1416 1287 0
-1928 1416 1800 1288 -1287 0
-1800 1287 0
-3848 1800 3336 1288 -1287 0
-3336 1287 0
-2311 2319 0
-2352 2320 2344 2312 -2311 0
-2311 2327 0
-2328 2311 0
-2311 2343 0
-2824 2311 0
-3848 2824 3336 2312 -2311 0
-3336 2311 0
-1543 1551 0
-1552 1543 0
-1568 1552 1560 1544 -1543 0
-1584 1552 1576 1544 -1543 0
-1680 1552 1672 1544 -1543 0
-1808 1552 1800 1544 -1543 0
-3600 1552 3592 1544 -1543 0
-1543 1559 0
-1560 1543 0
-1592 1560 1576 1544 -1543 0
-1688 1560 1672 1544 -1543 0
-1816 1560 1800 1544 -1543 0
-3608 1560 3592 1544 -1543 0
-1543 1575 0
-1576 1543 0
-1704 1576 1672 1544 -1543 0
-1832 1576 1800 1544 -1543 0
-3624 1576 3592 1544 -1543 0
-1608 1543 0
-1672 1543 0
-1928 1672 1800 1544 -1543 0
-1800 1543 0
-3848 1800 3592 1544 -1543 0
-3592 1543 0
-2567 2575 0
-2576 2567 0
-2591 2575 2583 2567 -2566 0
-2592 2576 2584 2568 -2567 0
-2608 2576 2600 2568 -2567 0
-3600 2576 3592 2568 -2567 0
-2567 2583 0
-2584 2567 0
-2840 2584 2824 2568 -2567 0
-3608 2584 3592 2568 -2567 0
-2567 2599 0
-2600 2567 0
-3624 2600 3592 2568 -2567 0
-2824 2567 0
-3848 2824 3592 2568 -2567 0
-3592 2567 0
-3079 3087 0
-3088 3079 0
-3103 3087 3095 3079 -3078 0
-3104 3088 3096 3080 -3079 0
-3120 3088 3112 3080 -3079 0
-3344 3088 3336 3080 -3079 0
-3600 3088 3592 3080 -3079 0
-3079 3095 0
-3096 3079 0
-3128 3096 3112 3080 -3079 0
-3160 3096 3144 3080 -3079 0
-3608 3096 3592 3080 -3079 0
-3079 3111 0
-3112 3079 0
-3368 3112 3336 3080 -3079 0
-3624 3112 3592 3080 -3079 0
-3336 3079 0
-3848 3336 3592 3080 -3079 0
-3592 3079 0
-64 59 0
-59 123 0
-252 124 188 60 -59 0
-380 124 316 60 -59 0
-636 124 572 60 -59 0
-1148 124 1084 60 -59 0
-59 187 0
-444 188 316 60 -59 0
-700 188 572 60 -59 0
-1212 188 1084 60 -59 0
-2236 188 2108 60 -59 0
-59 315 0
-828 316 572 60 -59 0
-1340 316 1084 60 -59 0
-2364 316 2108 60 -59 0
-59 571 0
-1596 572 1084 60 -59 0
-2620 572 2108 60 -59 0
-59 1083 0
-3132 1084 2108 60 -59 0
-59 2107 0
-96 91 0
-128 96 124 92 -91 0
-224 96 220 92 -91 0
-352 96 348 92 -91 0
-608 96 604 92 -91 0
-1120 96 1116 92 -91 0
-124 91 0
-252 124 220 92 -91 0
-380 124 348 92 -91 0
-636 124 604 92 -91 0
-1148 124 1116 92 -91 0
-91 219 0
-220 91 0
-475 219 347 91 -90 0
-476 220 348 92 -91 0
-732 220 604 92 -91 0
-91 347 0
-348 91 0
-859 347 603 91 -90 0
-860 348 604 92 -91 0
-1372 348 1116 92 -91 0
-91 603 0
-604 91 0
-1628 604 1116 92 -91 0
-2140 91 0
-160 155 0
-192 160 188 156 -155 0
-224 160 220 156 -155 0
-416 160 412 156 -155 0
-672 160 668 156 -155 0
-1184 160 1180 156 -155 0
-188 155 0
-252 188 220 156 -155 0
-444 188 412 156 -155 0
-700 188 668 156 -155 0
-155 219 0
-220 155 0
-476 220 412 156 -155 0
-732 220 668 156 -155 0
-1244 220 1180 156 -155 0
-155 411 0
-412 155 0
-923 411 667 155 -154 0
-924 412 668 156 -155 0
-1436 412 1180 156 -155 0
-2460 412 2204 156 -155 0
-155 667 0
-668 155 0
-1691 667 1179 155 -154 0
-155 1179 0
-1180 155 0
-3228 1180 2204 156 -155 0
-2204 155 0
-288 283 0
-320 288 316 284 -283 0
-352 288 348 284 -283 0
-416 288 412 284 -283 0
-800 288 796 284 -283 0
-1312 288 1308 284 -283 0
-2336 288 2332 284 -283 0
-316 283 0
-380 316 348 284 -283 0
-444 316 412 284 -283 0
-828 316 796 284 -283 0
-1340 316 1308 284 -283 0
-283 347 0
-348 283 0
-476 348 412 284 -283 0
-859 347 795 283 -282 0
-860 348 796 284 -283 0
-283 411 0
-412 283 0
-923 411 795 283 -282 0
-924 412 796 284 -283 0
-1436 412 1308 284 -283 0
-283 795 0
-796 283 0
-1819 795 1307 283 -282 0
-1820 796 1308 284 -283 0
-2844 796 2332 284 -283 0
-283 1307 0
-1308 283 0
-3355 1307 2331 283 -282 0
-3356 1308 2332 284 -283 0
-2332 283 0
-544 539 0
-576 544 572 540 -539 0
-608 544 604 540 -539 0
-672 544 668 540 -539 0
-800 544 796 540 -539 0
-1568 544 1564 540 -539 0
-2592 544 2588 540 -539 0
-572 539 0
-636 572 604 540 -539 0
-700 572 668 540 -539 0
-828 572 796 540 -539 0
-1596 572 1564 540 -539 0
-2620 572 2588 540 -539 0
-539 603 0
-604 539 0
-731 603 667 539 -538 0
-732 604 668 540 -539 0
-860 604 796 540 -539 0
-1628 604 1564 540 -539 0
-539 667 0
-668 539 0
-923 667 795 539 -538 0
-924 668 796 540 -539 0
-1691 667 1563 539 -538 0
-1692 668 1564 540 -539 0
-2716 668 2588 540 -539 0
-539 795 0
-796 539 0
-1819 795 1563 539 -538 0
-1820 796 1564 540 -539 0
-2844 796 2588 540 -539 0
-539 1563 0
-1564 539 0
-3611 1563 2587 539 -538 0
-3612 1564 2588 540 -539 0
-539 2587 0
-2588 539 0
-1056 1051 0
-1088 1056 1084 1052 -1051 0
-1120 1056 1116 1052 -1051 0
-1184 1056 1180 1052 -1051 0
-1312 1056 1308 1052 -1051 0
-1568 1056 1564 1052 -1051 0
-3104 1056 3100 1052 -1051 0
-1084 1051 0
-1212 1084 1180 1052 -1051 0
-1340 1084 1308 1052 -1051 0
-1596 1084 1564 1052 -1051 0
-3132 1084 3100 1052 -1051 0
-1051 1115 0
-1180 1051 0
-1691 1179 1563 1051 -1050 0
-1692 1180 1564 1052 -1051 0
-1051 1307 0
-1308 1051 0
-1819 1307 1563 1051 -1050 0
-1820 1308 1564 1052 -1051 0
-3356 1308 3100 1052 -1051 0
-1051 1563 0
-1564 1051 0
-3612 1564 3100 1052 -1051 0
-1051 3099 0
-3100 1051 0
-2080 2075 0
-2112 2080 2108 2076 -2075 0
-2336 2080 2332 2076 -2075 0
-2592 2080 2588 2076 -2075 0
-3104 2080 3100 2076 -2075 0
-2108 2075 0
-2236 2108 2204 2076 -2075 0
-2620 2108 2588 2076 -2075 0
-3132 2108 3100 2076 -2075 0
-2075 2139 0
-2204 2075 0
-3228 2204 3100 2076 -2075 0
-2332 2075 0
-2843 2331 2587 2075 -2074 0
-2844 2332 2588 2076 -2075 0
-3356 2332 3100 2076 -2075 0
-2075 2587 0
-2588 2075 0
-3611 2587 3099 2075 -2074 0
-3612 2588 3100 2076 -2075 0
-2075 3099 0
-3100 2075 0
-112 107 0
-128 112 124 108 -107 0
-240 112 236 108 -107 0
-368 112 364 108 -107 0
-624 112 620 108 -107 0
-124 107 0
-252 124 236 108 -107 0
-380 124 364 108 -107 0
-636 124 620 108 -107 0
-1148 124 1132 108 -107 0
-2172 124 2156 108 -107 0
-107 235 0
-236 107 0
-491 235 363 107 -106 0
-492 236 364 108 -107 0
-747 235 619 107 -106 0
-748 236 620 108 -107 0
-107 363 0
-364 107 0
-876 364 620 108 -107 0
-107 619 0
-620 107 0
-107 1131 0
-1132 107 0
-176 171 0
-192 176 188 172 -171 0
-240 176 236 172 -171 0
-432 176 428 172 -171 0
-688 176 684 172 -171 0
-188 171 0
-252 188 236 172 -171 0
-444 188 428 172 -171 0
-700 188 684 172 -171 0
-1212 188 1196 172 -171 0
-171 235 0
-236 171 0
-492 236 428 172 -171 0
-748 236 684 172 -171 0
-1260 236 1196 172 -171 0
-171 427 0
-428 171 0
-939 427 683 171 -170 0
-940 428 684 172 -171 0
-1451 427 1195 171 -170 0
-1452 428 1196 172 -171 0
-171 683 0
-684 171 0
-1707 683 1195 171 -170 0
-1708 684 1196 172 -171 0
-2732 684 2220 172 -171 0
-1196 171 0
-171 2219 0
-304 299 0
-320 304 316 300 -299 0
-368 304 364 300 -299 0
-432 304 428 300 -299 0
-816 304 812 300 -299 0
-1328 304 1324 300 -299 0
-316 299 0
-380 316 364 300 -299 0
-444 316 428 300 -299 0
-828 316 812 300 -299 0
-1340 316 1324 300 -299 0
-299 363 0
-364 299 0
-491 363 427 299 -298 0
-492 364 428 300 -299 0
-876 364 812 300 -299 0
-299 427 0
-428 299 0
-939 427 811 299 -298 0
-940 428 812 300 -299 0
-1452 428 1324 300 -299 0
-299 811 0
-812 299 0
-1836 812 1324 300 -299 0
-2859 811 2347 299 -298 0
-2860 812 2348 300 -299 0
-299 1323 0
-1324 299 0
-3372 1324 2348 300 -299 0
-299 2347 0
-2348 299 0
-560 555 0
-576 560 572 556 -555 0
-688 560 684 556 -555 0
-816 560 812 556 -555 0
-1584 560 1580 556 -555 0
-2608 560 2604 556 -555 0
-572 555 0
-636 572 620 556 -555 0
-700 572 684 556 -555 0
-828 572 812 556 -555 0
-1596 572 1580 556 -555 0
-2620 572 2604 556 -555 0
-620 555 0
-748 620 684 556 -555 0
-876 620 812 556 -555 0
-1644 620 1580 556 -555 0
-555 683 0
-684 555 0
-939 683 811 555 -554 0
-940 684 812 556 -555 0
-1707 683 1579 555 -554 0
-1708 684 1580 556 -555 0
-555 811 0
-812 555 0
-1836 812 1580 556 -555 0
-2860 812 2604 556 -555 0
-555 1579 0
-1580 555 0
-3628 1580 2604 556 -555 0
-555 2603 0
-2604 555 0
-1072 1067 0
-1088 1072 1084 1068 -1067 0
-1136 1072 1132 1068 -1067 0
-1200 1072 1196 1068 -1067 0
-1328 1072 1324 1068 -1067 0
-1584 1072 1580 1068 -1067 0
-3120 1072 3116 1068 -1067 0
-1084 1067 0
-1212 1084 1196 1068 -1067 0
-1340 1084 1324 1068 -1067 0
-1596 1084 1580 1068 -1067 0
-3132 1084 3116 1068 -1067 0
-1067 1131 0
-1132 1067 0
-1644 1132 1580 1068 -1067 0
-1196 1067 0
-1452 1196 1324 1068 -1067 0
-1707 1195 1579 1067 -1066 0
-1708 1196 1580 1068 -1067 0
-1067 1323 0
-1324 1067 0
-1835 1323 1579 1067 -1066 0
-1836 1324 1580 1068 -1067 0
-3372 1324 3116 1068 -1067 0
-1067 1579 0
-1580 1067 0
-3628 1580 3116 1068 -1067 0
-1067 3115 0
-3116 1067 0
-2096 2091 0
-2112 2096 2108 2092 -2091 0
-2224 2096 2220 2092 -2091 0
-2608 2096 2604 2092 -2091 0
-3120 2096 3116 2092 -2091 0
-2108 2091 0
-2236 2108 2220 2092 -2091 0
-2364 2108 2348 2092 -2091 0
-2620 2108 2604 2092 -2091 0
-3132 2108 3116 2092 -2091 0
-3244 2220 3116 2092 -2091 0
-2091 2347 0
-2348 2091 0
-2859 2347 2603 2091 -2090 0
-2860 2348 2604 2092 -2091 0
-2091 2603 0
-2604 2091 0
-3627 2603 3115 2091 -2090 0
-3628 2604 3116 2092 -2091 0
-2091 3115 0
-3116 2091 0
-203 207 0
-208 203 0
-223 207 219 203 -202 0
-224 208 220 204 -203 0
-239 207 235 203 -202 0
-240 208 236 204 -203 0
-464 208 460 204 -203 0
-720 208 716 204 -203 0
-203 219 0
-220 203 0
-252 220 236 204 -203 0
-476 220 460 204 -203 0
-732 220 716 204 -203 0
-203 235 0
-236 203 0
-492 236 460 204 -203 0
-748 236 716 204 -203 0
-460 203 0
-972 460 716 204 -203 0
-716 203 0
-331 335 0
-336 331 0
-352 336 348 332 -331 0
-367 335 363 331 -330 0
-368 336 364 332 -331 0
-464 336 460 332 -331 0
-848 336 844 332 -331 0
-331 347 0
-348 331 0
-379 347 363 331 -330 0
-476 348 460 332 -331 0
-331 363 0
-364 331 0
-492 364 460 332 -331 0
-876 364 844 332 -331 0
-460 331 0
-972 460 844 332 -331 0
-844 331 0
-1356 331 0
-587 591 0
-607 591 603 587 -586 0
-624 592 620 588 -587 0
-1616 592 1612 588 -587 0
-587 603 0
-604 587 0
-636 604 620 588 -587 0
-587 619 0
-716 587 0
-972 716 844 588 -587 0
-844 587 0
-1868 844 1612 588 -587 0
-1612 587 0
-3164 2140 3148 2124 -2123 0
-395 399 0
-400 395 0
-416 400 412 396 -395 0
-432 400 428 396 -395 0
-464 400 460 396 -395 0
-912 400 908 396 -395 0
-395 411 0
-412 395 0
-443 411 427 395 -394 0
-444 412 428 396 -395 0
-476 412 460 396 -395 0
-924 412 908 396 -395 0
-395 427 0
-428 395 0
-492 428 460 396 -395 0
-940 428 908 396 -395 0
-1452 428 1420 396 -395 0
-460 395 0
-972 460 908 396 -395 0
-908 395 0
-1932 908 1420 396 -395 0
-1420 395 0
-2444 395 0
-651 655 0
-656 651 0
-672 656 668 652 -651 0
-687 655 683 651 -650 0
-688 656 684 652 -651 0
-912 656 908 652 -651 0
-1680 656 1676 652 -651 0
-651 667 0
-668 651 0
-699 667 683 651 -650 0
-700 668 684 652 -651 0
-732 668 716 652 -651 0
-924 668 908 652 -651 0
-1692 668 1676 652 -651 0
-651 683 0
-684 651 0
-748 684 716 652 -651 0
-940 684 908 652 -651 0
-716 651 0
-972 716 908 652 -651 0
-908 651 0
-1932 908 1676 652 -651 0
-1676 651 0
-1184 1168 1180 1164 -1163 0
-1680 1168 1676 1164 -1163 0
-1212 1180 1196 1164 -1163 0
-1692 1180 1676 1164 -1163 0
-1420 1163 0
-1932 1420 1676 1164 -1163 0
-1676 1163 0
-3212 1163 0
-779 783 0
-784 779 0
-799 783 795 779 -778 0
-800 784 796 780 -779 0
-815 783 811 779 -778 0
-816 784 812 780 -779 0
-848 784 844 780 -779 0
-912 784 908 780 -779 0
-1808 784 1804 780 -779 0
-2832 784 2828 780 -779 0
-779 795 0
-796 779 0
-827 795 811 779 -778 0
-828 796 812 780 -779 0
-860 796 844 780 -779 0
-924 796 908 780 -779 0
-1820 796 1804 780 -779 0
-779 811 0
-812 779 0
-876 812 844 780 -779 0
-940 812 908 780 -779 0
-1836 812 1804 780 -779 0
-2860 812 2828 780 -779 0
-844 779 0
-972 844 908 780 -779 0
-1868 844 1804 780 -779 0
-908 779 0
-1932 908 1804 780 -779 0
-2956 908 2828 780 -779 0
-1804 779 0
-3852 1804 2828 780 -779 0
-2828 779 0
-1291 1295 0
-1296 1291 0
-1312 1296 1308 1292 -1291 0
-1328 1296 1324 1292 -1291 0
-1360 1296 1356 1292 -1291 0
-1808 1296 1804 1292 -1291 0
-1291 1307 0
-1308 1291 0
-1340 1308 1324 1292 -1291 0
-1436 1308 1420 1292 -1291 0
-1820 1308 1804 1292 -1291 0
-3356 1308 3340 1292 -1291 0
-1291 1323 0
-1324 1291 0
-1836 1324 1804 1292 -1291 0
-3372 1324 3340 1292 -1291 0
-1420 1291 0
-1932 1420 1804 1292 -1291 0
-1804 1291 0
-3852 1804 3340 1292 -1291 0
-3340 1291 0
-2315 2319 0
-2320 2315 0
-2315 2331 0
-2844 2332 2828 2316 -2315 0
-2315 2347 0
-2476 2348 2444 2316 -2315 0
-2444 2315 0
-2956 2444 2828 2316 -2315 0
-2828 2315 0
-3852 2828 3340 2316 -2315 0
-3340 2315 0
-1547 1551 0
-1552 1547 0
-1567 1551 1563 1547 -1546 0
-1568 1552 1564 1548 -1547 0
-1584 1552 1580 1548 -1547 0
-1680 1552 1676 1548 -1547 0
-1808 1552 1804 1548 -1547 0
-3600 1552 3596 1548 -1547 0
-1547 1563 0
-1564 1547 0
-1596 1564 1580 1548 -1547 0
-1628 1564 1612 1548 -1547 0
-1692 1564 1676 1548 -1547 0
-1820 1564 1804 1548 -1547 0
-3612 1564 3596 1548 -1547 0
-1547 1579 0
-1580 1547 0
-1644 1580 1612 1548 -1547 0
-1836 1580 1804 1548 -1547 0
-3628 1580 3596 1548 -1547 0
-1676 1547 0
-1932 1676 1804 1548 -1547 0
-1804 1547 0
-3852 1804 3596 1548 -1547 0
-3596 1547 0
-2571 2575 0
-2576 2571 0
-2591 2575 2587 2571 -2570 0
-2592 2576 2588 2572 -2571 0
-2608 2576 2604 2572 -2571 0
-3600 2576 3596 2572 -2571 0
-2571 2587 0
-2588 2571 0
-2620 2588 2604 2572 -2571 0
-3612 2588 3596 2572 -2571 0
-2571 2603 0
-2604 2571 0
-2860 2604 2828 2572 -2571 0
-3628 2604 3596 2572 -2571 0
-2828 2571 0
-3852 2828 3596 2572 -2571 0
-3596 2571 0
-3083 3087 0
-3088 3083 0
-3104 3088 3100 3084 -3083 0
-3120 3088 3116 3084 -3083 0
-3600 3088 3596 3084 -3083 0
-3083 3099 0
-3100 3083 0
-3132 3100 3116 3084 -3083 0
-3356 3100 3340 3084 -3083 0
-3612 3100 3596 3084 -3083 0
-3083 3115 0
-3116 3083 0
-3244 3116 3212 3084 -3083 0
-3372 3116 3340 3084 -3083 0
-3628 3116 3596 3084 -3083 0
-3340 3083 0
-3852 3340 3596 3084 -3083 0
-3596 3083 0
-120 115 0
-128 120 124 116 -115 0
-248 120 244 116 -115 0
-376 120 372 116 -115 0
-124 115 0
-252 124 244 116 -115 0
-380 124 372 116 -115 0
-115 243 0
-244 115 0
-499 243 371 115 -114 0
-500 244 372 116 -115 0
-756 244 628 116 -115 0
-115 371 0
-372 115 0
-115 627 0
-628 115 0
-184 179 0
-192 184 188 180 -179 0
-248 184 244 180 -179 0
-440 184 436 180 -179 0
-696 184 692 180 -179 0
-2232 184 2228 180 -179 0
-188 179 0
-252 188 244 180 -179 0
-444 188 436 180 -179 0
-700 188 692 180 -179 0
-179 243 0
-244 179 0
-500 244 436 180 -179 0
-756 244 692 180 -179 0
-179 435 0
-436 179 0
-948 436 692 180 -179 0
-1460 436 1204 180 -179 0
-179 691 0
-692 179 0
-1715 691 1203 179 -178 0
-1204 179 0
-312 307 0
-320 312 316 308 -307 0
-376 312 372 308 -307 0
-440 312 436 308 -307 0
-824 312 820 308 -307 0
-1336 312 1332 308 -307 0
-316 307 0
-380 316 372 308 -307 0
-444 316 436 308 -307 0
-828 316 820 308 -307 0
-1340 316 1332 308 -307 0
-307 371 0
-372 307 0
-500 372 436 308 -307 0
-883 371 819 307 -306 0
-884 372 820 308 -307 0
-1396 372 1332 308 -307 0
-307 435 0
-436 307 0
-948 436 820 308 -307 0
-1460 436 1332 308 -307 0
-307 819 0
-820 307 0
-1843 819 1331 307 -306 0
-1844 820 1332 308 -307 0
-2868 820 2356 308 -307 0
-307 1331 0
-1332 307 0
-3380 1332 2356 308 -307 0
-2356 307 0
-568 563 0
-576 568 572 564 -563 0
-632 568 628 564 -563 0
-696 568 692 564 -563 0
-824 568 820 564 -563 0
-1592 568 1588 564 -563 0
-2616 568 2612 564 -563 0
-572 563 0
-636 572 628 564 -563 0
-700 572 692 564 -563 0
-828 572 820 564 -563 0
-1596 572 1588 564 -563 0
-2620 572 2612 564 -563 0
-563 627 0
-628 563 0
-755 627 691 563 -562 0
-756 628 692 564 -563 0
-884 628 820 564 -563 0
-1652 628 1588 564 -563 0
-563 691 0
-692 563 0
-948 692 820 564 -563 0
-1715 691 1587 563 -562 0
-1716 692 1588 564 -563 0
-563 819 0
-820 563 0
-1844 820 1588 564 -563 0
-2868 820 2612 564 -563 0
-563 1587 0
-1588 563 0
-3635 1587 2611 563 -562 0
-3636 1588 2612 564 -563 0
-563 2611 0
-2612 563 0
-1080 1075 0
-1088 1080 1084 1076 -1075 0
-1208 1080 1204 1076 -1075 0
-1336 1080 1332 1076 -1075 0
-1592 1080 1588 1076 -1075 0
-3128 1080 3124 1076 -1075 0
-1084 1075 0
-1148 1084 1140 1076 -1075 0
-1212 1084 1204 1076 -1075 0
-1340 1084 1332 1076 -1075 0
-1596 1084 1588 1076 -1075 0
-3132 1084 3124 1076 -1075 0
-1652 1140 1588 1076 -1075 0
-1204 1075 0
-1459 1203 1331 1075 -1074 0
-1460 1204 1332 1076 -1075 0
-1716 1204 1588 1076 -1075 0
-3252 1204 3124 1076 -1075 0
-1075 1331 0
-1332 1075 0
-1844 1332 1588 1076 -1075 0
-3380 1332 3124 1076 -1075 0
-1075 1587 0
-1588 1075 0
-3635 1587 3123 1075 -1074 0
-3636 1588 3124 1076 -1075 0
-1075 3123 0
-3124 1075 0
-2104 2099 0
-2112 2104 2108 2100 -2099 0
-2616 2104 2612 2100 -2099 0
-3128 2104 3124 2100 -2099 0
-2108 2099 0
-2620 2108 2612 2100 -2099 0
-3132 2108 3124 2100 -2099 0
-2356 2099 0
-2868 2356 2612 2100 -2099 0
-2099 2611 0
-2612 2099 0
-3635 2611 3123 2099 -2098 0
-3636 2612 3124 2100 -2099 0
-2099 3123 0
-3124 2099 0
-211 215 0
-216 211 0
-224 216 220 212 -211 0
-248 216 244 212 -211 0
-472 216 468 212 -211 0
-728 216 724 212 -211 0
-211 219 0
-220 211 0
-251 219 243 211 -210 0
-252 220 244 212 -211 0
-476 220 468 212 -211 0
-732 220 724 212 -211 0
-211 243 0
-244 211 0
-500 244 468 212 -211 0
-756 244 724 212 -211 0
-468 211 0
-980 468 724 212 -211 0
-724 211 0
-339 343 0
-344 339 0
-352 344 348 340 -339 0
-375 343 371 339 -338 0
-376 344 372 340 -339 0
-472 344 468 340 -339 0
-856 344 852 340 -339 0
-339 347 0
-348 339 0
-379 347 371 339 -338 0
-380 348 372 340 -339 0
-476 348 468 340 -339 0
-860 348 852 340 -339 0
-339 371 0
-372 339 0
-500 372 468 340 -339 0
-884 372 852 340 -339 0
-468 339 0
-980 468 852 340 -339 0
-852 339 0
-1876 852 1364 340 -339 0
-1364 339 0
-595 599 0
-608 600 604 596 -595 0
-632 600 628 596 -595 0
-595 603 0
-604 595 0
-636 604 628 596 -595 0
-732 604 724 596 -595 0
-595 627 0
-628 595 0
-756 628 724 596 -595 0
-724 595 0
-980 724 852 596 -595 0
-852 595 0
-1620 595 0
-1624 1112 1620 1108 -1107 0
-1140 1107 0
-403 407 0
-408 403 0
-416 408 412 404 -403 0
-440 408 436 404 -403 0
-472 408 468 404 -403 0
-920 408 916 404 -403 0
-403 411 0
-412 403 0
-444 412 436 404 -403 0
-476 412 468 404 -403 0
-924 412 916 404 -403 0
-403 435 0
-436 403 0
-500 436 468 404 -403 0
-948 436 916 404 -403 0
-1460 436 1428 404 -403 0
-468 403 0
-980 468 916 404 -403 0
-1492 468 1428 404 -403 0
-916 403 0
-1940 916 1428 404 -403 0
-1428 403 0
-403 2451 0
-659 663 0
-664 659 0
-672 664 668 660 -659 0
-695 663 691 659 -658 0
-920 664 916 660 -659 0
-659 667 0
-668 659 0
-732 668 724 660 -659 0
-924 668 916 660 -659 0
-1692 668 1684 660 -659 0
-659 691 0
-692 659 0
-756 692 724 660 -659 0
-948 692 916 660 -659 0
-1716 692 1684 660 -659 0
-724 659 0
-980 724 916 660 -659 0
-916 659 0
-1940 916 1684 660 -659 0
-1684 659 0
-1171 1175 0
-1176 1171 0
-1432 1176 1428 1172 -1171 0
-1171 1179 0
-1212 1180 1204 1172 -1171 0
-1171 1203 0
-1716 1204 1684 1172 -1171 0
-1428 1171 0
-1940 1428 1684 1172 -1171 0
-1684 1171 0
-2232 2200 2228 2196 -2195 0
-2204 2195 0
-2195 2227 0
-787 791 0
-792 787 0
-799 791 795 787 -786 0
-800 792 796 788 -787 0
-824 792 820 788 -787 0
-856 792 852 788 -787 0
-920 792 916 788 -787 0
-1816 792 1812 788 -787 0
-2840 792 2836 788 -787 0
-787 795 0
-796 787 0
-827 795 819 787 -786 0
-828 796 820 788 -787 0
-860 796 852 788 -787 0
-924 796 916 788 -787 0
-1820 796 1812 788 -787 0
-2844 796 2836 788 -787 0
-787 819 0
-820 787 0
-884 820 852 788 -787 0
-948 820 916 788 -787 0
-1844 820 1812 788 -787 0
-852 787 0
-980 852 916 788 -787 0
-916 787 0
-1940 916 1812 788 -787 0
-2964 916 2836 788 -787 0
-1812 787 0
-3860 1812 2836 788 -787 0
-2836 787 0
-1299 1303 0
-1304 1299 0
-1312 1304 1308 1300 -1299 0
-1336 1304 1332 1300 -1299 0
-1816 1304 1812 1300 -1299 0
-1299 1307 0
-1308 1299 0
-1340 1308 1332 1300 -1299 0
-1820 1308 1812 1300 -1299 0
-1299 1331 0
-1332 1299 0
-1844 1332 1812 1300 -1299 0
-3380 1332 3348 1300 -1299 0
-1299 1363 0
-1428 1299 0
-1940 1428 1812 1300 -1299 0
-1812 1299 0
-3860 1812 3348 1300 -1299 0
-3348 1299 0
-2323 2327 0
-2360 2328 2356 2324 -2323 0
-2840 2328 2836 2324 -2323 0
-2323 2331 0
-2836 2323 0
-3860 2836 3348 2324 -2323 0
-3348 2323 0
-1555 1559 0
-1560 1555 0
-1567 1559 1563 1555 -1554 0
-1568 1560 1564 1556 -1555 0
-1592 1560 1588 1556 -1555 0
-1816 1560 1812 1556 -1555 0
-3608 1560 3604 1556 -1555 0
-1555 1563 0
-1564 1555 0
-1595 1563 1587 1555 -1554 0
-1596 1564 1588 1556 -1555 0
-1692 1564 1684 1556 -1555 0
-1820 1564 1812 1556 -1555 0
-3612 1564 3604 1556 -1555 0
-1555 1587 0
-1588 1555 0
-1652 1588 1620 1556 -1555 0
-1716 1588 1684 1556 -1555 0
-1844 1588 1812 1556 -1555 0
-3636 1588 3604 1556 -1555 0
-3668 1620 3604 1556 -1555 0
-1684 1555 0
-1940 1684 1812 1556 -1555 0
-3732 1684 3604 1556 -1555 0
-1812 1555 0
-3860 1812 3604 1556 -1555 0
-3604 1555 0
-2579 2583 0
-2584 2579 0
-2592 2584 2588 2580 -2579 0
-2615 2583 2611 2579 -2578 0
-3608 2584 3604 2580 -2579 0
-2579 2587 0
-2588 2579 0
-2619 2587 2611 2579 -2578 0
-2620 2588 2612 2580 -2579 0
-2844 2588 2836 2580 -2579 0
-3612 2588 3604 2580 -2579 0
-2579 2611 0
-2612 2579 0
-2868 2612 2836 2580 -2579 0
-3636 2612 3604 2580 -2579 0
-2836 2579 0
-3860 2836 3604 2580 -2579 0
-3604 2579 0
-3091 3095 0
-3096 3091 0
-3104 3096 3100 3092 -3091 0
-3128 3096 3124 3092 -3091 0
-3352 3096 3348 3092 -3091 0
-3608 3096 3604 3092 -3091 0
-3091 3099 0
-3100 3091 0
-3132 3100 3124 3092 -3091 0
-3356 3100 3348 3092 -3091 0
-3612 3100 3604 3092 -3091 0
-3091 3123 0
-3124 3091 0
-3380 3124 3348 3092 -3091 0
-3636 3124 3604 3092 -3091 0
-3091 3219 0
-3348 3091 0
-3860 3348 3604 3092 -3091 0
-3604 3091 0
-227 231 0
-232 227 0
-240 232 236 228 -227 0
-248 232 244 228 -227 0
-488 232 484 228 -227 0
-744 232 740 228 -227 0
-227 235 0
-236 227 0
-251 235 243 227 -226 0
-252 236 244 228 -227 0
-492 236 484 228 -227 0
-748 236 740 228 -227 0
-227 243 0
-244 227 0
-500 244 484 228 -227 0
-756 244 740 228 -227 0
-484 227 0
-996 484 740 228 -227 0
-740 227 0
-355 359 0
-360 355 0
-367 359 363 355 -354 0
-368 360 364 356 -355 0
-376 360 372 356 -355 0
-488 360 484 356 -355 0
-872 360 868 356 -355 0
-355 363 0
-364 355 0
-380 364 372 356 -355 0
-492 364 484 356 -355 0
-876 364 868 356 -355 0
-355 371 0
-372 355 0
-500 372 484 356 -355 0
-884 372 868 356 -355 0
-484 355 0
-996 484 868 356 -355 0
-868 355 0
-616 611 0
-632 616 628 612 -611 0
-744 616 740 612 -611 0
-611 619 0
-620 611 0
-611 627 0
-628 611 0
-884 628 868 612 -611 0
-1652 628 1636 612 -611 0
-740 611 0
-996 740 868 612 -611 0
-868 611 0
-1892 868 1636 612 -611 0
-1636 611 0
-1136 1128 1132 1124 -1123 0
-419 423 0
-424 419 0
-431 423 427 419 -418 0
-432 424 428 420 -419 0
-439 423 435 419 -418 0
-440 424 436 420 -419 0
-488 424 484 420 -419 0
-936 424 932 420 -419 0
-419 427 0
-428 419 0
-444 428 436 420 -419 0
-492 428 484 420 -419 0
-940 428 932 420 -419 0
-1452 428 1444 420 -419 0
-419 435 0
-436 419 0
-500 436 484 420 -419 0
-948 436 932 420 -419 0
-484 419 0
-996 484 932 420 -419 0
-1508 484 1444 420 -419 0
-932 419 0
-1956 932 1444 420 -419 0
-1444 419 0
-675 679 0
-680 675 0
-687 679 683 675 -674 0
-688 680 684 676 -675 0
-695 679 691 675 -674 0
-696 680 692 676 -675 0
-744 680 740 676 -675 0
-936 680 932 676 -675 0
-675 683 0
-684 675 0
-700 684 692 676 -675 0
-748 684 740 676 -675 0
-940 684 932 676 -675 0
-675 691 0
-692 675 0
-756 692 740 676 -675 0
-948 692 932 676 -675 0
-1716 692 1700 676 -675 0
-740 675 0
-996 740 932 676 -675 0
-932 675 0
-1956 932 1700 676 -675 0
-1700 675 0
-2724 675 0
-1187 1191 0
-1448 1192 1444 1188 -1187 0
-3240 1192 3236 1188 -1187 0
-1187 1195 0
-1460 1204 1444 1188 -1187 0
-1444 1187 0
-1956 1444 1700 1188 -1187 0
-1700 1187 0
-2232 2216 2228 2212 -2211 0
-803 807 0
-808 803 0
-815 807 811 803 -802 0
-816 808 812 804 -803 0
-824 808 820 804 -803 0
-872 808 868 804 -803 0
-936 808 932 804 -803 0
-1832 808 1828 804 -803 0
-2856 808 2852 804 -803 0
-803 811 0
-812 803 0
-828 812 820 804 -803 0
-940 812 932 804 -803 0
-1836 812 1828 804 -803 0
-803 819 0
-820 803 0
-884 820 868 804 -803 0
-948 820 932 804 -803 0
-1844 820 1828 804 -803 0
-2868 820 2852 804 -803 0
-868 803 0
-996 868 932 804 -803 0
-1892 868 1828 804 -803 0
-932 803 0
-1956 932 1828 804 -803 0
-1828 803 0
-3876 1828 2852 804 -803 0
-2852 803 0
-1315 1319 0
-1320 1315 0
-1328 1320 1324 1316 -1315 0
-1336 1320 1332 1316 -1315 0
-1384 1320 1380 1316 -1315 0
-1448 1320 1444 1316 -1315 0
-1832 1320 1828 1316 -1315 0
-1315 1323 0
-1324 1315 0
-1340 1324 1332 1316 -1315 0
-1836 1324 1828 1316 -1315 0
-1315 1331 0
-1332 1315 0
-1844 1332 1828 1316 -1315 0
-1444 1315 0
-1956 1444 1828 1316 -1315 0
-1828 1315 0
-3876 1828 3364 1316 -1315 0
-3364 1315 0
-2856 2344 2852 2340 -2339 0
-2339 2347 0
-2356 2339 0
-2484 2356 2468 2340 -2339 0
-2852 2339 0
-3876 2852 3364 2340 -2339 0
-3364 2339 0
-1571 1575 0
-1576 1571 0
-1583 1575 1579 1571 -1570 0
-1584 1576 1580 1572 -1571 0
-1591 1575 1587 1571 -1570 0
-1592 1576 1588 1572 -1571 0
-1640 1576 1636 1572 -1571 0
-1832 1576 1828 1572 -1571 0
-3624 1576 3620 1572 -1571 0
-1571 1579 0
-1580 1571 0
-1595 1579 1587 1571 -1570 0
-1596 1580 1588 1572 -1571 0
-1836 1580 1828 1572 -1571 0
-3628 1580 3620 1572 -1571 0
-1571 1587 0
-1588 1571 0
-1716 1588 1700 1572 -1571 0
-1844 1588 1828 1572 -1571 0
-3636 1588 3620 1572 -1571 0
-1571 1635 0
-3684 1636 3620 1572 -1571 0
-1700 1571 0
-1956 1700 1828 1572 -1571 0
-3748 1700 3620 1572 -1571 0
-1828 1571 0
-3876 1828 3620 1572 -1571 0
-3620 1571 0
-2595 2599 0
-2600 2595 0
-2607 2599 2603 2595 -2594 0
-2608 2600 2604 2596 -2595 0
-2616 2600 2612 2596 -2595 0
-3624 2600 3620 2596 -2595 0
-2595 2603 0
-2604 2595 0
-2619 2603 2611 2595 -2594 0
-2620 2604 2612 2596 -2595 0
-2860 2604 2852 2596 -2595 0
-3628 2604 3620 2596 -2595 0
-2595 2611 0
-2612 2595 0
-2868 2612 2852 2596 -2595 0
-3636 2612 3620 2596 -2595 0
-3748 2724 3620 2596 -2595 0
-2852 2595 0
-3876 2852 3620 2596 -2595 0
-3620 2595 0
-3107 3111 0
-3112 3107 0
-3119 3111 3115 3107 -3106 0
-3120 3112 3116 3108 -3107 0
-3128 3112 3124 3108 -3107 0
-3624 3112 3620 3108 -3107 0
-3107 3115 0
-3116 3107 0
-3131 3115 3123 3107 -3106 0
-3132 3116 3124 3108 -3107 0
-3372 3116 3364 3108 -3107 0
-3628 3116 3620 3108 -3107 0
-3107 3123 0
-3124 3107 0
-3636 3124 3620 3108 -3107 0
-3236 3107 0
-3364 3107 0
-3876 3364 3620 3108 -3107 0
-3620 3107 0
-451 455 0
-464 456 460 452 -451 0
-472 456 468 452 -451 0
-488 456 484 452 -451 0
-1480 456 1476 452 -451 0
-451 459 0
-476 460 468 452 -451 0
-492 460 484 452 -451 0
-451 467 0
-500 468 484 452 -451 0
-451 483 0
-964 451 0
-451 1475 0
-707 711 0
-720 712 716 708 -707 0
-728 712 724 708 -707 0
-744 712 740 708 -707 0
-707 715 0
-732 716 724 708 -707 0
-707 723 0
-756 724 740 708 -707 0
-707 739 0
-964 707 0
-835 839 0
-848 840 844 836 -835 0
-872 840 868 836 -835 0
-1864 840 1860 836 -835 0
-835 843 0
-860 844 852 836 -835 0
-876 844 868 836 -835 0
-835 851 0
-884 852 868 836 -835 0
-835 867 0
-1892 868 1860 836 -835 0
-964 835 0
-1876 1364 1860 1348 -1347 0
-1616 1608 1612 1604 -1603 0
-3668 1620 3652 1604 -1603 0
-1860 1603 0
-899 903 0
-912 904 908 900 -899 0
-920 904 916 900 -899 0
-936 904 932 900 -899 0
-2952 904 2948 900 -899 0
-899 907 0
-924 908 916 900 -899 0
-940 908 932 900 -899 0
-2956 908 2948 900 -899 0
-899 915 0
-948 916 932 900 -899 0
-2964 916 2948 900 -899 0
-899 931 0
-2980 932 2948 900 -899 0
-964 899 0
-899 2947 0
-1411 1415 0
-1411 1419 0
-1411 1427 0
-1411 1443 0
-1924 1411 0
-2956 2444 2948 2436 -2435 0
-1667 1671 0
-1680 1672 1676 1668 -1667 0
-1704 1672 1700 1668 -1667 0
-1667 1675 0
-1692 1676 1684 1668 -1667 0
-1708 1676 1700 1668 -1667 0
-1667 1683 0
-1716 1684 1700 1668 -1667 0
-1667 1699 0
-1924 1667 0
-3244 3212 3236 3204 -3203 0
-1795 1799 0
-1808 1800 1804 1796 -1795 0
-1816 1800 1812 1796 -1795 0
-1832 1800 1828 1796 -1795 0
-1864 1800 1860 1796 -1795 0
-1795 1803 0
-1820 1804 1812 1796 -1795 0
-1836 1804 1828 1796 -1795 0
-1795 1811 0
-1844 1812 1828 1796 -1795 0
-1876 1812 1860 1796 -1795 0
-1795 1827 0
-1924 1795 0
-2819 2823 0
-2819 2827 0
-2844 2828 2836 2820 -2819 0
-2819 2835 0
-2868 2836 2852 2820 -2819 0
-2819 2851 0
-3844 2819 0
-3331 3335 0
-3344 3336 3340 3332 -3331 0
-3352 3336 3348 3332 -3331 0
-3368 3336 3364 3332 -3331 0
-3331 3339 0
-3356 3340 3348 3332 -3331 0
-3372 3340 3364 3332 -3331 0
-3331 3347 0
-3380 3348 3364 3332 -3331 0
-3331 3363 0
-3844 3331 0
-3587 3591 0
-3600 3592 3596 3588 -3587 0
-3608 3592 3604 3588 -3587 0
-3624 3592 3620 3588 -3587 0
-3587 3595 0
-3612 3596 3604 3588 -3587 0
-3628 3596 3620 3588 -3587 0
-3660 3596 3652 3588 -3587 0
-3724 3596 3716 3588 -3587 0
-3587 3603 0
-3636 3604 3620 3588 -3587 0
-3587 3619 0
-3684 3620 3652 3588 -3587 0
-3844 3587 0
-64 128 0
-64 192 0
-64 320 0
-64 576 0
-64 1088 0
-64 2112 0
-95 223 0
-96 224 0
-480 224 352 96 -95 0
-736 224 608 96 -95 0
-95 351 0
-96 352 0
-864 352 608 96 -95 0
-95 607 0
-96 608 0
-96 1120 0
-160 224 0
-480 224 416 160 -159 0
-736 224 672 160 -159 0
-159 415 0
-160 416 0
-928 416 672 160 -159 0
-1440 416 1184 160 -159 0
-160 672 0
-1696 672 1184 160 -159 0
-159 1183 0
-160 1184 0
-288 352 0
-480 352 416 288 -287 0
-864 352 800 288 -287 0
-288 416 0
-928 416 800 288 -287 0
-1440 416 1312 288 -287 0
-287 799 0
-288 800 0
-1824 800 1312 288 -287 0
-287 1311 0
-288 1312 0
-287 2335 0
-288 2336 0
-544 608 0
-1632 608 1568 544 -543 0
-544 672 0
-928 672 800 544 -543 0
-1696 672 1568 544 -543 0
-544 800 0
-1824 800 1568 544 -543 0
-2848 800 2592 544 -543 0
-543 1567 0
-544 1568 0
-3616 1568 2592 544 -543 0
-543 2591 0
-544 2592 0
-1056 1120 0
-1248 1120 1184 1056 -1055 0
-1056 1184 0
-1440 1184 1312 1056 -1055 0
-1696 1184 1568 1056 -1055 0
-1056 1312 0
-1824 1312 1568 1056 -1055 0
-1056 1568 0
-3616 1568 3104 1056 -1055 0
-1055 3103 0
-1056 3104 0
-2080 2208 0
-2080 2336 0
-2848 2336 2592 2080 -2079 0
-2080 2592 0
-2080 3104 0
-111 239 0
-112 240 0
-496 240 368 112 -111 0
-1264 240 1136 112 -111 0
-111 367 0
-112 368 0
-880 368 624 112 -111 0
-111 623 0
-112 624 0
-111 1135 0
-112 1136 0
-176 240 0
-496 240 432 176 -175 0
-752 240 688 176 -175 0
-175 431 0
-176 432 0
-944 432 688 176 -175 0
-1456 432 1200 176 -175 0
-175 687 0
-176 688 0
-1712 688 1200 176 -175 0
-175 1199 0
-176 1200 0
-176 2224 0
-304 368 0
-496 368 432 304 -303 0
-304 432 0
-944 432 816 304 -303 0
-1456 432 1328 304 -303 0
-303 815 0
-304 816 0
-1840 816 1328 304 -303 0
-2864 816 2352 304 -303 0
-303 1327 0
-304 1328 0
-304 2352 0
-560 624 0
-752 624 688 560 -559 0
-880 624 816 560 -559 0
-1648 624 1584 560 -559 0
-560 688 0
-944 688 816 560 -559 0
-1712 688 1584 560 -559 0
-560 816 0
-1840 816 1584 560 -559 0
-2864 816 2608 560 -559 0
-559 1583 0
-560 1584 0
-3632 1584 2608 560 -559 0
-559 2607 0
-560 2608 0
-1072 1136 0
-1648 1136 1584 1072 -1071 0
-1072 1200 0
-1712 1200 1584 1072 -1071 0
-1072 1328 0
-1840 1328 1584 1072 -1071 0
-1072 1584 0
-3632 1584 3120 1072 -1071 0
-1071 3119 0
-1072 3120 0
-2096 2160 0
-3376 2352 3120 2096 -2095 0
-2096 2608 0
-3632 2608 3120 2096 -2095 0
-2096 3120 0
-224 207 0
-208 224 0
-256 224 240 208 -207 0
-480 224 464 208 -207 0
-240 207 0
-208 240 0
-496 240 464 208 -207 0
-464 207 0
-208 464 0
-720 207 0
-208 720 0
-336 352 0
-384 352 368 336 -335 0
-480 352 464 336 -335 0
-864 352 848 336 -335 0
-336 368 0
-496 368 464 336 -335 0
-880 368 848 336 -335 0
-464 335 0
-336 464 0
-976 464 848 336 -335 0
-848 335 0
-336 848 0
-608 591 0
-592 608 0
-640 608 624 592 -591 0
-864 608 848 592 -591 0
-592 624 0
-752 624 720 592 -591 0
-720 591 0
-592 720 0
-848 591 0
-1104 1120 0
-1376 1120 1360 1104 -1103 0
-3168 1120 3152 1104 -1103 0
-1104 1136 0
-1104 1360 0
-1104 1616 0
-416 399 0
-400 416 0
-448 416 432 400 -399 0
-480 416 464 400 -399 0
-928 416 912 400 -399 0
-432 399 0
-400 432 0
-496 432 464 400 -399 0
-944 432 912 400 -399 0
-464 399 0
-400 464 0
-976 464 912 400 -399 0
-912 399 0
-400 912 0
-672 655 0
-656 672 0
-704 672 688 656 -655 0
-736 672 720 656 -655 0
-928 672 912 656 -655 0
-656 688 0
-944 688 912 656 -655 0
-1712 688 1680 656 -655 0
-656 720 0
-976 720 912 656 -655 0
-912 655 0
-656 912 0
-1936 912 1680 656 -655 0
-656 1680 0
-1168 1184 0
-1168 1200 0
-2192 2256 0
-2192 2448 0
-800 783 0
-784 800 0
-832 800 816 784 -783 0
-928 800 912 784 -783 0
-1824 800 1808 784 -783 0
-816 783 0
-784 816 0
-944 816 912 784 -783 0
-1840 816 1808 784 -783 0
-976 848 912 784 -783 0
-912 783 0
-784 912 0
-1936 912 1808 784 -783 0
-1808 783 0
-784 1808 0
-3856 1808 2832 784 -783 0
-2832 783 0
-1312 1295 0
-1296 1312 0
-1344 1312 1328 1296 -1295 0
-1440 1312 1424 1296 -1295 0
-1824 1312 1808 1296 -1295 0
-1328 1295 0
-1296 1328 0
-1840 1328 1808 1296 -1295 0
-1295 1359 0
-1936 1424 1808 1296 -1295 0
-1808 1295 0
-1296 1808 0
-1296 3344 0
-2336 2319 0
-2320 2336 0
-2320 2352 0
-2320 2832 0
-2320 3344 0
-1568 1551 0
-1552 1568 0
-1600 1568 1584 1552 -1551 0
-1824 1568 1808 1552 -1551 0
-3616 1568 3600 1552 -1551 0
-1584 1551 0
-1552 1584 0
-1840 1584 1808 1552 -1551 0
-3632 1584 3600 1552 -1551 0
-1552 1616 0
-1680 1551 0
-1936 1680 1808 1552 -1551 0
-1808 1551 0
-1552 1808 0
-3856 1808 3600 1552 -1551 0
-3600 1551 0
-1552 3600 0
-2592 2575 0
-2576 2592 0
-2624 2592 2608 2576 -2575 0
-3616 2592 3600 2576 -2575 0
-2576 2608 0
-3632 2608 3600 2576 -2575 0
-2576 2704 0
-2576 2832 0
-3856 2832 3600 2576 -2575 0
-3600 2575 0
-2576 3600 0
-3104 3087 0
-3088 3104 0
-3136 3104 3120 3088 -3087 0
-3616 3104 3600 3088 -3087 0
-3120 3087 0
-3088 3120 0
-3632 3120 3600 3088 -3087 0
-3088 3344 0
-3600 3087 0
-3088 3600 0
-119 247 0
-120 248 0
-504 248 376 120 -119 0
-760 248 632 120 -119 0
-119 375 0
-120 376 0
-119 631 0
-120 632 0
-2680 632 2168 120 -119 0
-120 1144 0
-184 248 0
-504 248 440 184 -183 0
-760 248 696 184 -183 0
-183 439 0
-184 440 0
-952 440 696 184 -183 0
-1464 440 1208 184 -183 0
-183 695 0
-184 696 0
-2744 696 2232 184 -183 0
-184 1208 0
-312 376 0
-504 376 440 312 -311 0
-888 376 824 312 -311 0
-312 440 0
-952 440 824 312 -311 0
-311 823 0
-312 824 0
-1848 824 1336 312 -311 0
-2872 824 2360 312 -311 0
-311 1335 0
-312 1336 0
-311 2359 0
-312 2360 0
-568 632 0
-568 696 0
-952 696 824 568 -567 0
-1720 696 1592 568 -567 0
-568 824 0
-1848 824 1592 568 -567 0
-2872 824 2616 568 -567 0
-567 1591 0
-568 1592 0
-3640 1592 2616 568 -567 0
-567 2615 0
-568 2616 0
-1080 1336 0
-1848 1336 1592 1080 -1079 0
-3384 1336 3128 1080 -1079 0
-1080 1592 0
-3640 1592 3128 1080 -1079 0
-1079 3127 0
-1080 3128 0
-2104 2232 0
-2104 2360 0
-2872 2360 2616 2104 -2103 0
-3384 2360 3128 2104 -2103 0
-2104 2616 0
-3640 2616 3128 2104 -2103 0
-2104 3128 0
-224 215 0
-216 224 0
-256 224 248 216 -215 0
-480 224 472 216 -215 0
-248 215 0
-216 248 0
-504 248 472 216 -215 0
-1272 248 1240 216 -215 0
-472 215 0
-216 472 0
-216 728 0
-215 1239 0
-216 1240 0
-352 343 0
-344 352 0
-384 352 376 344 -343 0
-480 352 472 344 -343 0
-864 352 856 344 -343 0
-376 343 0
-344 376 0
-888 376 856 344 -343 0
-472 343 0
-344 472 0
-984 472 856 344 -343 0
-344 856 0
-600 608 0
-640 608 632 600 -599 0
-600 632 0
-1656 632 1624 600 -599 0
-600 728 0
-856 599 0
-600 856 0
-1112 1120 0
-1152 1120 1144 1112 -1111 0
-1248 1120 1240 1112 -1111 0
-1111 3159 0
-1112 3160 0
-416 407 0
-408 416 0
-448 416 440 408 -407 0
-480 416 472 408 -407 0
-928 416 920 408 -407 0
-1440 416 1432 408 -407 0
-440 407 0
-408 440 0
-504 440 472 408 -407 0
-952 440 920 408 -407 0
-472 407 0
-408 472 0
-984 472 920 408 -407 0
-920 407 0
-408 920 0
-1944 920 1432 408 -407 0
-672 663 0
-664 672 0
-704 672 696 664 -663 0
-928 672 920 664 -663 0
-696 663 0
-664 696 0
-952 696 920 664 -663 0
-664 728 0
-984 728 920 664 -663 0
-664 920 0
-1944 920 1688 664 -663 0
-1176 1184 0
-1216 1184 1208 1176 -1175 0
-1696 1184 1688 1176 -1175 0
-3232 1184 3224 1176 -1175 0
-1176 1208 0
-1432 1175 0
-3736 1688 3224 1176 -1175 0
-800 791 0
-792 800 0
-832 800 824 792 -791 0
-928 800 920 792 -791 0
-1824 800 1816 792 -791 0
-824 791 0
-792 824 0
-952 824 920 792 -791 0
-1848 824 1816 792 -791 0
-984 856 920 792 -791 0
-920 791 0
-792 920 0
-1944 920 1816 792 -791 0
-1816 791 0
-792 1816 0
-3864 1816 2840 792 -791 0
-1304 1312 0
-1344 1312 1336 1304 -1303 0
-1824 1312 1816 1304 -1303 0
-1336 1303 0
-1304 1336 0
-3384 1336 3352 1304 -1303 0
-1304 1368 0
-1304 1432 0
-1944 1432 1816 1304 -1303 0
-1816 1303 0
-1304 1816 0
-3864 1816 3352 1304 -1303 0
-1304 3352 0
-2328 2336 0
-2368 2336 2360 2328 -2327 0
-2328 2360 0
-2488 2360 2456 2328 -2327 0
-2328 3352 0
-1560 1568 0
-1600 1568 1592 1560 -1559 0
-1824 1568 1816 1560 -1559 0
-3616 1568 3608 1560 -1559 0
-1592 1559 0
-1560 1592 0
-1848 1592 1816 1560 -1559 0
-3640 1592 3608 1560 -1559 0
-1560 1624 0
-1816 1559 0
-1560 1816 0
-3864 1816 3608 1560 -1559 0
-3608 1559 0
-1560 3608 0
-2592 2583 0
-2584 2592 0
-2624 2592 2616 2584 -2583 0
-2616 2583 0
-2584 2616 0
-3640 2616 3608 2584 -2583 0
-2840 2583 0
-3864 2840 3608 2584 -2583 0
-3608 2583 0
-2584 3608 0
-3104 3095 0
-3096 3104 0
-3136 3104 3128 3096 -3095 0
-3616 3104 3608 3096 -3095 0
-3128 3095 0
-3096 3128 0
-3384 3128 3352 3096 -3095 0
-3640 3128 3608 3096 -3095 0
-3160 3095 0
-3352 3095 0
-3608 3095 0
-3096 3608 0
-240 231 0
-232 240 0
-256 240 248 232 -231 0
-496 240 488 232 -231 0
-248 231 0
-232 248 0
-504 248 488 232 -231 0
-488 231 0
-232 488 0
-1000 488 744 232 -231 0
-232 744 0
-232 1256 0
-368 359 0
-360 368 0
-384 368 376 360 -359 0
-496 368 488 360 -359 0
-880 368 872 360 -359 0
-376 359 0
-360 376 0
-504 376 488 360 -359 0
-888 376 872 360 -359 0
-488 359 0
-360 488 0
-1000 488 872 360 -359 0
-872 359 0
-360 872 0
-360 1384 0
-616 624 0
-616 632 0
-744 615 0
-616 744 0
-616 872 0
-1896 872 1640 616 -615 0
-1128 1144 0
-1128 1384 0
-1128 1640 0
-2152 3176 0
-432 423 0
-424 432 0
-448 432 440 424 -423 0
-496 432 488 424 -423 0
-944 432 936 424 -423 0
-440 423 0
-424 440 0
-504 440 488 424 -423 0
-952 440 936 424 -423 0
-488 423 0
-424 488 0
-1000 488 936 424 -423 0
-936 423 0
-424 936 0
-1960 936 1448 424 -423 0
-688 679 0
-680 688 0
-704 688 696 680 -679 0
-752 688 744 680 -679 0
-680 696 0
-952 696 936 680 -679 0
-680 744 0
-1000 744 936 680 -679 0
-1768 744 1704 680 -679 0
-936 679 0
-680 936 0
-1960 936 1704 680 -679 0
-1704 679 0
-680 1704 0
-3752 1704 2728 680 -679 0
-1216 1200 1208 1192 -1191 0
-1192 1208 0
-1704 1191 0
-1192 1704 0
-3752 1704 3240 1192 -1191 0
-2216 3240 0
-816 807 0
-808 816 0
-832 816 824 808 -807 0
-944 816 936 808 -807 0
-1840 816 1832 808 -807 0
-824 807 0
-808 824 0
-952 824 936 808 -807 0
-1848 824 1832 808 -807 0
-2872 824 2856 808 -807 0
-808 872 0
-1000 872 936 808 -807 0
-936 807 0
-808 936 0
-1960 936 1832 808 -807 0
-1832 807 0
-808 1832 0
-3880 1832 2856 808 -807 0
-1328 1319 0
-1320 1328 0
-1344 1328 1336 1320 -1319 0
-1840 1328 1832 1320 -1319 0
-1320 1336 0
-1320 1384 0
-1960 1448 1832 1320 -1319 0
-1832 1319 0
-1320 1832 0
-3880 1832 3368 1320 -1319 0
-1320 3368 0
-2344 2360 0
-1584 1575 0
-1576 1584 0
-1600 1584 1592 1576 -1575 0
-1840 1584 1832 1576 -1575 0
-3632 1584 3624 1576 -1575 0
-1592 1575 0
-1576 1592 0
-1848 1592 1832 1576 -1575 0
-3640 1592 3624 1576 -1575 0
-1575 1639 0
-1704 1575 0
-1576 1704 0
-1960 1704 1832 1576 -1575 0
-1832 1575 0
-1576 1832 0
-3880 1832 3624 1576 -1575 0
-3624 1575 0
-1576 3624 0
-2608 2599 0
-2600 2608 0
-3632 2608 3624 2600 -2599 0
-2616 2599 0
-2600 2616 0
-3640 2616 3624 2600 -2599 0
-2600 2728 0
-2600 2856 0
-3880 2856 3624 2600 -2599 0
-3624 2599 0
-2600 3624 0
-3120 3111 0
-3112 3120 0
-3136 3120 3128 3112 -3111 0
-3376 3120 3368 3112 -3111 0
-3128 3111 0
-3112 3128 0
-3640 3128 3624 3112 -3111 0
-3368 3111 0
-3112 3368 0
-3112 3624 0
-455 463 0
-456 464 0
-480 464 472 456 -455 0
-496 464 488 456 -455 0
-455 471 0
-456 472 0
-504 472 488 456 -455 0
-455 487 0
-456 488 0
-711 719 0
-712 720 0
-711 727 0
-712 728 0
-711 743 0
-712 744 0
-711 1735 0
-2248 2280 0
-839 847 0
-840 848 0
-864 848 856 840 -839 0
-880 848 872 840 -839 0
-839 855 0
-840 856 0
-888 856 872 840 -839 0
-839 871 0
-840 872 0
-840 1864 0
-1608 1616 0
-3144 3152 0
-903 911 0
-904 912 0
-928 912 920 904 -903 0
-944 912 936 904 -903 0
-903 919 0
-904 920 0
-952 920 936 904 -903 0
-903 935 0
-904 936 0
-1416 1424 0
-1415 1431 0
-1416 1432 0
-1415 1447 0
-1416 1448 0
-1671 1679 0
-1672 1680 0
-1696 1680 1688 1672 -1671 0
-1712 1680 1704 1672 -1671 0
-3728 1680 3720 1672 -1671 0
-1671 1687 0
-1672 1688 0
-1720 1688 1704 1672 -1671 0
-1671 1703 0
-1672 1704 0
-1799 1807 0
-1800 1808 0
-1824 1808 1816 1800 -1799 0
-1840 1808 1832 1800 -1799 0
-1799 1815 0
-1800 1816 0
-1848 1816 1832 1800 -1799 0
-1799 1831 0
-1800 1832 0
-1800 1864 0
-2823 2831 0
-2824 2832 0
-2848 2832 2840 2824 -2823 0
-2864 2832 2856 2824 -2823 0
-2823 2839 0
-2824 2840 0
-2872 2840 2856 2824 -2823 0
-2823 2855 0
-2824 2856 0
-3336 3344 0
-3336 3352 0
-3384 3352 3368 3336 -3335 0
-3335 3367 0
-3591 3599 0
-3592 3600 0
-3616 3600 3608 3592 -3591 0
-3632 3600 3624 3592 -3591 0
-3591 3607 0
-3592 3608 0
-3640 3608 3624 3592 -3591 0
-3591 3623 0
-3592 3624 0
-3592 3720 0
-123 251 0
-124 252 0
-508 252 380 124 -123 0
-764 252 636 124 -123 0
-123 379 0
-124 380 0
-124 636 0
-124 1148 0
-188 252 0
-508 252 444 188 -187 0
-764 252 700 188 -187 0
-1276 252 1212 188 -187 0
-187 443 0
-188 444 0
-956 444 700 188 -187 0
-1468 444 1212 188 -187 0
-187 699 0
-188 700 0
-187 1211 0
-188 1212 0
-188 2236 0
-316 380 0
-508 380 444 316 -315 0
-892 380 828 316 -315 0
-316 444 0
-956 444 828 316 -315 0
-315 827 0
-316 828 0
-1852 828 1340 316 -315 0
-2876 828 2364 316 -315 0
-315 1339 0
-316 1340 0
-3388 1340 2364 316 -315 0
-315 2363 0
-316 2364 0
-572 636 0
-572 700 0
-956 700 828 572 -571 0
-1724 700 1596 572 -571 0
-572 828 0
-1852 828 1596 572 -571 0
-2876 828 2620 572 -571 0
-571 1595 0
-572 1596 0
-3644 1596 2620 572 -571 0
-571 2619 0
-572 2620 0
-1084 1148 0
-1276 1148 1212 1084 -1083 0
-1084 1212 0
-1468 1212 1340 1084 -1083 0
-1724 1212 1596 1084 -1083 0
-1084 1340 0
-3388 1340 3132 1084 -1083 0
-1084 1596 0
-3644 1596 3132 1084 -1083 0
-1083 3131 0
-1084 3132 0
-2108 2172 0
-2876 2364 2620 2108 -2107 0
-3388 2364 3132 2108 -2107 0
-2108 2620 0
-3644 2620 3132 2108 -2107 0
-2108 3132 0
-224 219 0
-220 224 0
-256 224 252 220 -219 0
-480 224 476 220 -219 0
-736 224 732 220 -219 0
-220 252 0
-508 252 476 220 -219 0
-476 219 0
-220 476 0
-220 732 0
-219 1243 0
-348 352 0
-384 352 380 348 -347 0
-480 352 476 348 -347 0
-864 352 860 348 -347 0
-380 347 0
-348 380 0
-508 380 476 348 -347 0
-892 380 860 348 -347 0
-476 347 0
-348 476 0
-988 476 860 348 -347 0
-1884 860 1372 348 -347 0
-604 608 0
-640 608 636 604 -603 0
-736 608 732 604 -603 0
-864 608 860 604 -603 0
-604 732 0
-860 603 0
-604 860 0
-604 1628 0
-1116 1120 0
-1152 1120 1148 1116 -1115 0
-1116 1148 0
-1116 1244 0
-1116 1628 0
-416 411 0
-412 416 0
-448 416 444 412 -411 0
-480 416 476 412 -411 0
-928 416 924 412 -411 0
-444 411 0
-412 444 0
-508 444 476 412 -411 0
-956 444 924 412 -411 0
-476 411 0
-412 476 0
-988 476 924 412 -411 0
-924 411 0
-412 924 0
-1948 924 1436 412 -411 0
-668 672 0
-736 672 732 668 -667 0
-928 672 924 668 -667 0
-700 667 0
-668 700 0
-956 700 924 668 -667 0
-668 732 0
-988 732 924 668 -667 0
-924 667 0
-668 924 0
-1948 924 1692 668 -667 0
-1692 667 0
-668 1692 0
-1180 1184 0
-1216 1184 1212 1180 -1179 0
-1440 1184 1436 1180 -1179 0
-3232 1184 3228 1180 -1179 0
-1212 1179 0
-1180 1212 0
-1244 1179 0
-1692 1179 0
-1180 1692 0
-3740 1692 3228 1180 -1179 0
-1180 3228 0
-2204 2208 0
-2204 2236 0
-800 795 0
-796 800 0
-832 800 828 796 -795 0
-928 800 924 796 -795 0
-1824 800 1820 796 -795 0
-828 795 0
-796 828 0
-956 828 924 796 -795 0
-1852 828 1820 796 -795 0
-796 860 0
-988 860 924 796 -795 0
-924 795 0
-796 924 0
-1948 924 1820 796 -795 0
-1820 795 0
-796 1820 0
-3868 1820 2844 796 -795 0
-796 2844 0
-1308 1312 0
-1344 1312 1340 1308 -1307 0
-1824 1312 1820 1308 -1307 0
-1340 1307 0
-1308 1340 0
-1852 1340 1820 1308 -1307 0
-1308 1436 0
-1948 1436 1820 1308 -1307 0
-1820 1307 0
-1308 1820 0
-3868 1820 3356 1308 -1307 0
-3356 1307 0
-1308 3356 0
-2332 2336 0
-2368 2336 2364 2332 -2331 0
-2876 2364 2844 2332 -2331 0
-2844 2331 0
-2332 2844 0
-2332 3356 0
-1568 1563 0
-1564 1568 0
-1600 1568 1596 1564 -1563 0
-1824 1568 1820 1564 -1563 0
-1596 1563 0
-1564 1596 0
-1852 1596 1820 1564 -1563 0
-3644 1596 3612 1564 -1563 0
-1564 1628 0
-1692 1563 0
-1564 1692 0
-1948 1692 1820 1564 -1563 0
-1820 1563 0
-1564 1820 0
-3868 1820 3612 1564 -1563 0
-3612 1563 0
-1564 3612 0
-2588 2592 0
-2624 2592 2620 2588 -2587 0
-2620 2587 0
-2588 2620 0
-3644 2620 3612 2588 -2587 0
-2972 2716 2844 2588 -2587 0
-3612 2587 0
-2588 3612 0
-3100 3104 0
-3136 3104 3132 3100 -3099 0
-3360 3104 3356 3100 -3099 0
-3616 3104 3612 3100 -3099 0
-3132 3099 0
-3100 3132 0
-3644 3132 3612 3100 -3099 0
-3100 3164 0
-3100 3356 0
-3868 3356 3612 3100 -3099 0
-3612 3099 0
-3100 3612 0
-240 235 0
-236 240 0
-256 240 252 236 -235 0
-496 240 492 236 -235 0
-252 235 0
-236 252 0
-508 252 492 236 -235 0
-764 252 748 236 -235 0
-492 235 0
-236 492 0
-1004 492 748 236 -235 0
-748 235 0
-236 1260 0
-364 368 0
-384 368 380 364 -363 0
-496 368 492 364 -363 0
-380 363 0
-364 380 0
-508 380 492 364 -363 0
-892 380 876 364 -363 0
-1404 380 1388 364 -363 0
-492 363 0
-364 492 0
-1004 492 876 364 -363 0
-364 876 0
-620 624 0
-752 624 748 620 -619 0
-620 636 0
-620 748 0
-876 619 0
-620 1644 0
-1132 1136 0
-1132 1148 0
-1660 1148 1644 1132 -1131 0
-2156 2160 0
-432 427 0
-428 432 0
-448 432 444 428 -427 0
-496 432 492 428 -427 0
-944 432 940 428 -427 0
-444 427 0
-428 444 0
-508 444 492 428 -427 0
-956 444 940 428 -427 0
-1468 444 1452 428 -427 0
-492 427 0
-428 492 0
-1004 492 940 428 -427 0
-1516 492 1452 428 -427 0
-940 427 0
-428 940 0
-1964 940 1452 428 -427 0
-688 683 0
-684 688 0
-704 688 700 684 -683 0
-700 683 0
-684 700 0
-956 700 940 684 -683 0
-748 683 0
-684 748 0
-1004 748 940 684 -683 0
-940 683 0
-684 940 0
-1964 940 1708 684 -683 0
-1708 683 0
-684 1708 0
-1196 1200 0
-1196 1212 0
-1260 1195 0
-1196 1452 0
-1964 1452 1708 1196 -1195 0
-1196 1708 0
-1196 3244 0
-2220 2236 0
-3260 2236 3244 2220 -2219 0
-2220 2284 0
-2220 3244 0
-816 811 0
-812 816 0
-832 816 828 812 -811 0
-944 816 940 812 -811 0
-1840 816 1836 812 -811 0
-828 811 0
-812 828 0
-892 828 876 812 -811 0
-956 828 940 812 -811 0
-1852 828 1836 812 -811 0
-812 876 0
-1004 876 940 812 -811 0
-940 811 0
-812 940 0
-1964 940 1836 812 -811 0
-1836 811 0
-812 1836 0
-3884 1836 2860 812 -811 0
-812 2860 0
-1324 1328 0
-1344 1328 1340 1324 -1323 0
-1840 1328 1836 1324 -1323 0
-1340 1323 0
-1324 1340 0
-1468 1340 1452 1324 -1323 0
-1964 1452 1836 1324 -1323 0
-1836 1323 0
-1324 1836 0
-1324 3372 0
-2348 2352 0
-2348 2364 0
-2860 2347 0
-2348 3372 0
-1584 1579 0
-1580 1584 0
-1600 1584 1596 1580 -1579 0
-1712 1584 1708 1580 -1579 0
-1840 1584 1836 1580 -1579 0
-3632 1584 3628 1580 -1579 0
-1596 1579 0
-1580 1596 0
-1724 1596 1708 1580 -1579 0
-1852 1596 1836 1580 -1579 0
-1708 1579 0
-1580 1708 0
-1964 1708 1836 1580 -1579 0
-1836 1579 0
-1580 1836 0
-3884 1836 3628 1580 -1579 0
-3628 1579 0
-1580 3628 0
-2608 2603 0
-2604 2608 0
-2624 2608 2620 2604 -2603 0
-3632 2608 3628 2604 -2603 0
-2620 2603 0
-2604 2620 0
-2604 2732 0
-2860 2603 0
-3884 2860 3628 2604 -2603 0
-3628 2603 0
-2604 3628 0
-3120 3115 0
-3116 3120 0
-3136 3120 3132 3116 -3115 0
-3632 3120 3628 3116 -3115 0
-3132 3115 0
-3116 3132 0
-3388 3132 3372 3116 -3115 0
-3644 3132 3628 3116 -3115 0
-3372 3115 0
-3116 3372 0
-3884 3372 3628 3116 -3115 0
-3628 3115 0
-3116 3628 0
-460 464 0
-480 464 476 460 -459 0
-496 464 492 460 -459 0
-459 475 0
-460 476 0
-508 476 492 460 -459 0
-459 491 0
-460 492 0
-716 720 0
-736 720 732 716 -715 0
-752 720 748 716 -715 0
-715 731 0
-716 732 0
-715 747 0
-716 748 0
-844 848 0
-880 848 876 844 -843 0
-843 859 0
-844 860 0
-892 860 876 844 -843 0
-844 876 0
-1900 876 1868 844 -843 0
-1612 1616 0
-1612 1644 0
-1612 3660 0
-3148 3152 0
-908 912 0
-928 912 924 908 -907 0
-944 912 940 908 -907 0
-2960 912 2956 908 -907 0
-907 923 0
-908 924 0
-956 924 940 908 -907 0
-907 939 0
-908 940 0
-908 2956 0
-1420 1424 0
-1420 1436 0
-1468 1436 1452 1420 -1419 0
-1419 1451 0
-1420 1452 0
-2444 2460 0
-1676 1680 0
-1696 1680 1692 1676 -1675 0
-1675 1691 0
-1676 1692 0
-1724 1692 1708 1676 -1675 0
-1675 1707 0
-1676 1708 0
-1676 3724 0
-1804 1808 0
-1824 1808 1820 1804 -1803 0
-1840 1808 1836 1804 -1803 0
-1803 1819 0
-1804 1820 0
-1852 1820 1836 1804 -1803 0
-1803 1835 0
-1804 1836 0
-2828 2832 0
-2827 2843 0
-2828 2844 0
-2876 2844 2860 2828 -2827 0
-2827 2859 0
-2828 2860 0
-2828 2956 0
-3340 3344 0
-3339 3355 0
-3340 3356 0
-3340 3372 0
-3596 3600 0
-3616 3600 3612 3596 -3595 0
-3632 3600 3628 3596 -3595 0
-3595 3611 0
-3596 3612 0
-3644 3612 3628 3596 -3595 0
-3676 3612 3660 3596 -3595 0
-3595 3627 0
-3596 3628 0
-244 248 0
-256 248 252 244 -243 0
-504 248 500 244 -243 0
-252 243 0
-244 252 0
-508 252 500 244 -243 0
-500 243 0
-244 500 0
-376 371 0
-372 376 0
-384 376 380 372 -371 0
-504 376 500 372 -371 0
-888 376 884 372 -371 0
-380 371 0
-372 380 0
-892 380 884 372 -371 0
-500 371 0
-372 500 0
-1012 500 884 372 -371 0
-884 371 0
-372 884 0
-628 632 0
-888 632 884 628 -627 0
-628 636 0
-892 636 884 628 -627 0
-628 884 0
-1908 884 1652 628 -627 0
-1140 1144 0
-436 440 0
-448 440 444 436 -435 0
-504 440 500 436 -435 0
-952 440 948 436 -435 0
-436 444 0
-508 444 500 436 -435 0
-956 444 948 436 -435 0
-500 435 0
-436 500 0
-1012 500 948 436 -435 0
-1524 500 1460 436 -435 0
-948 435 0
-436 948 0
-1972 948 1460 436 -435 0
-1460 435 0
-436 1460 0
-436 2484 0
-696 691 0
-692 696 0
-704 696 700 692 -691 0
-952 696 948 692 -691 0
-700 691 0
-692 700 0
-956 700 948 692 -691 0
-692 756 0
-1012 756 948 692 -691 0
-948 691 0
-692 948 0
-1972 948 1716 692 -691 0
-1716 691 0
-692 1716 0
-1204 1208 0
-1204 1212 0
-1716 1203 0
-1204 1716 0
-824 819 0
-820 824 0
-832 824 828 820 -819 0
-952 824 948 820 -819 0
-1848 824 1844 820 -819 0
-828 819 0
-820 828 0
-956 828 948 820 -819 0
-1852 828 1844 820 -819 0
-2876 828 2868 820 -819 0
-820 884 0
-1012 884 948 820 -819 0
-948 819 0
-820 948 0
-1972 948 1844 820 -819 0
-1844 819 0
-820 1844 0
-3892 1844 2868 820 -819 0
-820 2868 0
-1336 1331 0
-1332 1336 0
-1848 1336 1844 1332 -1331 0
-1332 1340 0
-1852 1340 1844 1332 -1331 0
-1972 1460 1844 1332 -1331 0
-1844 1331 0
-1332 1844 0
-3892 1844 3380 1332 -1331 0
-1332 3380 0
-2356 2364 0
-2868 2355 0
-3380 2355 0
-1592 1587 0
-1588 1592 0
-1600 1592 1596 1588 -1587 0
-1720 1592 1716 1588 -1587 0
-1848 1592 1844 1588 -1587 0
-3640 1592 3636 1588 -1587 0
-1596 1587 0
-1588 1596 0
-1660 1596 1652 1588 -1587 0
-1852 1596 1844 1588 -1587 0
-3644 1596 3636 1588 -1587 0
-1588 1652 0
-1716 1587 0
-1588 1716 0
-1972 1716 1844 1588 -1587 0
-1844 1587 0
-1588 1844 0
-3892 1844 3636 1588 -1587 0
-3636 1587 0
-1588 3636 0
-2612 2616 0
-2624 2616 2620 2612 -2611 0
-2872 2616 2868 2612 -2611 0
-3640 2616 3636 2612 -2611 0
-2620 2611 0
-2612 2620 0
-3892 2868 3636 2612 -2611 0
-3636 2611 0
-2612 3636 0
-3128 3123 0
-3124 3128 0
-3136 3128 3132 3124 -3123 0
-3640 3128 3636 3124 -3123 0
-3124 3132 0
-3644 3132 3636 3124 -3123 0
-3380 3123 0
-3636 3123 0
-3124 3636 0
-468 472 0
-480 472 476 468 -467 0
-504 472 500 468 -467 0
-468 476 0
-508 476 500 468 -467 0
-467 499 0
-468 500 0
-724 728 0
-736 728 732 724 -723 0
-724 732 0
-764 732 756 724 -723 0
-723 755 0
-724 756 0
-852 856 0
-852 860 0
-851 883 0
-852 884 0
-1908 884 1876 852 -851 0
-852 1876 0
-1364 1372 0
-1620 1624 0
-916 920 0
-928 920 924 916 -915 0
-952 920 948 916 -915 0
-916 924 0
-956 924 948 916 -915 0
-916 948 0
-1428 1432 0
-1464 1432 1460 1428 -1427 0
-1428 1436 0
-1427 1459 0
-1428 1460 0
-1684 1688 0
-1720 1688 1716 1684 -1683 0
-1684 1692 0
-1683 1715 0
-1684 1716 0
-1812 1816 0
-1824 1816 1820 1812 -1811 0
-1848 1816 1844 1812 -1811 0
-1812 1820 0
-1852 1820 1844 1812 -1811 0
-1811 1843 0
-1812 1844 0
-1812 1876 0
-2836 2840 0
-2836 2844 0
-2876 2844 2868 2836 -2835 0
-2836 2868 0
-2836 2964 0
-3348 3352 0
-3360 3352 3356 3348 -3347 0
-3384 3352 3380 3348 -3347 0
-3348 3356 0
-3348 3380 0
-3604 3608 0
-3616 3608 3612 3604 -3603 0
-3640 3608 3636 3604 -3603 0
-3604 3612 0
-3644 3612 3636 3604 -3603 0
-3603 3635 0
-3604 3636 0
-3604 3668 0
-484 488 0
-496 488 492 484 -483 0
-504 488 500 484 -483 0
-484 492 0
-508 492 500 484 -483 0
-484 500 0
-740 744 0
-752 744 748 740 -739 0
-740 748 0
-740 756 0
-868 872 0
-868 876 0
-868 884 0
-1380 1396 0
-1636 1640 0
-1636 1652 0
-3700 1652 3684 1636 -1635 0
-1636 3684 0
-932 936 0
-944 936 940 932 -931 0
-952 936 948 932 -931 0
-2984 936 2980 932 -931 0
-932 940 0
-956 940 948 932 -931 0
-932 948 0
-1444 1448 0
-1444 1452 0
-1516 1452 1508 1444 -1443 0
-1444 1460 0
-2468 2476 0
-1700 1704 0
-1712 1704 1708 1700 -1699 0
-1700 1708 0
-1724 1708 1716 1700 -1699 0
-3756 1708 3748 1700 -1699 0
-1700 1716 0
-3236 3252 0
-3748 3235 0
-1828 1832 0
-1840 1832 1836 1828 -1827 0
-1848 1832 1844 1828 -1827 0
-1828 1836 0
-1852 1836 1844 1828 -1827 0
-1828 1844 0
-1828 1892 0
-2852 2856 0
-2852 2860 0
-2876 2860 2868 2852 -2851 0
-2852 2868 0
-3364 3368 0
-3376 3368 3372 3364 -3363 0
-3364 3372 0
-3364 3380 0
-3620 3624 0
-3632 3624 3628 3620 -3619 0
-3640 3624 3636 3620 -3619 0
-3620 3628 0
-3644 3628 3636 3620 -3619 0
-3620 3636 0
-964 968 0
-964 972 0
-964 980 0
-964 996 0
-1512 1480 1508 1476 -1475 0
-1476 1492 0
-1860 1864 0
-1860 1868 0
-1860 1876 0
-1860 1892 0
-3652 3668 0
-3652 3684 0
-1924 1928 0
-1924 1932 0
-1924 1940 0
-1924 1956 0
-2960 2952 2956 2948 -2947 0
-2948 2956 0
-2948 2964 0
-3716 3732 0
-3844 3848 0
-3844 3852 0
-3844 3860 0
-3844 3876 0
-128 256 0
-128 384 0
-128 640 0
-128 1152 0
-192 448 0
-192 704 0
-192 1216 0
-320 832 0
-320 1344 0
-320 2368 0
-576 1600 0
-576 2624 0
-1088 3136 0
-224 480 0
-992 480 736 224 -223 0
-224 736 0
-352 480 0
-352 864 0
-608 864 0
-608 1632 0
-416 480 0
-416 928 0
-1952 928 1440 416 -415 0
-416 1440 0
-672 736 0
-672 928 0
-672 1696 0
-1184 1440 0
-1952 1440 1696 1184 -1183 0
-1184 1696 0
-800 864 0
-800 928 0
-1952 928 1824 800 -799 0
-800 1824 0
-3872 1824 2848 800 -799 0
-800 2848 0
-1312 1440 0
-1952 1440 1824 1312 -1311 0
-1312 1824 0
-1312 3360 0
-1568 1696 0
-1568 1824 0
-3872 1824 3616 1568 -1567 0
-1568 3616 0
-3872 2848 3616 2592 -2591 0
-2592 3616 0
-3104 3168 0
-3104 3232 0
-3104 3616 0
-240 496 0
-240 752 0
-1776 752 1264 240 -239 0
-368 496 0
-1008 496 880 368 -367 0
-368 880 0
-624 752 0
-623 1647 0
-2160 2416 0
-432 496 0
-1008 496 944 432 -431 0
-432 944 0
-1968 944 1456 432 -431 0
-432 1456 0
-1008 752 944 688 -687 0
-1776 752 1712 688 -687 0
-688 944 0
-1968 944 1712 688 -687 0
-688 1712 0
-1200 1456 0
-1968 1456 1712 1200 -1199 0
-1200 1712 0
-816 880 0
-816 944 0
-1968 944 1840 816 -815 0
-816 1840 0
-3888 1840 2864 816 -815 0
-816 2864 0
-1328 1840 0
-1328 3376 0
-2352 3376 0
-1584 1712 0
-1584 1840 0
-3888 1840 3632 1584 -1583 0
-1584 3632 0
-2608 2864 0
-3888 2864 3632 2608 -2607 0
-2608 3632 0
-3120 3376 0
-3888 3376 3632 3120 -3119 0
-3120 3632 0
-464 480 0
-512 480 496 464 -463 0
-464 496 0
-720 752 0
-848 864 0
-896 864 880 848 -847 0
-848 880 0
-1616 1632 0
-912 928 0
-912 944 0
-1680 1696 0
-1680 1712 0
-2704 2960 0
-1808 1824 0
-1856 1824 1840 1808 -1807 0
-1808 1840 0
-2880 2848 2864 2832 -2831 0
-2832 2864 0
-3344 3360 0
-3344 3376 0
-3600 3616 0
-3600 3632 0
-3600 3728 0
-248 504 0
-376 504 0
-376 888 0
-632 888 0
-1912 888 1656 632 -631 0
-440 504 0
-1016 504 952 440 -439 0
-440 952 0
-440 2488 0
-1016 760 952 696 -695 0
-696 952 0
-696 1720 0
-824 888 0
-824 952 0
-1976 952 1848 824 -823 0
-824 1848 0
-3896 1848 2872 824 -823 0
-824 2872 0
-1336 1848 0
-3896 1848 3384 1336 -1335 0
-1336 3384 0
-2360 2872 0
-3896 2872 3384 2360 -2359 0
-2360 3384 0
-1976 1720 1848 1592 -1591 0
-1592 1848 0
-1592 3640 0
-2616 2680 0
-2616 2744 0
-3896 2872 3640 2616 -2615 0
-2616 3640 0
-3128 3640 0
-472 480 0
-512 480 504 472 -471 0
-472 504 0
-1280 1248 1272 1240 -1239 0
-856 864 0
-896 864 888 856 -855 0
-856 888 0
-920 928 0
-960 928 952 920 -919 0
-920 952 0
-1432 1440 0
-1472 1440 1464 1432 -1431 0
-1432 1464 0
-1688 1696 0
-1728 1696 1720 1688 -1687 0
-1688 1720 0
-1816 1824 0
-1856 1824 1848 1816 -1815 0
-1816 1848 0
-2880 2848 2872 2840 -2839 0
-3608 3616 0
-3648 3616 3640 3608 -3607 0
-3608 3640 0
-488 496 0
-488 504 0
-744 760 0
-872 888 0
-1384 1512 0
-936 944 0
-936 952 0
-3760 1712 3752 1704 -1703 0
-1704 1720 0
-2728 2744 0
-2728 2984 0
-1832 1840 0
-1832 1848 0
-1832 1896 0
-2880 2864 2872 2856 -2855 0
-2856 2872 0
-3368 3384 0
-3624 3632 0
-3648 3632 3640 3624 -3623 0
-3624 3640 0
-3624 3752 0
-968 976 0
-968 984 0
-968 1000 0
-1735 1767 0
-1864 1896 0
-1928 1936 0
-1928 1944 0
-1928 1960 0
-3720 3736 0
-3848 3856 0
-3848 3864 0
-3848 3880 0
-252 508 0
-1020 508 764 252 -251 0
-252 764 0
-252 1276 0
-380 508 0
-380 892 0
-636 1660 0
-444 508 0
-444 956 0
-444 1468 0
-700 956 0
-700 1724 0
-1212 1468 0
-1980 1468 1724 1212 -1211 0
-1212 1724 0
-828 892 0
-828 956 0
-1980 956 1852 828 -827 0
-828 1852 0
-3900 1852 2876 828 -827 0
-828 2876 0
-1340 1404 0
-1340 1852 0
-3900 1852 3388 1340 -1339 0
-3900 2876 3388 2364 -2363 0
-2364 3388 0
-1596 1660 0
-1980 1724 1852 1596 -1595 0
-1596 1852 0
-1596 3644 0
-2620 3644 0
-3132 3260 0
-476 480 0
-476 508 0
-732 764 0
-1280 1248 1276 1244 -1243 0
-860 864 0
-1372 1376 0
-1628 3676 0
-924 928 0
-960 928 956 924 -923 0
-924 956 0
-1436 1468 0
-1692 1696 0
-1692 1724 0
-1820 1824 0
-1820 1852 0
-1820 1884 0
-2844 2876 0
-3356 3388 0
-3612 3616 0
-3612 3644 0
-3612 3740 0
-492 496 0
-512 496 508 492 -491 0
-492 508 0
-748 752 0
-768 752 764 748 -747 0
-1260 1276 0
-1260 1516 0
-876 892 0
-1388 1900 0
-940 944 0
-960 944 956 940 -939 0
-940 956 0
-1532 1468 1516 1452 -1451 0
-1708 1712 0
-1728 1712 1724 1708 -1707 0
-1836 1840 0
-1836 1852 0
-2860 2864 0
-2880 2864 2876 2860 -2859 0
-3628 3632 0
-3628 3644 0
-3628 3756 0
-972 988 0
-972 1004 0
-1868 1884 0
-1932 1948 0
-1932 1964 0
-2956 2972 0
-3852 3868 0
-3852 3884 0
-500 504 0
-512 504 508 500 -499 0
-500 508 0
-884 892 0
-948 952 0
-948 956 0
-1844 1848 0
-1856 1848 1852 1844 -1843 0
-1844 1852 0
-1844 1908 0
-3636 3640 0
-3636 3644 0
-3636 3700 0
-980 1012 0
-1876 1884 0
-1940 1972 0
-3860 3892 0
-1508 1524 0
-256 512 0
-256 768 0
-256 1280 0
-384 896 0
-448 960 0
-448 1472 0
-704 1728 0
-832 1856 0
-2368 2880 0
-2624 3648 0
-2416 2544 0
-3728 3760 0
-984 992 0
-1944 1952 0
-3864 3872 0
-1000 1008 0
-1000 1016 0
-1896 1912 0
-1960 1968 0
-1960 1976 0
-3880 3888 0
-3880 3896 0
-1276 1532 0
-1004 1020 0
-1964 1980 0
-3884 3900 0
-4098 0
-4103 0
-4107 0
-4115 0
-4131 0
-4611 0
-5123 0
-6147 0
-4112 0
-4120 0
-4136 0
-4616 0
-5128 0
-6152 0
-4124 0
-4140 0
-4620 0
-5132 0
-6156 0
-4148 0
-4628 0
-5140 0
-6164 0
-4644 0
-5156 0
-6180 0
-6660 0
-7172 0
-4614 518 4102 6 -5 0
-5126 1030 4102 6 -5 0
-6150 2054 4102 6 -5 0
-5130 1034 4106 10 -9 0
-6154 2058 4106 10 -9 0
-4626 530 4114 18 -17 0
-5138 1042 4114 18 -17 0
-4642 546 4130 34 -33 0
-5154 1058 4130 34 -33 0
-4110 4102 4106 4098 -4097 0
-4138 4106 4130 4098 -4097 0
-4146 4114 4130 4098 -4097 0
-4610 4097 0
-4623 527 4111 15 -14 0
-5135 1039 4111 15 -14 0
-6159 2063 4111 15 -14 0
-14 4110 0
-4631 535 4119 23 -22 0
-5143 1047 4119 23 -22 0
-6167 2071 4119 23 -22 0
-22 4118 0
-4647 551 4135 39 -38 0
-5159 1063 4135 39 -38 0
-6183 2087 4135 39 -38 0
-38 4134 0
-5639 1543 4615 519 -518 0
-4615 518 0
-5135 1039 5127 1031 -1030 0
-5143 1047 5127 1031 -1030 0
-5159 1063 5127 1031 -1030 0
-5639 1543 5127 1031 -1030 0
-7175 3079 5127 1031 -1030 0
-5127 1030 0
-6159 2063 6151 2055 -2054 0
-6167 2071 6151 2055 -2054 0
-6183 2087 6151 2055 -2054 0
-6663 2567 6151 2055 -2054 0
-7175 3079 6151 2055 -2054 0
-6151 2054 0
-4111 4102 0
-4143 4111 4135 4103 -4102 0
-6159 4111 6151 4103 -4102 0
-4119 4102 0
-4151 4119 4135 4103 -4102 0
-6167 4119 6151 4103 -4102 0
-4135 4102 0
-6183 4135 6151 4103 -4102 0
-4615 4102 0
-6663 4615 6151 4103 -4102 0
-5127 4102 0
-7175 5127 6151 4103 -4102 0
-6151 4102 0
-5147 1051 4123 27 -26 0
-6171 2075 4123 27 -26 0
-26 4122 0
-4651 555 4139 43 -42 0
-5163 1067 4139 43 -42 0
-6187 2091 4139 43 -42 0
-42 4138 0
-4651 555 4619 523 -522 0
-5643 1547 4619 523 -522 0
-5135 1039 5131 1035 -1034 0
-5163 1067 5131 1035 -1034 0
-5643 1547 5131 1035 -1034 0
-7179 3083 5131 1035 -1034 0
-5131 1034 0
-6159 2063 6155 2059 -2058 0
-6171 2075 6155 2059 -2058 0
-6187 2091 6155 2059 -2058 0
-6667 2571 6155 2059 -2058 0
-7179 3083 6155 2059 -2058 0
-6155 2058 0
-4111 4106 0
-4127 4111 4123 4107 -4106 0
-4143 4111 4139 4107 -4106 0
-6159 4111 6155 4107 -4106 0
-4123 4106 0
-4155 4123 4139 4107 -4106 0
-6171 4123 6155 4107 -4106 0
-4139 4106 0
-4619 4106 0
-6667 4619 6155 4107 -4106 0
-5131 4106 0
-6155 4106 0
-4659 563 4147 51 -50 0
-5171 1075 4147 51 -50 0
-6195 2099 4147 51 -50 0
-50 4146 0
-5651 1555 4627 531 -530 0
-4627 530 0
-5143 1047 5139 1043 -1042 0
-5171 1075 5139 1043 -1042 0
-5651 1555 5139 1043 -1042 0
-7187 3091 5139 1043 -1042 0
-5139 1042 0
-6167 2071 6163 2067 -2066 0
-6171 2075 6163 2067 -2066 0
-6195 2099 6163 2067 -2066 0
-6675 2579 6163 2067 -2066 0
-7187 3091 6163 2067 -2066 0
-6163 2066 0
-4119 4114 0
-4127 4119 4123 4115 -4114 0
-4151 4119 4147 4115 -4114 0
-6167 4119 6163 4115 -4114 0
-4123 4114 0
-4155 4123 4147 4115 -4114 0
-6171 4123 6163 4115 -4114 0
-4147 4114 0
-6195 4147 6163 4115 -4114 0
-4627 4114 0
-6675 4627 6163 4115 -4114 0
-5139 4114 0
-7187 5139 6163 4115 -4114 0
-6163 4114 0
-5667 1571 4643 547 -546 0
-4643 546 0
-5163 1067 5155 1059 -1058 0
-5171 1075 5155 1059 -1058 0
-5667 1571 5155 1059 -1058 0
-7203 3107 5155 1059 -1058 0
-5155 1058 0
-6183 2087 6179 2083 -2082 0
-6187 2091 6179 2083 -2082 0
-6195 2099 6179 2083 -2082 0
-6691 2595 6179 2083 -2082 0
-7203 3107 6179 2083 -2082 0
-6179 2082 0
-4135 4130 0
-4143 4135 4139 4131 -4130 0
-4151 4135 4147 4131 -4130 0
-5159 4135 5155 4131 -4130 0
-6183 4135 6179 4131 -4130 0
-4139 4130 0
-4155 4139 4147 4131 -4130 0
-5163 4139 5155 4131 -4130 0
-6187 4139 6179 4131 -4130 0
-4147 4130 0
-6195 4147 6179 4131 -4130 0
-4643 4130 0
-6691 4643 6179 4131 -4130 0
-5155 4130 0
-6179 4130 0
-4610 4614 0
-4610 4626 0
-4610 4642 0
-5635 4610 0
-5122 5126 0
-5159 5127 5155 5123 -5122 0
-5122 5130 0
-5163 5131 5155 5123 -5122 0
-5122 5138 0
-5171 5139 5155 5123 -5122 0
-5122 5154 0
-5635 5122 0
-6146 6150 0
-6159 6151 6155 6147 -6146 0
-6167 6151 6163 6147 -6146 0
-6183 6151 6179 6147 -6146 0
-6146 6154 0
-6171 6155 6163 6147 -6146 0
-6187 6155 6179 6147 -6146 0
-6195 6163 6179 6147 -6146 0
-6146 6178 0
-6659 6146 0
-4384 288 4128 32 -31 0
-4640 544 4128 32 -31 0
-5152 1056 4128 32 -31 0
-6176 2080 4128 32 -31 0
-31 4127 0
-4656 560 4144 48 -47 0
-5168 1072 4144 48 -47 0
-6192 2096 4144 48 -47 0
-47 4143 0
-5648 1552 4624 528 -527 0
-5152 1056 5136 1040 -1039 0
-5168 1072 5136 1040 -1039 0
-5648 1552 5136 1040 -1039 0
-7184 3088 5136 1040 -1039 0
-1039 5135 0
-5136 1039 0
-6176 2080 6160 2064 -2063 0
-6192 2096 6160 2064 -2063 0
-6416 2320 6160 2064 -2063 0
-6671 2575 6159 2063 -2062 0
-6672 2576 6160 2064 -2063 0
-7184 3088 6160 2064 -2063 0
-2063 6159 0
-6160 2063 0
-4128 4111 0
-4160 4128 4144 4112 -4111 0
-4384 4128 4368 4112 -4111 0
-5152 4128 5136 4112 -4111 0
-6176 4128 6160 4112 -4111 0
-4144 4111 0
-5168 4144 5136 4112 -4111 0
-6192 4144 6160 4112 -4111 0
-4624 4111 0
-4111 5135 0
-5136 4111 0
-7183 5135 6159 4111 -4110 0
-7184 5136 6160 4112 -4111 0
-4111 6159 0
-6160 4111 0
-4280 184 4152 56 -55 0
-4408 312 4152 56 -55 0
-4664 568 4152 56 -55 0
-5176 1080 4152 56 -55 0
-6200 2104 4152 56 -55 0
-55 4151 0
-4664 568 4632 536 -535 0
-5655 1559 4631 535 -534 0
-5656 1560 4632 536 -535 0
-6679 2583 4631 535 -534 0
-535 4631 0
-4632 535 0
-5152 1056 5144 1048 -1047 0
-5176 1080 5144 1048 -1047 0
-5656 1560 5144 1048 -1047 0
-7192 3096 5144 1048 -1047 0
-1047 5143 0
-5144 1047 0
-6176 2080 6168 2072 -2071 0
-6200 2104 6168 2072 -2071 0
-6424 2328 6168 2072 -2071 0
-6680 2584 6168 2072 -2071 0
-7192 3096 6168 2072 -2071 0
-2071 6167 0
-6168 2071 0
-4128 4119 0
-4160 4128 4152 4120 -4119 0
-4384 4128 4376 4120 -4119 0
-5152 4128 5144 4120 -4119 0
-6176 4128 6168 4120 -4119 0
-4152 4119 0
-5176 4152 5144 4120 -4119 0
-6200 4152 6168 4120 -4119 0
-4119 4631 0
-4632 4119 0
-5656 4632 5144 4120 -4119 0
-4119 5143 0
-5144 4119 0
-7191 5143 6167 4119 -4118 0
-7192 5144 6168 4120 -4119 0
-4119 6167 0
-6168 4119 0
-4400 304 4392 296 -295 0
-4392 295 0
-5672 1576 4648 552 -551 0
-4648 551 0
-5168 1072 5160 1064 -1063 0
-5672 1576 5160 1064 -1063 0
-7208 3112 5160 1064 -1063 0
-5160 1063 0
-6192 2096 6184 2088 -2087 0
-6200 2104 6184 2088 -2087 0
-6312 2216 6184 2088 -2087 0
-6695 2599 6183 2087 -2086 0
-6696 2600 6184 2088 -2087 0
-7207 3111 6183 2087 -2086 0
-7208 3112 6184 2088 -2087 0
-2087 6183 0
-6184 2087 0
-4144 4135 0
-4160 4144 4152 4136 -4135 0
-4400 4144 4392 4136 -4135 0
-5168 4144 5160 4136 -4135 0
-6192 4144 6184 4136 -4135 0
-4152 4135 0
-4664 4152 4648 4136 -4135 0
-5176 4152 5160 4136 -4135 0
-6200 4152 6184 4136 -4135 0
-4648 4135 0
-6695 4647 6183 4135 -4134 0
-6696 4648 6184 4136 -4135 0
-4135 5159 0
-5160 4135 0
-7208 5160 6184 4136 -4135 0
-4135 6183 0
-6184 4135 0
-6416 2320 6408 2312 -2311 0
-7432 3336 6408 2312 -2311 0
-6408 2311 0
-7688 3592 5640 1544 -1543 0
-5640 1543 0
-6680 2584 6664 2568 -2567 0
-7688 3592 6664 2568 -2567 0
-6664 2567 0
-4624 4615 0
-4615 4631 0
-5640 4615 0
-7688 5640 6664 4616 -4615 0
-7184 3088 7176 3080 -3079 0
-7192 3096 7176 3080 -3079 0
-7208 3112 7176 3080 -3079 0
-7688 3592 7176 3080 -3079 0
-7176 3079 0
-5127 5135 0
-5136 5127 0
-5168 5136 5160 5128 -5127 0
-5648 5136 5640 5128 -5127 0
-7184 5136 7176 5128 -5127 0
-5127 5143 0
-5144 5127 0
-7192 5144 7176 5128 -5127 0
-5127 5159 0
-7208 5160 7176 5128 -5127 0
-5640 5127 0
-7688 5640 7176 5128 -5127 0
-7176 5127 0
-6151 6159 0
-6160 6151 0
-6176 6160 6168 6152 -6151 0
-6192 6160 6184 6152 -6151 0
-6416 6160 6408 6152 -6151 0
-6672 6160 6664 6152 -6151 0
-7184 6160 7176 6152 -6151 0
-6151 6167 0
-6168 6151 0
-6199 6167 6183 6151 -6150 0
-6200 6168 6184 6152 -6151 0
-6680 6168 6664 6152 -6151 0
-7192 6168 7176 6152 -6151 0
-6151 6183 0
-6184 6151 0
-6696 6184 6664 6152 -6151 0
-7208 6184 7176 6152 -6151 0
-6408 6151 0
-6664 6151 0
-7688 6664 7176 6152 -6151 0
-7176 6151 0
-5180 1084 4156 60 -59 0
-6204 2108 4156 60 -59 0
-59 4155 0
-283 4379 0
-4380 283 0
-5660 1564 4636 540 -539 0
-4636 539 0
-5152 1056 5148 1052 -1051 0
-5180 1084 5148 1052 -1051 0
-5660 1564 5148 1052 -1051 0
-7196 3100 5148 1052 -1051 0
-1051 5147 0
-5148 1051 0
-6176 2080 6172 2076 -2075 0
-6204 2108 6172 2076 -2075 0
-6428 2332 6172 2076 -2075 0
-6684 2588 6172 2076 -2075 0
-7196 3100 6172 2076 -2075 0
-2075 6171 0
-6172 2075 0
-4128 4123 0
-4160 4128 4156 4124 -4123 0
-4384 4128 4380 4124 -4123 0
-5152 4128 5148 4124 -4123 0
-6176 4128 6172 4124 -4123 0
-4156 4123 0
-5180 4156 5148 4124 -4123 0
-6204 4156 6172 4124 -4123 0
-6428 4380 6172 4124 -4123 0
-4636 4123 0
-5660 4636 5148 4124 -4123 0
-4123 5147 0
-5148 4123 0
-7195 5147 6171 4123 -4122 0
-7196 5148 6172 4124 -4123 0
-4123 6171 0
-6172 4123 0
-6316 2220 4268 172 -171 0
-4668 572 4652 556 -555 0
-5675 1579 4651 555 -554 0
-5676 1580 4652 556 -555 0
-4652 555 0
-5168 1072 5164 1068 -1067 0
-5180 1084 5164 1068 -1067 0
-5676 1580 5164 1068 -1067 0
-7212 3116 5164 1068 -1067 0
-1067 5163 0
-5164 1067 0
-6192 2096 6188 2092 -2091 0
-6204 2108 6188 2092 -2091 0
-6700 2604 6188 2092 -2091 0
-7212 3116 6188 2092 -2091 0
-2091 6187 0
-6188 2091 0
-4144 4139 0
-4160 4144 4156 4140 -4139 0
-5168 4144 5164 4140 -4139 0
-6192 4144 6188 4140 -4139 0
-4156 4139 0
-5180 4156 5164 4140 -4139 0
-6204 4156 6188 4140 -4139 0
-4268 4139 0
-4139 4651 0
-5676 4652 5164 4140 -4139 0
-6699 4651 6187 4139 -4138 0
-6700 4652 6188 4140 -4139 0
-5164 4139 0
-7212 5164 6188 4140 -4139 0
-4139 6187 0
-6188 4139 0
-7436 3340 6412 2316 -2315 0
-6412 2315 0
-7692 3596 5644 1548 -1547 0
-5644 1547 0
-6672 2576 6668 2572 -2571 0
-6700 2604 6668 2572 -2571 0
-7692 3596 6668 2572 -2571 0
-6668 2571 0
-4619 4623 0
-4640 4624 4636 4620 -4619 0
-5648 4624 5644 4620 -4619 0
-4619 4651 0
-5644 4619 0
-7692 5644 6668 4620 -4619 0
-6668 4619 0
-7184 3088 7180 3084 -3083 0
-7196 3100 7180 3084 -3083 0
-7212 3116 7180 3084 -3083 0
-7436 3340 7180 3084 -3083 0
-7692 3596 7180 3084 -3083 0
-7180 3083 0
-5131 5135 0
-5136 5131 0
-5168 5136 5164 5132 -5131 0
-7184 5136 7180 5132 -5131 0
-5131 5147 0
-5148 5131 0
-7196 5148 7180 5132 -5131 0
-5131 5163 0
-5164 5131 0
-5676 5164 5644 5132 -5131 0
-7212 5164 7180 5132 -5131 0
-5644 5131 0
-7692 5644 7180 5132 -5131 0
-7180 5131 0
-6155 6159 0
-6160 6155 0
-6176 6160 6172 6156 -6155 0
-6192 6160 6188 6156 -6155 0
-6672 6160 6668 6156 -6155 0
-7184 6160 7180 6156 -6155 0
-6155 6171 0
-6172 6155 0
-6204 6172 6188 6156 -6155 0
-6300 6172 6284 6156 -6155 0
-6684 6172 6668 6156 -6155 0
-7196 6172 7180 6156 -6155 0
-6155 6187 0
-6188 6155 0
-6700 6188 6668 6156 -6155 0
-7212 6188 7180 6156 -6155 0
-6155 6411 0
-6668 6155 0
-7692 6668 7180 6156 -6155 0
-7180 6155 0
-4532 436 4276 180 -179 0
-5683 1587 4659 563 -562 0
-5684 1588 4660 564 -563 0
-563 4659 0
-4660 563 0
-5176 1080 5172 1076 -1075 0
-5180 1084 5172 1076 -1075 0
-5683 1587 5171 1075 -1074 0
-5684 1588 5172 1076 -1075 0
-7220 3124 5172 1076 -1075 0
-5172 1075 0
-6200 2104 6196 2100 -2099 0
-6204 2108 6196 2100 -2099 0
-6708 2612 6196 2100 -2099 0
-7220 3124 6196 2100 -2099 0
-2099 6195 0
-6196 2099 0
-4152 4147 0
-4160 4152 4156 4148 -4147 0
-5176 4152 5172 4148 -4147 0
-6200 4152 6196 4148 -4147 0
-4156 4147 0
-5180 4156 5172 4148 -4147 0
-6204 4156 6196 4148 -4147 0
-4147 4275 0
-4660 4147 0
-5684 4660 5172 4148 -4147 0
-6708 4660 6196 4148 -4147 0
-4147 5171 0
-5172 4147 0
-7219 5171 6195 4147 -4146 0
-7220 5172 6196 4148 -4147 0
-4147 6195 0
-6196 4147 0
-7444 3348 5396 1300 -1299 0
-7444 3348 6420 2324 -2323 0
-6420 2323 0
-7700 3604 5652 1556 -1555 0
-5652 1555 0
-6680 2584 6676 2580 -2579 0
-6708 2612 6676 2580 -2579 0
-7700 3604 6676 2580 -2579 0
-6676 2579 0
-4627 4631 0
-4632 4627 0
-4627 4659 0
-5652 4627 0
-7700 5652 6676 4628 -4627 0
-7192 3096 7188 3092 -3091 0
-7196 3100 7188 3092 -3091 0
-7220 3124 7188 3092 -3091 0
-7444 3348 7188 3092 -3091 0
-7700 3604 7188 3092 -3091 0
-7188 3091 0
-5139 5143 0
-5152 5144 5148 5140 -5139 0
-7192 5144 7188 5140 -5139 0
-5139 5147 0
-5148 5139 0
-7196 5148 7188 5140 -5139 0
-5139 5171 0
-5684 5172 5652 5140 -5139 0
-7220 5172 7188 5140 -5139 0
-5652 5139 0
-7700 5652 7188 5140 -5139 0
-7188 5139 0
-6163 6167 0
-6168 6163 0
-6176 6168 6172 6164 -6163 0
-6200 6168 6196 6164 -6163 0
-6680 6168 6676 6164 -6163 0
-7192 6168 7188 6164 -6163 0
-6163 6171 0
-6172 6163 0
-6204 6172 6196 6164 -6163 0
-6684 6172 6676 6164 -6163 0
-7196 6172 7188 6164 -6163 0
-6163 6195 0
-6196 6163 0
-6708 6196 6676 6164 -6163 0
-7220 6196 7188 6164 -6163 0
-6676 6163 0
-7700 6676 7188 6164 -6163 0
-7188 6163 0
-6436 2339 0
-5672 1576 5668 1572 -1571 0
-7716 3620 5668 1572 -1571 0
-5668 1571 0
-6708 2612 6692 2596 -2595 0
-7716 3620 6692 2596 -2595 0
-6692 2595 0
-4643 4651 0
-5668 4643 0
-7716 5668 6692 4644 -4643 0
-7208 3112 7204 3108 -3107 0
-7212 3116 7204 3108 -3107 0
-7220 3124 7204 3108 -3107 0
-7460 3364 7204 3108 -3107 0
-7716 3620 7204 3108 -3107 0
-7204 3107 0
-5155 5159 0
-5160 5155 0
-7208 5160 7204 5156 -5155 0
-5155 5163 0
-5164 5155 0
-5180 5164 5172 5156 -5155 0
-7212 5164 7204 5156 -5155 0
-5155 5171 0
-5172 5155 0
-5684 5172 5668 5156 -5155 0
-7220 5172 7204 5156 -5155 0
-5668 5155 0
-7716 5668 7204 5156 -5155 0
-7204 5155 0
-6179 6183 0
-6184 6179 0
-6191 6183 6187 6179 -6178 0
-6192 6184 6188 6180 -6179 0
-6200 6184 6196 6180 -6179 0
-6696 6184 6692 6180 -6179 0
-7208 6184 7204 6180 -6179 0
-6179 6187 0
-6188 6179 0
-6204 6188 6196 6180 -6179 0
-6700 6188 6692 6180 -6179 0
-7212 6188 7204 6180 -6179 0
-6179 6195 0
-6196 6179 0
-6324 6196 6308 6180 -6179 0
-6708 6196 6692 6180 -6179 0
-7220 6196 7204 6180 -6179 0
-6692 6179 0
-7716 6692 7204 6180 -6179 0
-7204 6179 0
-7436 3340 7428 3332 -3331 0
-7460 3364 7428 3332 -3331 0
-5635 5639 0
-5635 5643 0
-5635 5651 0
-5635 5667 0
-7684 5635 0
-6659 6663 0
-6672 6664 6668 6660 -6659 0
-6680 6664 6676 6660 -6659 0
-6696 6664 6692 6660 -6659 0
-6659 6667 0
-6684 6668 6676 6660 -6659 0
-6700 6668 6692 6660 -6659 0
-6659 6675 0
-6659 6691 0
-7684 6659 0
-7171 7175 0
-7184 7176 7180 7172 -7171 0
-7192 7176 7188 7172 -7171 0
-7208 7176 7204 7172 -7171 0
-7432 7176 7428 7172 -7171 0
-7171 7179 0
-7196 7180 7188 7172 -7171 0
-7212 7180 7204 7172 -7171 0
-7171 7187 0
-7220 7188 7204 7172 -7171 0
-7171 7203 0
-7460 7204 7428 7172 -7171 0
-7684 7171 0
-64 4160 0
-288 4384 0
-544 4640 0
-5664 1568 5152 1056 -1055 0
-7200 3104 5152 1056 -1055 0
-1056 5152 0
-6688 2592 6176 2080 -2079 0
-7200 3104 6176 2080 -2079 0
-2080 6176 0
-4128 5152 0
-4128 6176 0
-560 4656 0
-7216 3120 5168 1072 -1071 0
-1072 5168 0
-6704 2608 6192 2096 -2095 0
-7216 3120 6192 2096 -2095 0
-2095 6191 0
-2096 6192 0
-4144 4400 0
-4144 5168 0
-7216 5168 6192 4144 -4143 0
-4144 6192 0
-6432 2336 6416 2320 -2319 0
-7440 3344 6416 2320 -2319 0
-2320 6416 0
-4368 4400 0
-7696 3600 5648 1552 -1551 0
-6704 2608 6672 2576 -2575 0
-7696 3600 6672 2576 -2575 0
-2576 6672 0
-4624 4640 0
-7216 3120 7184 3088 -3087 0
-7696 3600 7184 3088 -3087 0
-7184 3087 0
-3088 7184 0
-5136 5152 0
-5168 5135 0
-5136 5168 0
-7216 5168 7184 5136 -5135 0
-7696 5648 7184 5136 -5135 0
-7184 5135 0
-5136 7184 0
-6160 6176 0
-6208 6176 6192 6160 -6159 0
-6432 6176 6416 6160 -6159 0
-7200 6176 7184 6160 -6159 0
-6192 6159 0
-6160 6192 0
-7216 6192 7184 6160 -6159 0
-7184 6159 0
-6160 7184 0
-5432 1336 4408 312 -311 0
-5688 1592 4664 568 -567 0
-568 4664 0
-5432 1336 5176 1080 -1079 0
-5688 1592 5176 1080 -1079 0
-7224 3128 5176 1080 -1079 0
-1079 5175 0
-1080 5176 0
-6712 2616 6200 2104 -2103 0
-7224 3128 6200 2104 -2103 0
-2103 6199 0
-2104 6200 0
-4152 4664 0
-4152 5176 0
-7224 5176 6200 4152 -4151 0
-4152 6200 0
-6456 2360 6424 2328 -2327 0
-4376 4408 0
-7704 3608 5656 1560 -1559 0
-6688 2592 6680 2584 -2583 0
-7704 3608 6680 2584 -2583 0
-2584 6680 0
-5656 4631 0
-7200 3104 7192 3096 -3095 0
-7224 3128 7192 3096 -3095 0
-7704 3608 7192 3096 -3095 0
-3096 7192 0
-5152 5143 0
-5144 5152 0
-5144 5176 0
-7224 5176 7192 5144 -5143 0
-7192 5143 0
-5144 7192 0
-6176 6167 0
-6168 6176 0
-6208 6176 6200 6168 -6167 0
-6200 6167 0
-6168 6200 0
-7224 6200 7192 6168 -6167 0
-6680 6167 0
-7192 6167 0
-6168 7192 0
-2344 6440 0
-7720 3624 5672 1576 -1575 0
-2600 6696 0
-4648 4656 0
-4648 6696 0
-7216 3120 7208 3112 -3111 0
-7224 3128 7208 3112 -3111 0
-7720 3624 7208 3112 -3111 0
-7208 3111 0
-3112 7208 0
-5168 5159 0
-5160 5168 0
-5160 5176 0
-5160 5672 0
-7208 5159 0
-5160 7208 0
-6192 6183 0
-6184 6192 0
-6208 6192 6200 6184 -6183 0
-6704 6192 6696 6184 -6183 0
-7216 6192 7208 6184 -6183 0
-6200 6183 0
-6184 6200 0
-6712 6200 6696 6184 -6183 0
-7224 6200 7208 6184 -6183 0
-7208 6183 0
-6184 7208 0
-3336 7432 0
-5640 5648 0
-5639 5655 0
-5640 5656 0
-5640 5672 0
-6663 6671 0
-6664 6672 0
-6663 6679 0
-6664 6680 0
-6712 6680 6696 6664 -6663 0
-6663 6695 0
-6664 6696 0
-7175 7183 0
-7176 7184 0
-7200 7184 7192 7176 -7175 0
-7216 7184 7208 7176 -7175 0
-7175 7191 0
-7176 7192 0
-7224 7192 7208 7176 -7175 0
-7175 7207 0
-7176 7208 0
-7176 7432 0
-5692 1596 5180 1084 -1083 0
-7228 3132 5180 1084 -1083 0
-1083 5179 0
-1084 5180 0
-6716 2620 6204 2108 -2107 0
-7228 3132 6204 2108 -2107 0
-2107 6203 0
-2108 6204 0
-4156 4668 0
-4156 5180 0
-7228 5180 6204 4156 -4155 0
-4156 6204 0
-2204 6300 0
-6460 2364 6428 2332 -2331 0
-4380 4384 0
-4380 6428 0
-7708 3612 5660 1564 -1563 0
-7708 3612 6684 2588 -2587 0
-6684 2587 0
-2588 6684 0
-7200 3104 7196 3100 -3099 0
-7228 3132 7196 3100 -3099 0
-7708 3612 7196 3100 -3099 0
-7196 3099 0
-3100 7196 0
-5152 5147 0
-5148 5152 0
-7200 5152 7196 5148 -5147 0
-5148 5180 0
-5148 7196 0
-6176 6171 0
-6172 6176 0
-6208 6176 6204 6172 -6171 0
-6688 6176 6684 6172 -6171 0
-6204 6171 0
-6172 6204 0
-7228 6204 7196 6172 -6171 0
-6684 6171 0
-6172 6684 0
-7708 6684 7196 6172 -6171 0
-7196 6171 0
-6172 7196 0
-7724 3628 5676 1580 -1579 0
-5676 1579 0
-1580 5676 0
-2604 6700 0
-7724 5676 6700 4652 -4651 0
-4652 6700 0
-7216 3120 7212 3116 -3115 0
-7228 3132 7212 3116 -3115 0
-7724 3628 7212 3116 -3115 0
-7212 3115 0
-3116 7212 0
-5168 5163 0
-5164 5168 0
-5164 5180 0
-7228 5180 7212 5164 -5163 0
-5164 7212 0
-6188 6192 0
-6208 6192 6204 6188 -6187 0
-7216 6192 7212 6188 -6187 0
-6204 6187 0
-6188 6204 0
-6716 6204 6700 6188 -6187 0
-7228 6204 7212 6188 -6187 0
-6700 6187 0
-6188 6700 0
-7212 6187 0
-6188 7212 0
-6284 6316 0
-2828 6924 0
-7452 3356 7436 3340 -3339 0
-5644 5648 0
-5644 5660 0
-5643 5675 0
-5644 5676 0
-6668 6672 0
-6688 6672 6684 6668 -6667 0
-6668 6684 0
-6716 6684 6700 6668 -6667 0
-6667 6699 0
-6668 6700 0
-7180 7184 0
-7200 7184 7196 7180 -7179 0
-7216 7184 7212 7180 -7179 0
-7179 7195 0
-7180 7196 0
-7228 7196 7212 7180 -7179 0
-7180 7212 0
-7180 7436 0
-2228 6324 0
-4276 4280 0
-4536 4280 4532 4276 -4275 0
-5684 1587 0
-7732 3636 6708 2612 -2611 0
-2612 6708 0
-4660 6708 0
-7224 3128 7220 3124 -3123 0
-7228 3132 7220 3124 -3123 0
-7732 3636 7220 3124 -3123 0
-3124 7220 0
-5176 5171 0
-5172 5176 0
-5172 5180 0
-7732 5684 7220 5172 -5171 0
-5172 7220 0
-6200 6195 0
-6196 6200 0
-6208 6200 6204 6196 -6195 0
-7224 6200 7220 6196 -6195 0
-6204 6195 0
-6196 6204 0
-6716 6204 6708 6196 -6195 0
-7228 6204 7220 6196 -6195 0
-6708 6195 0
-7732 6708 7220 6196 -6195 0
-7220 6195 0
-6196 7220 0
-7452 3356 7444 3348 -3347 0
-5396 5400 0
-5652 5656 0
-5652 5660 0
-5651 5683 0
-5652 5684 0
-6676 6680 0
-6688 6680 6684 6676 -6675 0
-6712 6680 6708 6676 -6675 0
-6676 6684 0
-6676 6708 0
-7188 7192 0
-7200 7192 7196 7188 -7187 0
-7188 7196 0
-7228 7196 7220 7188 -7187 0
-7187 7219 0
-7188 7220 0
-6308 6312 0
-7464 3368 7460 3364 -3363 0
-3364 7460 0
-5668 5672 0
-5668 5676 0
-5668 5684 0
-6692 6696 0
-6704 6696 6700 6692 -6691 0
-6692 6700 0
-6716 6700 6708 6692 -6691 0
-6692 6708 0
-7204 7208 0
-7216 7208 7212 7204 -7203 0
-7224 7208 7220 7204 -7203 0
-7204 7212 0
-7228 7212 7220 7204 -7203 0
-7204 7220 0
-7204 7460 0
-7428 7432 0
-7428 7436 0
-7428 7444 0
-7428 7460 0
-7684 7688 0
-7684 7692 0
-7684 7700 0
-7684 7716 0
-576 4672 0
-2112 6208 0
-7712 3616 5664 1568 -1567 0
-1568 5664 0
-7712 3616 6688 2592 -2591 0
-2592 6688 0
-3104 7200 0
-5152 7200 0
-7728 3632 6704 2608 -2607 0
-2608 6704 0
-3120 7216 0
-5168 7216 0
-6192 6704 0
-7728 6704 7216 6192 -6191 0
-6192 7216 0
-5648 5664 0
-6672 6688 0
-7184 7200 0
-7184 7216 0
-7184 7440 0
-440 4536 0
-4408 6456 0
-7736 3640 5688 1592 -1591 0
-1592 5688 0
-2616 6712 0
-7736 3640 7224 3128 -3127 0
-3128 7224 0
-5176 7224 0
-7736 6712 7224 6200 -6199 0
-6200 7224 0
-5400 5432 0
-6680 6688 0
-6720 6688 6712 6680 -6679 0
-7192 7200 0
-7192 7224 0
-7208 7216 0
-7208 7224 0
-7208 7464 0
-7432 7448 0
-7688 7696 0
-7688 7704 0
-7688 7720 0
-7740 3644 6716 2620 -2619 0
-2620 6716 0
-4668 6716 0
-7740 3644 7228 3132 -3131 0
-3132 7228 0
-5180 7228 0
-6204 6460 0
-6204 6716 0
-7740 6716 7228 6204 -6203 0
-6204 7228 0
-7484 3388 7452 3356 -3355 0
-6428 6432 0
-5660 5692 0
-7196 7200 0
-7196 7228 0
-7196 7452 0
-3372 7468 0
-6720 6704 6716 6700 -6699 0
-7212 7228 0
-7212 7468 0
-7692 7708 0
-7692 7724 0
-7220 7224 0
-7700 7732 0
-4672 6720 0
-7704 7712 0
-7720 7728 0
-7720 7736 0
-7468 7484 0
-7724 7740 0
-8194 0
-8199 0
-8203 0
-8211 0
-8227 0
-10243 0
-12291 0
-8208 0
-8216 0
-8232 0
-8712 0
-9224 0
-10248 0
-12296 0
-8220 0
-8236 0
-8716 0
-9228 0
-10252 0
-12300 0
-8244 0
-8724 0
-9236 0
-10260 0
-12308 0
-8740 0
-10276 0
-12324 0
-12804 0
-11268 0
-13316 0
-14340 0
-9222 1030 8198 6 -5 0
-10246 2054 8198 6 -5 0
-12294 4102 8198 6 -5 0
-9226 1034 8202 10 -9 0
-10250 2058 8202 10 -9 0
-9234 1042 8210 18 -17 0
-12306 4114 8210 18 -17 0
-9250 1058 8226 34 -33 0
-10274 2082 8226 34 -33 0
-12322 4130 8226 34 -33 0
-8206 8198 8202 8194 -8193 0
-8242 8210 8226 8194 -8193 0
-9218 8193 0
-9231 1039 8207 15 -14 0
-10255 2063 8207 15 -14 0
-12303 4111 8207 15 -14 0
-14 8206 0
-9239 1047 8215 23 -22 0
-10263 2071 8215 23 -22 0
-12311 4119 8215 23 -22 0
-22 8214 0
-9255 1063 8231 39 -38 0
-10279 2087 8231 39 -38 0
-12327 4135 8231 39 -38 0
-38 8230 0
-11271 3079 9223 1031 -1030 0
-10279 2087 10247 2055 -2054 0
-11271 3079 10247 2055 -2054 0
-14343 6151 10247 2055 -2054 0
-10247 2054 0
-12311 4119 12295 4103 -4102 0
-12327 4135 12295 4103 -4102 0
-13319 5127 12295 4103 -4102 0
-14343 6151 12295 4103 -4102 0
-12295 4102 0
-8207 8198 0
-8223 8207 8215 8199 -8198 0
-12303 8207 12295 8199 -8198 0
-8215 8198 0
-12311 8215 12295 8199 -8198 0
-8231 8198 0
-12327 8231 12295 8199 -8198 0
-9223 8198 0
-10247 8198 0
-9243 1051 8219 27 -26 0
-10267 2075 8219 27 -26 0
-12315 4123 8219 27 -26 0
-26 8218 0
-10283 2091 8235 43 -42 0
-11275 3083 9227 1035 -1034 0
-9227 1034 0
-10267 2075 10251 2059 -2058 0
-10283 2091 10251 2059 -2058 0
-11275 3083 10251 2059 -2058 0
-14347 6155 10251 2059 -2058 0
-10251 2058 0
-12303 4111 12299 4107 -4106 0
-12315 4123 12299 4107 -4106 0
-13323 5131 12299 4107 -4106 0
-14347 6155 12299 4107 -4106 0
-12299 4106 0
-8207 8202 0
-8223 8207 8219 8203 -8202 0
-8239 8207 8235 8203 -8202 0
-12303 8207 12299 8203 -8202 0
-8219 8202 0
-8251 8219 8235 8203 -8202 0
-8731 8219 8715 8203 -8202 0
-8235 8202 0
-10283 8235 10251 8203 -8202 0
-12331 8235 12299 8203 -8202 0
-9227 8202 0
-11275 9227 10251 8203 -8202 0
-10251 8202 0
-12299 8202 0
-9267 1075 8243 51 -50 0
-10291 2099 8243 51 -50 0
-50 8242 0
-11283 3091 9235 1043 -1042 0
-9235 1042 0
-10263 2071 10259 2067 -2066 0
-11283 3091 10259 2067 -2066 0
-14355 6163 10259 2067 -2066 0
-10259 2066 0
-12311 4119 12307 4115 -4114 0
-12315 4123 12307 4115 -4114 0
-12339 4147 12307 4115 -4114 0
-13331 5139 12307 4115 -4114 0
-14355 6163 12307 4115 -4114 0
-12307 4114 0
-8215 8210 0
-12311 8215 12307 8211 -8210 0
-8219 8210 0
-12315 8219 12307 8211 -8210 0
-8243 8210 0
-9235 8210 0
-11283 9235 10259 8211 -8210 0
-13331 9235 12307 8211 -8210 0
-10259 8210 0
-14355 10259 12307 8211 -8210 0
-12307 8210 0
-8747 555 8739 547 -546 0
-11299 3107 9251 1059 -1058 0
-11299 3107 10275 2083 -2082 0
-14371 6179 10275 2083 -2082 0
-10275 2082 0
-12331 4139 12323 4131 -4130 0
-12339 4147 12323 4131 -4130 0
-13347 5155 12323 4131 -4130 0
-14371 6179 12323 4131 -4130 0
-12323 4130 0
-8231 8226 0
-8239 8231 8235 8227 -8226 0
-8247 8231 8243 8227 -8226 0
-8235 8226 0
-8243 8226 0
-9251 8226 0
-10275 8226 0
-14371 10275 12323 8227 -8226 0
-12323 8226 0
-12835 4643 12803 4611 -4610 0
-9218 9222 0
-9218 9226 0
-9218 9234 0
-9218 9250 0
-11267 9218 0
-10242 10246 0
-10255 10247 10251 10243 -10242 0
-10263 10247 10259 10243 -10242 0
-10242 10250 0
-10242 10274 0
-11267 10242 0
-12290 12294 0
-12303 12295 12299 12291 -12290 0
-12311 12295 12307 12291 -12290 0
-12327 12295 12323 12291 -12290 0
-12290 12298 0
-12315 12299 12307 12291 -12290 0
-12331 12299 12323 12291 -12290 0
-12290 12306 0
-12339 12307 12323 12291 -12290 0
-12290 12322 0
-13315 12290 0
-9248 1056 8224 32 -31 0
-10272 2080 8224 32 -31 0
-12320 4128 8224 32 -31 0
-31 8223 0
-9264 1072 8240 48 -47 0
-10288 2096 8240 48 -47 0
-12336 4144 8240 48 -47 0
-47 8239 0
-8720 527 0
-11280 3088 9232 1040 -1039 0
-10512 2320 10256 2064 -2063 0
-11280 3088 10256 2064 -2063 0
-14352 6160 10256 2064 -2063 0
-2063 10255 0
-10256 2063 0
-12320 4128 12304 4112 -4111 0
-12336 4144 12304 4112 -4111 0
-13328 5136 12304 4112 -4111 0
-14352 6160 12304 4112 -4111 0
-4111 12303 0
-12304 4111 0
-8224 8207 0
-8256 8224 8240 8208 -8207 0
-10272 8224 10256 8208 -8207 0
-12320 8224 12304 8208 -8207 0
-8240 8207 0
-10288 8240 10256 8208 -8207 0
-12336 8240 12304 8208 -8207 0
-9232 8207 0
-13327 9231 12303 8207 -8206 0
-13328 9232 12304 8208 -8207 0
-10256 8207 0
-14351 10255 12303 8207 -8206 0
-14352 10256 12304 8208 -8207 0
-8207 12303 0
-12304 8207 0
-8760 568 8248 56 -55 0
-9272 1080 8248 56 -55 0
-10296 2104 8248 56 -55 0
-12344 4152 8248 56 -55 0
-55 8247 0
-8728 535 0
-9240 1047 0
-10272 2080 10264 2072 -2071 0
-10296 2104 10264 2072 -2071 0
-11288 3096 10264 2072 -2071 0
-14360 6168 10264 2072 -2071 0
-2071 10263 0
-10264 2071 0
-12320 4128 12312 4120 -4119 0
-12344 4152 12312 4120 -4119 0
-13336 5144 12312 4120 -4119 0
-14359 6167 12311 4119 -4118 0
-14360 6168 12312 4120 -4119 0
-4119 12311 0
-12312 4119 0
-8224 8215 0
-8256 8224 8248 8216 -8215 0
-8736 8224 8728 8216 -8215 0
-10272 8224 10264 8216 -8215 0
-12320 8224 12312 8216 -8215 0
-8248 8215 0
-10296 8248 10264 8216 -8215 0
-12344 8248 12312 8216 -8215 0
-12568 8472 12312 8216 -8215 0
-9240 8215 0
-13335 9239 12311 8215 -8214 0
-13336 9240 12312 8216 -8215 0
-8215 10263 0
-10264 8215 0
-14359 10263 12311 8215 -8214 0
-14360 10264 12312 8216 -8215 0
-8215 12311 0
-12312 8215 0
-8744 551 0
-13352 5160 9256 1064 -1063 0
-10288 2096 10280 2088 -2087 0
-10296 2104 10280 2088 -2087 0
-11304 3112 10280 2088 -2087 0
-14376 6184 10280 2088 -2087 0
-2087 10279 0
-10280 2087 0
-12336 4144 12328 4136 -4135 0
-12344 4152 12328 4136 -4135 0
-13352 5160 12328 4136 -4135 0
-14376 6184 12328 4136 -4135 0
-4135 12327 0
-12328 4135 0
-8240 8231 0
-8256 8240 8248 8232 -8231 0
-10288 8240 10280 8232 -8231 0
-12336 8240 12328 8232 -8231 0
-8248 8231 0
-10296 8248 10280 8232 -8231 0
-12344 8248 12328 8232 -8231 0
-9256 8231 0
-8231 10279 0
-10280 8231 0
-14375 10279 12327 8231 -8230 0
-14376 10280 12328 8232 -8231 0
-8231 12327 0
-12328 8231 0
-14856 6664 12808 4616 -4615 0
-10768 8720 10760 8712 -8711 0
-8744 8711 0
-15368 7176 11272 3080 -3079 0
-11272 3079 0
-15368 7176 13320 5128 -5127 0
-13320 5127 0
-9223 9231 0
-9223 9239 0
-11288 9240 11272 9224 -9223 0
-11272 9223 0
-15368 11272 13320 9224 -9223 0
-13320 9223 0
-14352 6160 14344 6152 -6151 0
-14360 6168 14344 6152 -6151 0
-14376 6184 14344 6152 -6151 0
-14856 6664 14344 6152 -6151 0
-15368 7176 14344 6152 -6151 0
-14344 6151 0
-10247 10255 0
-10272 10256 10264 10248 -10247 0
-10247 10263 0
-10264 10247 0
-11288 10264 11272 10248 -10247 0
-10247 10279 0
-10280 10247 0
-14376 10280 14344 10248 -10247 0
-11272 10247 0
-15368 11272 14344 10248 -10247 0
-14344 10247 0
-12295 12303 0
-12304 12295 0
-12320 12304 12312 12296 -12295 0
-12336 12304 12328 12296 -12295 0
-14352 12304 14344 12296 -12295 0
-12295 12311 0
-12312 12295 0
-12344 12312 12328 12296 -12295 0
-14360 12312 14344 12296 -12295 0
-12295 12327 0
-12328 12295 0
-12584 12328 12552 12296 -12295 0
-13352 12328 13320 12296 -12295 0
-14376 12328 14344 12296 -12295 0
-13320 12295 0
-15368 13320 14344 12296 -12295 0
-14344 12295 0
-8764 572 8252 60 -59 0
-9276 1084 8252 60 -59 0
-10300 2108 8252 60 -59 0
-12348 4156 8252 60 -59 0
-59 8251 0
-8732 539 0
-11292 3100 9244 1052 -1051 0
-10272 2080 10268 2076 -2075 0
-10300 2108 10268 2076 -2075 0
-11292 3100 10268 2076 -2075 0
-14364 6172 10268 2076 -2075 0
-2075 10267 0
-10268 2075 0
-12320 4128 12316 4124 -4123 0
-12348 4156 12316 4124 -4123 0
-12572 4380 12316 4124 -4123 0
-13340 5148 12316 4124 -4123 0
-14364 6172 12316 4124 -4123 0
-4123 12315 0
-12316 4123 0
-8224 8219 0
-8256 8224 8252 8220 -8219 0
-8736 8224 8732 8220 -8219 0
-10272 8224 10268 8220 -8219 0
-12320 8224 12316 8220 -8219 0
-8252 8219 0
-8764 8252 8732 8220 -8219 0
-10300 8252 10268 8220 -8219 0
-12348 8252 12316 8220 -8219 0
-8219 8731 0
-10780 8732 10268 8220 -8219 0
-9244 8219 0
-13339 9243 12315 8219 -8218 0
-8219 10267 0
-10268 8219 0
-14363 10267 12315 8219 -8218 0
-14364 10268 12316 8220 -8219 0
-8219 12315 0
-12316 8219 0
-9772 1580 8748 556 -555 0
-555 8747 0
-8748 555 0
-9260 1067 0
-10288 2096 10284 2092 -2091 0
-10300 2108 10284 2092 -2091 0
-11308 3116 10284 2092 -2091 0
-14380 6188 10284 2092 -2091 0
-2091 10283 0
-10284 2091 0
-12336 4144 12332 4140 -4139 0
-12348 4156 12332 4140 -4139 0
-13356 5164 12332 4140 -4139 0
-14380 6188 12332 4140 -4139 0
-4139 12331 0
-12332 4139 0
-8240 8235 0
-8256 8240 8252 8236 -8235 0
-10288 8240 10284 8236 -8235 0
-12336 8240 12332 8236 -8235 0
-8252 8235 0
-10300 8252 10284 8236 -8235 0
-12348 8252 12332 8236 -8235 0
-8235 8747 0
-10796 8748 10284 8236 -8235 0
-11308 9260 10284 8236 -8235 0
-8235 10283 0
-10284 8235 0
-14380 10284 12332 8236 -8235 0
-8235 12331 0
-12332 8235 0
-9996 1804 9740 1548 -1547 0
-9740 1547 0
-12812 4619 0
-11788 9740 10764 8716 -8715 0
-11788 3596 11276 3084 -3083 0
-15372 7180 11276 3084 -3083 0
-11276 3083 0
-13328 5136 13324 5132 -5131 0
-15372 7180 13324 5132 -5131 0
-13324 5131 0
-9227 9231 0
-13340 9244 13324 9228 -9227 0
-9227 9259 0
-9740 9227 0
-11276 9227 0
-15372 11276 13324 9228 -9227 0
-14352 6160 14348 6156 -6155 0
-14364 6172 14348 6156 -6155 0
-14380 6188 14348 6156 -6155 0
-14604 6412 14348 6156 -6155 0
-14860 6668 14348 6156 -6155 0
-15372 7180 14348 6156 -6155 0
-14348 6155 0
-10251 10255 0
-10256 10251 0
-10272 10256 10268 10252 -10251 0
-10287 10255 10283 10251 -10250 0
-10288 10256 10284 10252 -10251 0
-10251 10267 0
-10268 10251 0
-10299 10267 10283 10251 -10250 0
-14364 10268 14348 10252 -10251 0
-10251 10283 0
-10284 10251 0
-14380 10284 14348 10252 -10251 0
-10251 10763 0
-11276 10251 0
-15372 11276 14348 10252 -10251 0
-14348 10251 0
-12299 12303 0
-12304 12299 0
-12319 12303 12315 12299 -12298 0
-12320 12304 12316 12300 -12299 0
-12336 12304 12332 12300 -12299 0
-13328 12304 13324 12300 -12299 0
-14352 12304 14348 12300 -12299 0
-12299 12315 0
-12316 12299 0
-12347 12315 12331 12299 -12298 0
-12348 12316 12332 12300 -12299 0
-12828 12316 12812 12300 -12299 0
-13340 12316 13324 12300 -12299 0
-14364 12316 14348 12300 -12299 0
-12299 12331 0
-12332 12299 0
-14380 12332 14348 12300 -12299 0
-13324 12299 0
-15372 13324 14348 12300 -12299 0
-14348 12299 0
-9780 1588 8756 564 -563 0
-12852 4660 8756 564 -563 0
-11316 3124 9268 1076 -1075 0
-9268 1075 0
-10296 2104 10292 2100 -2099 0
-11316 3124 10292 2100 -2099 0
-14388 6196 10292 2100 -2099 0
-2099 10291 0
-10292 2099 0
-12344 4152 12340 4148 -4147 0
-12348 4156 12340 4148 -4147 0
-13364 5172 12340 4148 -4147 0
-14387 6195 12339 4147 -4146 0
-14388 6196 12340 4148 -4147 0
-4147 12339 0
-12340 4147 0
-8248 8243 0
-8256 8248 8252 8244 -8243 0
-10296 8248 10292 8244 -8243 0
-12344 8248 12340 8244 -8243 0
-8252 8243 0
-8764 8252 8756 8244 -8243 0
-10300 8252 10292 8244 -8243 0
-12348 8252 12340 8244 -8243 0
-8243 8755 0
-8756 8243 0
-9268 8243 0
-11316 9268 10292 8244 -8243 0
-13363 9267 12339 8243 -8242 0
-8243 10291 0
-10292 8243 0
-14388 10292 12340 8244 -8243 0
-8243 12339 0
-12340 8243 0
-8984 792 8980 788 -787 0
-9780 1588 9748 1556 -1555 0
-9748 1555 0
-14868 6676 12820 4628 -4627 0
-12820 4627 0
-8736 8728 8732 8724 -8723 0
-8732 8723 0
-8980 8723 0
-11796 9748 10772 8724 -8723 0
-11796 3604 11284 3092 -3091 0
-15380 7188 11284 3092 -3091 0
-11284 3091 0
-15380 7188 13332 5140 -5139 0
-13332 5139 0
-9235 9267 0
-11796 9748 11284 9236 -9235 0
-11284 9235 0
-15380 11284 13332 9236 -9235 0
-13332 9235 0
-14360 6168 14356 6164 -6163 0
-14364 6172 14356 6164 -6163 0
-14388 6196 14356 6164 -6163 0
-14612 6420 14356 6164 -6163 0
-14868 6676 14356 6164 -6163 0
-15380 7188 14356 6164 -6163 0
-14356 6163 0
-10259 10263 0
-10264 10259 0
-10296 10264 10292 10260 -10259 0
-14360 10264 14356 10260 -10259 0
-10259 10267 0
-10268 10259 0
-10300 10268 10292 10260 -10259 0
-14364 10268 14356 10260 -10259 0
-10259 10291 0
-10292 10259 0
-11316 10292 11284 10260 -10259 0
-14388 10292 14356 10260 -10259 0
-10772 10259 0
-11284 10259 0
-15380 11284 14356 10260 -10259 0
-14356 10259 0
-12307 12311 0
-12312 12307 0
-12320 12312 12316 12308 -12307 0
-12344 12312 12340 12308 -12307 0
-14360 12312 14356 12308 -12307 0
-12307 12315 0
-12316 12307 0
-12348 12316 12340 12308 -12307 0
-14364 12316 14356 12308 -12307 0
-12307 12339 0
-12340 12307 0
-13364 12340 13332 12308 -12307 0
-14388 12340 14356 12308 -12307 0
-13332 12307 0
-15380 13332 14356 12308 -12307 0
-14356 12307 0
-10788 2595 0
-12836 4643 0
-8752 8744 8748 8740 -8739 0
-15396 7204 11300 3108 -3107 0
-11300 3107 0
-15396 7204 13348 5156 -5155 0
-13348 5155 0
-9251 9255 0
-9251 9267 0
-11300 9251 0
-13348 9251 0
-14376 6184 14372 6180 -6179 0
-14380 6188 14372 6180 -6179 0
-14388 6196 14372 6180 -6179 0
-14628 6436 14372 6180 -6179 0
-14884 6692 14372 6180 -6179 0
-15396 7204 14372 6180 -6179 0
-14372 6179 0
-10275 10279 0
-10280 10275 0
-10275 10283 0
-10284 10275 0
-10300 10284 10292 10276 -10275 0
-10796 10284 10788 10276 -10275 0
-11308 10284 11300 10276 -10275 0
-14380 10284 14372 10276 -10275 0
-10275 10291 0
-10292 10275 0
-14388 10292 14372 10276 -10275 0
-10275 10787 0
-11300 10275 0
-15396 11300 14372 10276 -10275 0
-14372 10275 0
-12323 12327 0
-12328 12323 0
-12336 12328 12332 12324 -12323 0
-12344 12328 12340 12324 -12323 0
-13352 12328 13348 12324 -12323 0
-14376 12328 14372 12324 -12323 0
-12323 12331 0
-12332 12323 0
-12348 12332 12340 12324 -12323 0
-14380 12332 14372 12324 -12323 0
-12323 12339 0
-12340 12323 0
-13364 12340 13348 12324 -12323 0
-14388 12340 14372 12324 -12323 0
-12323 12835 0
-13348 12323 0
-15396 13348 14372 12324 -12323 0
-14372 12323 0
-10004 1812 9988 1796 -1795 0
-11784 3592 11780 3588 -3587 0
-11788 3596 11780 3588 -3587 0
-11812 3620 11780 3588 -3587 0
-14860 6668 14852 6660 -6659 0
-14868 6676 14852 6660 -6659 0
-6659 14851 0
-12852 12820 12836 12804 -12803 0
-14884 12836 14852 12804 -12803 0
-11267 11271 0
-11280 11272 11276 11268 -11267 0
-11267 11275 0
-11267 11283 0
-11267 11299 0
-15364 11267 0
-13315 13319 0
-13315 13323 0
-13315 13331 0
-13315 13347 0
-15364 13315 0
-14339 14343 0
-14352 14344 14348 14340 -14339 0
-14360 14344 14356 14340 -14339 0
-14376 14344 14372 14340 -14339 0
-14600 14344 14596 14340 -14339 0
-14856 14344 14852 14340 -14339 0
-14339 14347 0
-14364 14348 14356 14340 -14339 0
-14380 14348 14372 14340 -14339 0
-14604 14348 14596 14340 -14339 0
-14860 14348 14852 14340 -14339 0
-14339 14355 0
-14388 14356 14372 14340 -14339 0
-14612 14356 14596 14340 -14339 0
-14868 14356 14852 14340 -14339 0
-14339 14371 0
-14628 14372 14596 14340 -14339 0
-15364 14339 0
-64 8256 0
-544 8736 0
-14368 6176 10272 2080 -2079 0
-2080 10272 0
-13344 5152 12320 4128 -4127 0
-14368 6176 12320 4128 -4127 0
-4127 12319 0
-4128 12320 0
-8224 8736 0
-12832 8736 12320 8224 -8223 0
-8224 9248 0
-13344 9248 12320 8224 -8223 0
-8224 10272 0
-14368 10272 12320 8224 -8223 0
-8224 12320 0
-14384 6192 10288 2096 -2095 0
-2095 10287 0
-2096 10288 0
-14384 6192 12336 4144 -4143 0
-4143 12335 0
-4144 12336 0
-8240 8752 0
-8240 9264 0
-13360 9264 12336 8240 -8239 0
-8240 10288 0
-8240 12336 0
-10528 2336 10512 2320 -2319 0
-14608 6416 10512 2320 -2319 0
-5136 13328 0
-9232 9264 0
-13328 9231 0
-14368 6176 14352 6160 -6159 0
-14384 6192 14352 6160 -6159 0
-15376 7184 14352 6160 -6159 0
-14352 6159 0
-6160 14352 0
-10272 10255 0
-10256 10272 0
-10256 10288 0
-14384 10288 14352 10256 -10255 0
-10256 10768 0
-10256 11280 0
-10256 14352 0
-12320 12303 0
-12304 12320 0
-12352 12320 12336 12304 -12303 0
-12336 12303 0
-12304 12336 0
-14384 12336 14352 12304 -12303 0
-15376 13328 14352 12304 -12303 0
-12304 14352 0
-11320 3128 9272 1080 -1079 0
-14392 6200 10296 2104 -2103 0
-2103 10295 0
-2104 10296 0
-13368 5176 12344 4152 -4151 0
-14392 6200 12344 4152 -4151 0
-4152 12344 0
-8248 9272 0
-11320 9272 10296 8248 -8247 0
-8248 10296 0
-14392 10296 12344 8248 -8247 0
-8248 12344 0
-8472 8984 0
-8728 8760 0
-15384 7192 13336 5144 -5143 0
-14368 6176 14360 6168 -6167 0
-14392 6200 14360 6168 -6167 0
-15384 7192 14360 6168 -6167 0
-14360 6167 0
-6168 14360 0
-10272 10263 0
-10264 10272 0
-14368 10272 14360 10264 -10263 0
-10264 10296 0
-14392 10296 14360 10264 -10263 0
-15384 11288 14360 10264 -10263 0
-14360 10263 0
-10264 14360 0
-12320 12311 0
-12312 12320 0
-12352 12320 12344 12312 -12311 0
-14368 12320 14360 12312 -12311 0
-12344 12311 0
-12312 12344 0
-12856 12344 12824 12312 -12311 0
-14392 12344 14360 12312 -12311 0
-14360 12311 0
-12312 14360 0
-4392 12584 0
-15400 7208 13352 5160 -5159 0
-5160 13352 0
-14384 6192 14376 6184 -6183 0
-14392 6200 14376 6184 -6183 0
-15400 7208 14376 6184 -6183 0
-14376 6183 0
-6184 14376 0
-10280 10288 0
-14384 10288 14376 10280 -10279 0
-10296 10279 0
-10280 10296 0
-14376 10279 0
-10280 14376 0
-12328 12336 0
-12352 12336 12344 12328 -12327 0
-12328 12344 0
-12328 14376 0
-6408 14600 0
-12552 12568 0
-6664 14856 0
-10760 11784 0
-11272 11288 0
-13319 13327 0
-13320 13328 0
-13360 13328 13352 13320 -13319 0
-13319 13335 0
-13320 13336 0
-13320 13352 0
-14343 14351 0
-14344 14352 0
-14368 14352 14360 14344 -14343 0
-14384 14352 14376 14344 -14343 0
-14343 14359 0
-14344 14360 0
-14392 14360 14376 14344 -14343 0
-14343 14375 0
-14344 14376 0
-14344 14856 0
-572 8764 0
-14396 6204 10300 2108 -2107 0
-2107 10299 0
-2108 10300 0
-13372 5180 12348 4156 -4155 0
-14396 6204 12348 4156 -4155 0
-4155 12347 0
-4156 12348 0
-11324 9276 10300 8252 -8251 0
-8252 10300 0
-14396 10300 12348 8252 -8251 0
-8252 12348 0
-14620 6428 12572 4380 -4379 0
-4636 12828 0
-8732 8764 0
-15388 7196 13340 5148 -5147 0
-5148 13340 0
-9244 9248 0
-9244 11292 0
-15388 11292 13340 9244 -9243 0
-14368 6176 14364 6172 -6171 0
-14396 6204 14364 6172 -6171 0
-15388 7196 14364 6172 -6171 0
-14364 6171 0
-6172 14364 0
-10268 10272 0
-10304 10272 10300 10268 -10267 0
-10268 10300 0
-10268 10780 0
-15388 11292 14364 10268 -10267 0
-10268 14364 0
-12320 12315 0
-12316 12320 0
-12352 12320 12348 12316 -12315 0
-14368 12320 14364 12316 -12315 0
-12316 12348 0
-14396 12348 14364 12316 -12315 0
-13340 12315 0
-12316 14364 0
-11820 3628 10796 2604 -2603 0
-8748 8764 0
-11820 9772 10796 8748 -8747 0
-14384 6192 14380 6188 -6187 0
-14396 6204 14380 6188 -6187 0
-15404 7212 14380 6188 -6187 0
-6188 14380 0
-10288 10283 0
-10284 10288 0
-14384 10288 14380 10284 -10283 0
-10300 10283 0
-10284 10300 0
-10812 10300 10796 10284 -10283 0
-15404 11308 14380 10284 -10283 0
-14380 10283 0
-10284 14380 0
-12332 12336 0
-12352 12336 12348 12332 -12331 0
-14384 12336 14380 12332 -12331 0
-12332 12348 0
-14396 12348 14380 12332 -12331 0
-12332 12844 0
-14380 12331 0
-12332 14380 0
-15628 7436 14604 6412 -6411 0
-6412 14604 0
-14892 6700 14860 6668 -6667 0
-6668 14860 0
-10764 10780 0
-11276 11280 0
-11276 11292 0
-11276 11308 0
-11276 11788 0
-13323 13339 0
-13324 13340 0
-13324 13356 0
-14348 14352 0
-14368 14352 14364 14348 -14347 0
-14384 14352 14380 14348 -14347 0
-14608 14352 14604 14348 -14347 0
-14347 14363 0
-14348 14364 0
-14396 14364 14380 14348 -14347 0
-14348 14380 0
-15116 14604 14860 14348 -14347 0
-14900 6708 12852 4660 -4659 0
-8756 8764 0
-9788 8764 9780 8756 -8755 0
-8756 9780 0
-15412 7220 11316 3124 -3123 0
-15412 7220 13364 5172 -5171 0
-5172 13364 0
-14392 6200 14388 6196 -6195 0
-14396 6204 14388 6196 -6195 0
-14900 6708 14388 6196 -6195 0
-15412 7220 14388 6196 -6195 0
-14388 6195 0
-6196 14388 0
-10292 10296 0
-14392 10296 14388 10292 -10291 0
-10292 10300 0
-14396 10300 14388 10292 -10291 0
-10292 14388 0
-12340 12344 0
-12352 12344 12348 12340 -12339 0
-14392 12344 14388 12340 -12339 0
-12340 12348 0
-12340 12852 0
-15412 13364 14388 12340 -12339 0
-12340 14388 0
-6420 14612 0
-9748 9780 0
-9748 10004 0
-11284 11288 0
-11284 11292 0
-11284 11316 0
-13332 13336 0
-13332 13340 0
-13372 13340 13364 13332 -13331 0
-13331 13363 0
-13332 13364 0
-14356 14360 0
-14368 14360 14364 14356 -14355 0
-14392 14360 14388 14356 -14355 0
-14356 14364 0
-14396 14364 14388 14356 -14355 0
-14355 14387 0
-14356 14388 0
-14356 14868 0
-6436 14628 0
-14892 6700 14884 6692 -6691 0
-11820 10796 11812 10788 -10787 0
-10788 11812 0
-11300 11304 0
-11300 11308 0
-11300 11316 0
-13348 13352 0
-13348 13356 0
-13348 13364 0
-14372 14376 0
-14384 14376 14380 14372 -14371 0
-14392 14376 14388 14372 -14371 0
-14632 14376 14628 14372 -14371 0
-14372 14380 0
-14396 14380 14388 14372 -14371 0
-14892 14380 14884 14372 -14371 0
-14372 14388 0
-9988 9996 0
-14596 14600 0
-14596 14604 0
-14596 14612 0
-14596 14628 0
-11780 11788 0
-11780 11796 0
-14852 14856 0
-14852 14860 0
-14876 14860 14868 14852 -14851 0
-14852 14868 0
-14852 14884 0
-15364 15368 0
-15364 15372 0
-15364 15380 0
-15364 15396 0
-2112 10304 0
-4160 12352 0
-14624 6432 10528 2336 -2335 0
-6176 14368 0
-10272 14368 0
-15392 13344 14368 12320 -12319 0
-12320 14368 0
-5168 13360 0
-6192 14384 0
-10288 14384 0
-15408 13360 14384 12336 -12335 0
-12336 14384 0
-6416 14608 0
-10512 14608 0
-14352 14368 0
-14400 14368 14384 14352 -14351 0
-14352 14384 0
-4664 12856 0
-15416 7224 11320 3128 -3127 0
-15416 7224 13368 5176 -5175 0
-9272 11320 0
-6200 14392 0
-15416 11320 14392 10296 -10295 0
-10296 14392 0
-12344 14392 0
-12824 12832 0
-13336 13344 0
-14360 14368 0
-14400 14368 14392 14360 -14359 0
-14360 14392 0
-6440 14632 0
-14376 14384 0
-14400 14384 14392 14376 -14375 0
-14376 14392 0
-14600 14608 0
-15368 15376 0
-15368 15384 0
-15368 15400 0
-1596 9788 0
-14908 6716 10812 2620 -2619 0
-2620 10812 0
-15420 7228 13372 5180 -5179 0
-5180 13372 0
-15420 7228 14396 6204 -6203 0
-6204 14396 0
-10300 14396 0
-6684 14876 0
-11292 11324 0
-13340 13372 0
-14400 14368 14396 14364 -14363 0
-14364 14396 0
-14364 14620 0
-3628 11820 0
-6700 14892 0
-12844 14892 0
-14380 14384 0
-14380 14396 0
-14380 14892 0
-6924 15116 0
-15372 15388 0
-15372 15404 0
-15372 15628 0
-14400 14392 14396 14388 -14387 0
-14868 14900 0
-15380 15412 0
-11812 11820 0
-10304 14400 0
-14368 14624 0
-15384 15392 0
-15400 15408 0
-15400 15416 0
-14892 14908 0
-15404 15420 0
-16386 0
-16391 0
-16395 0
-16403 0
-16419 0
-16899 0
-20483 0
-24579 0
-16400 0
-16408 0
-16424 0
-18440 0
-20488 0
-24584 0
-16412 0
-16428 0
-18444 0
-20492 0
-24588 0
-16436 0
-18452 0
-20500 0
-24596 0
-18468 0
-20516 0
-24612 0
-18948 0
-22532 0
-26628 0
-28676 0
-18438 2054 16390 6 -5 0
-20486 4102 16390 6 -5 0
-24582 8198 16390 6 -5 0
-18442 2058 16394 10 -9 0
-24586 8202 16394 10 -9 0
-18450 2066 16402 18 -17 0
-18466 2082 16418 34 -33 0
-24610 8226 16418 34 -33 0
-16406 16390 16402 16386 -16385 0
-18434 16385 0
-18447 2063 16399 15 -14 0
-20495 4111 16399 15 -14 0
-24591 8207 16399 15 -14 0
-14 16398 0
-18455 2071 16407 23 -22 0
-20503 4119 16407 23 -22 0
-24599 8215 16407 23 -22 0
-22 16406 0
-18471 2087 16423 39 -38 0
-20519 4135 16423 39 -38 0
-24615 8231 16423 39 -38 0
-38 16422 0
-22535 6151 18439 2055 -2054 0
-20495 4111 20487 4103 -4102 0
-22535 6151 20487 4103 -4102 0
-28679 12295 20487 4103 -4102 0
-20487 4102 0
-24591 8207 24583 8199 -8198 0
-24599 8215 24583 8199 -8198 0
-24615 8231 24583 8199 -8198 0
-26631 10247 24583 8199 -8198 0
-28679 12295 24583 8199 -8198 0
-24583 8198 0
-16399 16390 0
-16415 16399 16407 16391 -16390 0
-16431 16399 16423 16391 -16390 0
-24591 16399 24583 16391 -16390 0
-16407 16390 0
-20503 16407 20487 16391 -16390 0
-24599 16407 24583 16391 -16390 0
-16423 16390 0
-24615 16423 24583 16391 -16390 0
-16903 16390 0
-18439 16390 0
-26631 18439 24583 16391 -16390 0
-20487 16390 0
-28679 20487 24583 16391 -16390 0
-24583 16390 0
-18459 2075 16411 27 -26 0
-20507 4123 16411 27 -26 0
-24603 8219 16411 27 -26 0
-26 16410 0
-18475 2091 16427 43 -42 0
-20523 4139 16427 43 -42 0
-42 16426 0
-22539 6155 18443 2059 -2058 0
-18443 2058 0
-20523 4139 20491 4107 -4106 0
-22539 6155 20491 4107 -4106 0
-28683 12299 20491 4107 -4106 0
-20491 4106 0
-24591 8207 24587 8203 -8202 0
-24603 8219 24587 8203 -8202 0
-24619 8235 24587 8203 -8202 0
-26635 10251 24587 8203 -8202 0
-28683 12299 24587 8203 -8202 0
-24587 8202 0
-16399 16394 0
-16415 16399 16411 16395 -16394 0
-16431 16399 16427 16395 -16394 0
-24591 16399 24587 16395 -16394 0
-16411 16394 0
-24603 16411 24587 16395 -16394 0
-16427 16394 0
-24619 16427 24587 16395 -16394 0
-18443 16394 0
-22539 18443 20491 16395 -16394 0
-26635 18443 24587 16395 -16394 0
-20491 16394 0
-28683 20491 24587 16395 -16394 0
-24587 16394 0
-18483 2099 16435 51 -50 0
-20531 4147 16435 51 -50 0
-50 16434 0
-22547 6163 18451 2067 -2066 0
-18451 2066 0
-20503 4119 20499 4115 -4114 0
-22547 6163 20499 4115 -4114 0
-20499 4114 0
-24599 8215 24595 8211 -8210 0
-24603 8219 24595 8211 -8210 0
-24627 8243 24595 8211 -8210 0
-26643 10259 24595 8211 -8210 0
-28691 12307 24595 8211 -8210 0
-24595 8210 0
-16407 16402 0
-16415 16407 16411 16403 -16402 0
-16439 16407 16435 16403 -16402 0
-24599 16407 24595 16403 -16402 0
-16411 16402 0
-24603 16411 24595 16403 -16402 0
-16435 16402 0
-20531 16435 20499 16403 -16402 0
-18451 16402 0
-26643 18451 24595 16403 -16402 0
-28691 20499 24595 16403 -16402 0
-24595 16402 0
-26659 10275 18467 2083 -2082 0
-18467 2082 0
-20515 4130 0
-24615 8231 24611 8227 -8226 0
-24619 8235 24611 8227 -8226 0
-24627 8243 24611 8227 -8226 0
-26659 10275 24611 8227 -8226 0
-28707 12323 24611 8227 -8226 0
-24611 8226 0
-24615 16423 24611 16419 -16418 0
-16427 16418 0
-16435 16418 0
-18467 16418 0
-26659 18467 24611 16419 -16418 0
-20515 16418 0
-28707 20515 24611 16419 -16418 0
-24611 16418 0
-18951 16903 18947 16899 -16898 0
-16907 16898 0
-18434 18438 0
-18434 18442 0
-18434 18450 0
-18434 18466 0
-22531 18434 0
-20482 20486 0
-20507 20491 20499 20483 -20482 0
-20482 20498 0
-22531 20482 0
-24578 24582 0
-24591 24583 24587 24579 -24578 0
-24599 24583 24595 24579 -24578 0
-24615 24583 24611 24579 -24578 0
-24578 24586 0
-24603 24587 24595 24579 -24578 0
-24619 24587 24611 24579 -24578 0
-24627 24595 24611 24579 -24578 0
-24578 24610 0
-26627 24578 0
-17440 1056 16416 32 -31 0
-18464 2080 16416 32 -31 0
-20512 4128 16416 32 -31 0
-24608 8224 16416 32 -31 0
-31 16415 0
-17456 1072 16432 48 -47 0
-18480 2096 16432 48 -47 0
-20528 4144 16432 48 -47 0
-24624 8240 16432 48 -47 0
-47 16431 0
-17456 1072 17424 1040 -1039 0
-19472 3088 18448 2064 -2063 0
-22544 6160 18448 2064 -2063 0
-18448 2063 0
-20512 4128 20496 4112 -4111 0
-20528 4144 20496 4112 -4111 0
-21520 5136 20496 4112 -4111 0
-22544 6160 20496 4112 -4111 0
-28688 12304 20496 4112 -4111 0
-20496 4111 0
-24608 8224 24592 8208 -8207 0
-24624 8240 24592 8208 -8207 0
-26639 10255 24591 8207 -8206 0
-28688 12304 24592 8208 -8207 0
-8207 24591 0
-24592 8207 0
-16416 16399 0
-16448 16416 16432 16400 -16399 0
-20512 16416 20496 16400 -16399 0
-24608 16416 24592 16400 -16399 0
-16432 16399 0
-20528 16432 20496 16400 -16399 0
-24624 16432 24592 16400 -16399 0
-18448 16399 0
-22544 18448 20496 16400 -16399 0
-26639 18447 24591 16399 -16398 0
-26640 18448 24592 16400 -16399 0
-20496 16399 0
-28688 20496 24592 16400 -16399 0
-16399 24591 0
-24592 16399 0
-18488 2104 16440 56 -55 0
-20536 4152 16440 56 -55 0
-24632 8248 16440 56 -55 0
-55 16439 0
-17464 1080 17432 1048 -1047 0
-22552 6168 18456 2072 -2071 0
-18456 2071 0
-20512 4128 20504 4120 -4119 0
-22552 6168 20504 4120 -4119 0
-28695 12311 20503 4119 -4118 0
-28696 12312 20504 4120 -4119 0
-20504 4119 0
-24608 8224 24600 8216 -8215 0
-24632 8248 24600 8216 -8215 0
-25112 8728 24600 8216 -8215 0
-26647 10263 24599 8215 -8214 0
-26648 10264 24600 8216 -8215 0
-28695 12311 24599 8215 -8214 0
-28696 12312 24600 8216 -8215 0
-8215 24599 0
-24600 8215 0
-16416 16407 0
-16448 16416 16440 16408 -16407 0
-20512 16416 20504 16408 -16407 0
-24608 16416 24600 16408 -16407 0
-16440 16407 0
-20536 16440 20504 16408 -16407 0
-24632 16440 24600 16408 -16407 0
-18456 16407 0
-22552 18456 20504 16408 -16407 0
-26647 18455 24599 16407 -16406 0
-16407 20503 0
-20504 16407 0
-28696 20504 24600 16408 -16407 0
-16407 24599 0
-24600 16407 0
-19496 3112 17448 1064 -1063 0
-18472 2087 0
-20528 4144 20520 4136 -4135 0
-28712 12328 20520 4136 -4135 0
-20520 4135 0
-24624 8240 24616 8232 -8231 0
-24632 8248 24616 8232 -8231 0
-26664 10280 24616 8232 -8231 0
-28711 12327 24615 8231 -8230 0
-28712 12328 24616 8232 -8231 0
-8231 24615 0
-24616 8231 0
-16432 16423 0
-16448 16432 16440 16424 -16423 0
-16944 16432 16936 16424 -16423 0
-20528 16432 20520 16424 -16423 0
-24624 16432 24616 16424 -16423 0
-16440 16423 0
-20536 16440 20520 16424 -16423 0
-24632 16440 24616 16424 -16423 0
-26663 18471 24615 16423 -16422 0
-26664 18472 24616 16424 -16423 0
-16423 20519 0
-20520 16423 0
-28712 20520 24616 16424 -16423 0
-16423 24615 0
-24616 16423 0
-2567 18951 0
-18952 16903 0
-30728 14344 22536 6152 -6151 0
-22536 6151 0
-30728 14344 26632 10248 -10247 0
-26632 10247 0
-18439 18447 0
-18439 18455 0
-22536 18439 0
-30728 22536 26632 18440 -18439 0
-28688 12304 28680 12296 -12295 0
-28696 12312 28680 12296 -12295 0
-28712 12328 28680 12296 -12295 0
-29704 13320 28680 12296 -12295 0
-30728 14344 28680 12296 -12295 0
-28680 12295 0
-20487 20495 0
-20496 20487 0
-28688 20496 28680 20488 -20487 0
-20487 20503 0
-22552 20504 22536 20488 -20487 0
-28696 20504 28680 20488 -20487 0
-20487 20519 0
-20520 20487 0
-30728 22536 28680 20488 -20487 0
-28680 20487 0
-24583 24591 0
-24592 24583 0
-24608 24592 24600 24584 -24583 0
-24624 24592 24616 24584 -24583 0
-26640 24592 26632 24584 -24583 0
-28688 24592 28680 24584 -24583 0
-24583 24599 0
-24600 24583 0
-24632 24600 24616 24584 -24583 0
-28696 24600 28680 24584 -24583 0
-24583 24615 0
-24616 24583 0
-28712 24616 28680 24584 -24583 0
-26632 24583 0
-30728 26632 28680 24584 -24583 0
-28680 24583 0
-18492 2108 16444 60 -59 0
-20540 4156 16444 60 -59 0
-24636 8252 16444 60 -59 0
-59 16443 0
-16956 572 16924 540 -539 0
-26652 10268 18460 2076 -2075 0
-18460 2075 0
-20512 4128 20508 4124 -4123 0
-20540 4156 20508 4124 -4123 0
-22556 6172 20508 4124 -4123 0
-28700 12316 20508 4124 -4123 0
-4123 20507 0
-20508 4123 0
-24608 8224 24604 8220 -8219 0
-24636 8252 24604 8220 -8219 0
-26652 10268 24604 8220 -8219 0
-28699 12315 24603 8219 -8218 0
-28700 12316 24604 8220 -8219 0
-8219 24603 0
-24604 8219 0
-16416 16411 0
-16448 16416 16444 16412 -16411 0
-24608 16416 24604 16412 -16411 0
-16444 16411 0
-20540 16444 20508 16412 -16411 0
-24636 16444 24604 16412 -16411 0
-18460 16411 0
-22556 18460 20508 16412 -16411 0
-26651 18459 24603 16411 -16410 0
-16411 20507 0
-20508 16411 0
-28700 20508 24604 16412 -16411 0
-16411 24603 0
-24604 16411 0
-22572 6188 18476 2092 -2091 0
-26668 10284 18476 2092 -2091 0
-2091 18475 0
-18476 2091 0
-20528 4144 20524 4140 -4139 0
-28716 12332 20524 4140 -4139 0
-4139 20523 0
-20524 4139 0
-24624 8240 24620 8236 -8235 0
-24636 8252 24620 8236 -8235 0
-26668 10284 24620 8236 -8235 0
-28716 12332 24620 8236 -8235 0
-8235 24619 0
-24620 8235 0
-16432 16427 0
-16448 16432 16444 16428 -16427 0
-20528 16432 20524 16428 -16427 0
-24624 16432 24620 16428 -16427 0
-16444 16427 0
-24636 16444 24620 16428 -16427 0
-18476 16427 0
-26668 18476 24620 16428 -16427 0
-20524 16427 0
-28716 20524 24620 16428 -16427 0
-16427 24619 0
-24620 16427 0
-16924 16907 0
-19484 3100 19468 3084 -3083 0
-22556 6172 22540 6156 -6155 0
-22572 6188 22540 6156 -6155 0
-30732 14348 22540 6156 -6155 0
-22540 6155 0
-26668 10284 26636 10252 -10251 0
-30732 14348 26636 10252 -10251 0
-26636 10251 0
-18443 18447 0
-18448 18443 0
-18443 18475 0
-19500 18476 19468 18444 -18443 0
-26668 18476 26636 18444 -18443 0
-18956 18443 0
-18443 19467 0
-22540 18443 0
-30732 22540 26636 18444 -18443 0
-26636 18443 0
-28688 12304 28684 12300 -12299 0
-28700 12316 28684 12300 -12299 0
-28716 12332 28684 12300 -12299 0
-29708 13324 28684 12300 -12299 0
-30732 14348 28684 12300 -12299 0
-28684 12299 0
-20491 20495 0
-20512 20496 20508 20492 -20491 0
-20528 20496 20524 20492 -20491 0
-22544 20496 22540 20492 -20491 0
-20491 20507 0
-28700 20508 28684 20492 -20491 0
-20491 20523 0
-20524 20491 0
-28716 20524 28684 20492 -20491 0
-22540 20491 0
-30732 22540 28684 20492 -20491 0
-28684 20491 0
-24587 24591 0
-24592 24587 0
-24608 24592 24604 24588 -24587 0
-24624 24592 24620 24588 -24587 0
-28688 24592 28684 24588 -24587 0
-24587 24603 0
-24604 24587 0
-24636 24604 24620 24588 -24587 0
-28700 24604 28684 24588 -24587 0
-24587 24619 0
-24620 24587 0
-28716 24620 28684 24588 -24587 0
-26636 24587 0
-30732 26636 28684 24588 -24587 0
-28684 24587 0
-22580 6196 18484 2100 -2099 0
-18484 2099 0
-20540 4156 20532 4148 -4147 0
-22580 6196 20532 4148 -4147 0
-28724 12340 20532 4148 -4147 0
-20532 4147 0
-24632 8248 24628 8244 -8243 0
-24636 8252 24628 8244 -8243 0
-26675 10291 24627 8243 -8242 0
-26676 10292 24628 8244 -8243 0
-28724 12340 24628 8244 -8243 0
-8243 24627 0
-24628 8243 0
-16440 16435 0
-16448 16440 16444 16436 -16435 0
-20536 16440 20532 16436 -16435 0
-24632 16440 24628 16436 -16435 0
-16444 16435 0
-20540 16444 20532 16436 -16435 0
-24636 16444 24628 16436 -16435 0
-18484 16435 0
-22580 18484 20532 16436 -16435 0
-26675 18483 24627 16435 -16434 0
-16435 20531 0
-20532 16435 0
-28724 20532 24628 16436 -16435 0
-16435 24627 0
-24628 16435 0
-22556 6172 22548 6164 -6163 0
-22580 6196 22548 6164 -6163 0
-23572 7188 22548 6164 -6163 0
-30740 14356 22548 6164 -6163 0
-22548 6163 0
-30740 14356 26644 10260 -10259 0
-26644 10259 0
-18451 18455 0
-26648 18456 26644 18452 -18451 0
-18451 18459 0
-18451 18483 0
-26676 18484 26644 18452 -18451 0
-22548 18451 0
-30740 22548 26644 18452 -18451 0
-26644 18451 0
-28696 12312 28692 12308 -12307 0
-28700 12316 28692 12308 -12307 0
-28724 12340 28692 12308 -12307 0
-29716 13332 28692 12308 -12307 0
-30740 14356 28692 12308 -12307 0
-28692 12307 0
-20499 20503 0
-20504 20499 0
-20535 20503 20531 20499 -20498 0
-22552 20504 22548 20500 -20499 0
-28696 20504 28692 20500 -20499 0
-20499 20507 0
-20508 20499 0
-20539 20507 20531 20499 -20498 0
-20499 20531 0
-28724 20532 28692 20500 -20499 0
-22548 20499 0
-30740 22548 28692 20500 -20499 0
-28692 20499 0
-24595 24599 0
-24600 24595 0
-24608 24600 24604 24596 -24595 0
-24632 24600 24628 24596 -24595 0
-26648 24600 26644 24596 -24595 0
-28696 24600 28692 24596 -24595 0
-24595 24603 0
-24604 24595 0
-24636 24604 24628 24596 -24595 0
-25116 24604 25108 24596 -24595 0
-28700 24604 28692 24596 -24595 0
-24595 24627 0
-24628 24595 0
-28724 24628 28692 24596 -24595 0
-26644 24595 0
-30740 26644 28692 24596 -24595 0
-28692 24595 0
-23588 7204 21540 5156 -5155 0
-30756 14372 22564 6180 -6179 0
-22564 6179 0
-26668 10284 26660 10276 -10275 0
-30756 14372 26660 10276 -10275 0
-26660 10275 0
-18467 18475 0
-18476 18467 0
-26668 18476 26660 18468 -18467 0
-18467 18483 0
-22564 18467 0
-30756 22564 26660 18468 -18467 0
-26660 18467 0
-28712 12328 28708 12324 -12323 0
-28716 12332 28708 12324 -12323 0
-28724 12340 28708 12324 -12323 0
-29220 12836 28708 12324 -12323 0
-29732 13348 28708 12324 -12323 0
-30756 14372 28708 12324 -12323 0
-28708 12323 0
-20536 20520 20532 20516 -20515 0
-20515 20523 0
-20524 20515 0
-20540 20524 20532 20516 -20515 0
-20515 20531 0
-28724 20532 28708 20516 -20515 0
-20515 21539 0
-21540 20515 0
-22564 20515 0
-30756 22564 28708 20516 -20515 0
-28708 20515 0
-24611 24615 0
-24616 24611 0
-24623 24615 24619 24611 -24610 0
-24624 24616 24620 24612 -24611 0
-24632 24616 24628 24612 -24611 0
-28712 24616 28708 24612 -24611 0
-24611 24619 0
-24620 24611 0
-24636 24620 24628 24612 -24611 0
-26668 24620 26660 24612 -24611 0
-28716 24620 28708 24612 -24611 0
-24611 24627 0
-24628 24611 0
-26676 24628 26660 24612 -24611 0
-28724 24628 28708 24612 -24611 0
-26660 24611 0
-30756 26660 28708 24612 -24611 0
-28708 24611 0
-18960 18952 18956 18948 -18947 0
-29204 12820 29188 12804 -12803 0
-29704 13320 29700 13316 -13315 0
-29716 13332 29700 13316 -13315 0
-13315 29699 0
-22531 22535 0
-22544 22536 22540 22532 -22531 0
-22531 22539 0
-22531 22547 0
-23572 22548 23556 22532 -22531 0
-30724 22531 0
-26627 26631 0
-26627 26635 0
-26668 26636 26660 26628 -26627 0
-26627 26643 0
-26627 26659 0
-30724 26627 0
-28675 28679 0
-28688 28680 28684 28676 -28675 0
-28696 28680 28692 28676 -28675 0
-28712 28680 28708 28676 -28675 0
-29192 28680 29188 28676 -28675 0
-29704 28680 29700 28676 -28675 0
-28675 28683 0
-28700 28684 28692 28676 -28675 0
-28716 28684 28708 28676 -28675 0
-29196 28684 29188 28676 -28675 0
-29708 28684 29700 28676 -28675 0
-28675 28691 0
-28724 28692 28708 28676 -28675 0
-29204 28692 29188 28676 -28675 0
-29716 28692 29700 28676 -28675 0
-28675 28707 0
-29732 28708 29700 28676 -28675 0
-30724 28675 0
-64 16448 0
-22560 6176 18464 2080 -2079 0
-28704 12320 20512 4128 -4127 0
-4127 20511 0
-4128 20512 0
-26656 10272 24608 8224 -8223 0
-28704 12320 24608 8224 -8223 0
-8223 24607 0
-8224 24608 0
-16416 18464 0
-26656 18464 24608 16416 -16415 0
-16416 20512 0
-28704 20512 24608 16416 -16415 0
-16416 24608 0
-560 16944 0
-28720 12336 20528 4144 -4143 0
-4143 20527 0
-4144 20528 0
-26672 10288 24624 8240 -8239 0
-28720 12336 24624 8240 -8239 0
-8239 24623 0
-8240 24624 0
-16432 17456 0
-16432 18480 0
-22576 18480 20528 16432 -16431 0
-16432 20528 0
-16432 24624 0
-2576 18960 0
-17424 17440 0
-17424 21520 0
-30736 14352 22544 6160 -6159 0
-22544 6159 0
-30736 14352 26640 10256 -10255 0
-18448 18464 0
-18448 26640 0
-28704 12320 28688 12304 -12303 0
-30736 14352 28688 12304 -12303 0
-28688 12303 0
-12304 28688 0
-20496 20512 0
-20528 20495 0
-20496 20528 0
-20496 22544 0
-30736 22544 28688 20496 -20495 0
-28688 20495 0
-20496 28688 0
-24608 24591 0
-24592 24608 0
-28704 24608 28688 24592 -24591 0
-24592 24624 0
-26640 24591 0
-28688 24591 0
-24592 28688 0
-22584 6200 18488 2104 -2103 0
-22584 6200 20536 4152 -4151 0
-4151 20535 0
-4152 20536 0
-26680 10296 24632 8248 -8247 0
-8247 24631 0
-8248 24632 0
-16440 17464 0
-16440 18488 0
-22584 18488 20536 16440 -16439 0
-16440 20536 0
-16440 24632 0
-17432 17440 0
-30744 14360 22552 6168 -6167 0
-30744 14360 26648 10264 -10263 0
-18456 18488 0
-28704 12320 28696 12312 -12311 0
-28728 12344 28696 12312 -12311 0
-30744 14360 28696 12312 -12311 0
-28696 12311 0
-12312 28696 0
-20504 20512 0
-20544 20512 20536 20504 -20503 0
-22560 20512 22552 20504 -20503 0
-20504 20536 0
-20504 28696 0
-24608 24599 0
-24600 24608 0
-24640 24608 24632 24600 -24599 0
-28704 24608 28696 24600 -24599 0
-24600 24632 0
-28728 24632 28696 24600 -24599 0
-26648 24599 0
-24600 26648 0
-30744 26648 28696 24600 -24599 0
-24600 28696 0
-16936 17960 0
-20008 3624 19496 3112 -3111 0
-17448 17456 0
-30760 14376 26664 10280 -10279 0
-26664 10279 0
-28720 12336 28712 12328 -12327 0
-28728 12344 28712 12328 -12327 0
-30760 14376 28712 12328 -12327 0
-28712 12327 0
-12328 28712 0
-20520 20528 0
-20544 20528 20536 20520 -20519 0
-28720 20528 28712 20520 -20519 0
-20520 20536 0
-20520 28712 0
-24624 24615 0
-24616 24624 0
-24640 24624 24632 24616 -24615 0
-28720 24624 28712 24616 -24615 0
-24616 24632 0
-28728 24632 28712 24616 -24615 0
-28712 24615 0
-24616 28712 0
-12808 29192 0
-13320 29704 0
-22536 22544 0
-22535 22551 0
-22536 22552 0
-26631 26639 0
-26631 26647 0
-26632 26648 0
-26631 26663 0
-28679 28687 0
-28680 28688 0
-28704 28688 28696 28680 -28679 0
-28720 28688 28712 28680 -28679 0
-28679 28695 0
-28680 28696 0
-28728 28696 28712 28680 -28679 0
-28679 28711 0
-28680 28712 0
-28680 29704 0
-4155 20539 0
-28732 12348 24636 8252 -8251 0
-8251 24635 0
-8252 24636 0
-16444 16956 0
-16444 18492 0
-22588 18492 20540 16444 -16443 0
-26684 18492 24636 16444 -16443 0
-16444 20540 0
-28732 20540 24636 16444 -16443 0
-16444 24636 0
-8732 25116 0
-17436 17440 0
-22560 6176 22556 6172 -6171 0
-30748 14364 26652 10268 -10267 0
-18460 19484 0
-28704 12320 28700 12316 -12315 0
-28732 12348 28700 12316 -12315 0
-30748 14364 28700 12316 -12315 0
-12316 28700 0
-20508 20512 0
-20508 20540 0
-28732 20540 28700 20508 -20507 0
-20508 22556 0
-20508 28700 0
-24604 24608 0
-24640 24608 24636 24604 -24603 0
-24636 24603 0
-24604 24636 0
-28732 24636 28700 24604 -24603 0
-28700 24603 0
-24604 28700 0
-30764 14380 26668 10284 -10283 0
-10284 26668 0
-18476 18480 0
-26672 18480 26668 18476 -18475 0
-18476 22572 0
-28720 12336 28716 12332 -12331 0
-30764 14380 28716 12332 -12331 0
-12332 28716 0
-20524 20528 0
-28720 20528 28716 20524 -20523 0
-20524 20540 0
-20524 28716 0
-24620 24624 0
-24640 24624 24636 24620 -24619 0
-28720 24624 28716 24620 -24619 0
-24620 24636 0
-28732 24636 28716 24620 -24619 0
-26668 24619 0
-30764 26668 28716 24620 -24619 0
-24620 28716 0
-12812 29196 0
-19468 19472 0
-19516 19484 19500 19468 -19467 0
-13324 29708 0
-22540 22544 0
-22540 22556 0
-22540 22572 0
-26636 26640 0
-26635 26651 0
-26636 26652 0
-26636 26668 0
-28684 28688 0
-28704 28688 28700 28684 -28683 0
-28720 28688 28716 28684 -28683 0
-28683 28699 0
-28684 28700 0
-28732 28700 28716 28684 -28683 0
-29212 28700 29196 28684 -28683 0
-28684 28716 0
-22580 18483 0
-18484 22580 0
-30772 22580 26676 18484 -18483 0
-28732 12348 28724 12340 -12339 0
-30772 14388 28724 12340 -12339 0
-12340 28724 0
-20536 20531 0
-20532 20536 0
-20544 20536 20540 20532 -20531 0
-20532 20540 0
-22580 20531 0
-20532 28724 0
-24628 24632 0
-28728 24632 28724 24628 -24627 0
-24628 24636 0
-28732 24636 28724 24628 -24627 0
-26676 24627 0
-24628 26676 0
-24628 28724 0
-12820 29204 0
-25108 25112 0
-7188 23572 0
-13332 29716 0
-22548 22552 0
-23576 22552 23572 22548 -22547 0
-22548 22556 0
-22548 22580 0
-26644 26648 0
-26644 26652 0
-26643 26675 0
-26644 26676 0
-28692 28696 0
-28704 28696 28700 28692 -28691 0
-28728 28696 28724 28692 -28691 0
-28692 28700 0
-28732 28700 28724 28692 -28691 0
-28692 28724 0
-28692 29204 0
-28692 29716 0
-13348 29732 0
-22564 22580 0
-26660 26664 0
-26680 26664 26676 26660 -26659 0
-26660 26668 0
-26660 26676 0
-28708 28712 0
-28720 28712 28716 28708 -28707 0
-28728 28712 28724 28708 -28707 0
-28708 28716 0
-28732 28716 28724 28708 -28707 0
-28708 28724 0
-29188 29220 0
-23556 23588 0
-29700 29704 0
-29736 29704 29732 29700 -29699 0
-29700 29708 0
-29724 29708 29716 29700 -29699 0
-29700 29716 0
-29700 29732 0
-30724 30728 0
-30724 30732 0
-30724 30740 0
-30724 30756 0
-2112 18496 0
-4160 20544 0
-8256 24640 0
-18464 26656 0
-30752 14368 28704 12320 -12319 0
-12320 28704 0
-20512 28704 0
-30752 26656 28704 24608 -24607 0
-24608 28704 0
-12336 28720 0
-30768 22576 28720 20528 -20527 0
-20528 28720 0
-24624 26672 0
-24624 28720 0
-22544 22560 0
-28688 28704 0
-28736 28704 28720 28688 -28687 0
-28688 28720 0
-17464 19512 0
-30776 14392 26680 10296 -10295 0
-10296 26680 0
-12344 28728 0
-30776 22584 28728 20536 -20535 0
-20536 28728 0
-24632 28728 0
-22592 22560 22584 22552 -22551 0
-22552 22584 0
-23608 22584 23576 22552 -22551 0
-26648 26656 0
-28696 28704 0
-28736 28704 28728 28696 -28695 0
-17960 20008 0
-13352 29736 0
-26664 26672 0
-28712 28720 0
-28736 28720 28728 28712 -28711 0
-28712 28728 0
-30728 30736 0
-30728 30744 0
-30728 30760 0
-3132 19516 0
-12348 28732 0
-30780 22588 28732 20540 -20539 0
-20540 28732 0
-24636 28732 0
-12828 29212 0
-13340 29724 0
-28700 28704 0
-28736 28704 28732 28700 -28699 0
-28700 28732 0
-26668 26684 0
-28716 28720 0
-28716 28732 0
-30732 30748 0
-30732 30764 0
-7220 23604 0
-30740 30772 0
-18496 22592 0
-20544 28736 0
-30744 30752 0
-30760 30768 0
-30760 30776 0
-30764 30780 0
-23604 23608 0
-32770 0
-32775 0
-32779 0
-32787 0
-32803 0
-40963 0
-49155 0
-32784 0
-32792 0
-32808 0
-33800 0
-36872 0
-40968 0
-49160 0
-32796 0
-32812 0
-33804 0
-36876 0
-40972 0
-49164 0
-32820 0
-34836 0
-36884 0
-40980 0
-49172 0
-36900 0
-40996 0
-49188 0
-51204 0
-45060 0
-57348 0
-36870 4102 32774 6 -5 0
-40966 8198 32774 6 -5 0
-49158 16390 32774 6 -5 0
-36874 4106 32778 10 -9 0
-40970 8202 32778 10 -9 0
-49162 16394 32778 10 -9 0
-36882 4114 32786 18 -17 0
-49170 16402 32786 18 -17 0
-36898 4130 32802 34 -33 0
-40994 8226 32802 34 -33 0
-32782 32774 32778 32770 -32769 0
-32790 32774 32786 32770 -32769 0
-32806 32774 32802 32770 -32769 0
-32794 32778 32786 32770 -32769 0
-36866 32769 0
-36879 4111 32783 15 -14 0
-40975 8207 32783 15 -14 0
-49167 16399 32783 15 -14 0
-14 32782 0
-36887 4119 32791 23 -22 0
-40983 8215 32791 23 -22 0
-49175 16407 32791 23 -22 0
-22 32790 0
-36903 4135 32807 39 -38 0
-40999 8231 32807 39 -38 0
-49191 16423 32807 39 -38 0
-38 32806 0
-45063 12295 36871 4103 -4102 0
-40975 8207 40967 8199 -8198 0
-45063 12295 40967 8199 -8198 0
-49167 16399 49159 16391 -16390 0
-49175 16407 49159 16391 -16390 0
-49191 16423 49159 16391 -16390 0
-53255 20487 49159 16391 -16390 0
-57351 24583 49159 16391 -16390 0
-49159 16390 0
-32783 32774 0
-32799 32783 32791 32775 -32774 0
-32815 32783 32807 32775 -32774 0
-32791 32774 0
-32823 32791 32807 32775 -32774 0
-49175 32791 49159 32775 -32774 0
-32807 32774 0
-40999 32807 40967 32775 -32774 0
-36871 32774 0
-40967 32774 0
-57351 40967 49159 32775 -32774 0
-49159 32774 0
-49179 16411 32795 27 -26 0
-26 32794 0
-36907 4139 32811 43 -42 0
-41003 8235 32811 43 -42 0
-49195 16427 32811 43 -42 0
-42 32810 0
-33835 1067 33803 1035 -1034 0
-45067 12299 36875 4107 -4106 0
-53259 20491 36875 4107 -4106 0
-36875 4106 0
-40975 8207 40971 8203 -8202 0
-41003 8235 40971 8203 -8202 0
-57355 24587 40971 8203 -8202 0
-40971 8202 0
-49167 16399 49163 16395 -16394 0
-49179 16411 49163 16395 -16394 0
-49195 16427 49163 16395 -16394 0
-53259 20491 49163 16395 -16394 0
-57355 24587 49163 16395 -16394 0
-49163 16394 0
-32783 32778 0
-32799 32783 32795 32779 -32778 0
-32815 32783 32811 32779 -32778 0
-32795 32778 0
-32827 32795 32811 32779 -32778 0
-40987 32795 40971 32779 -32778 0
-49179 32795 49163 32779 -32778 0
-32811 32778 0
-49195 32811 49163 32779 -32778 0
-36875 32778 0
-53259 36875 49163 32779 -32778 0
-40971 32778 0
-49163 32778 0
-36915 4147 32819 51 -50 0
-41011 8243 32819 51 -50 0
-49203 16435 32819 51 -50 0
-50 32818 0
-45075 12307 36883 4115 -4114 0
-36883 4114 0
-45075 12307 40979 8211 -8210 0
-40979 8210 0
-49175 16407 49171 16403 -16402 0
-53267 20499 49171 16403 -16402 0
-57363 24595 49171 16403 -16402 0
-49171 16402 0
-32791 32786 0
-32799 32791 32795 32787 -32786 0
-32823 32791 32819 32787 -32786 0
-34839 32791 34835 32787 -32786 0
-49175 32791 49171 32787 -32786 0
-32795 32786 0
-32827 32795 32819 32787 -32786 0
-32819 32786 0
-49203 32819 49171 32787 -32786 0
-36883 32786 0
-53267 36883 49171 32787 -32786 0
-40979 32786 0
-49171 32786 0
-36907 4139 36899 4131 -4130 0
-45091 12323 36899 4131 -4130 0
-36899 4130 0
-45091 12323 40995 8227 -8226 0
-49191 16423 49187 16419 -16418 0
-53283 20515 49187 16419 -16418 0
-57379 24611 49187 16419 -16418 0
-49187 16418 0
-32807 32802 0
-32815 32807 32811 32803 -32802 0
-40999 32807 40995 32803 -32802 0
-32811 32802 0
-32827 32811 32819 32803 -32802 0
-41003 32811 40995 32803 -32802 0
-49195 32811 49187 32803 -32802 0
-32819 32802 0
-36899 32802 0
-45091 36899 40995 32803 -32802 0
-53283 36899 49187 32803 -32802 0
-40995 32802 0
-49187 32802 0
-36866 36870 0
-36866 36874 0
-36866 36882 0
-36866 36898 0
-45059 36866 0
-40962 40966 0
-40983 40967 40979 40963 -40962 0
-40962 40970 0
-40962 40994 0
-45059 40962 0
-49154 49158 0
-49167 49159 49163 49155 -49154 0
-49175 49159 49171 49155 -49154 0
-49191 49159 49187 49155 -49154 0
-49154 49162 0
-49179 49163 49171 49155 -49154 0
-49195 49163 49187 49155 -49154 0
-49154 49170 0
-49203 49171 49187 49155 -49154 0
-51235 49187 51203 49155 -49154 0
-53251 49154 0
-36896 4128 32800 32 -31 0
-40992 8224 32800 32 -31 0
-49184 16416 32800 32 -31 0
-31 32799 0
-33840 1072 32816 48 -47 0
-36912 4144 32816 48 -47 0
-41008 8240 32816 48 -47 0
-49200 16432 32816 48 -47 0
-47 32815 0
-37904 5136 33808 1040 -1039 0
-33808 1039 0
-40992 8224 40976 8208 -8207 0
-41008 8240 40976 8208 -8207 0
-45072 12304 40976 8208 -8207 0
-57359 24591 40975 8207 -8206 0
-57360 24592 40976 8208 -8207 0
-8207 40975 0
-40976 8207 0
-49184 16416 49168 16400 -16399 0
-49200 16432 49168 16400 -16399 0
-50192 17424 49168 16400 -16399 0
-51216 18448 49168 16400 -16399 0
-53264 20496 49168 16400 -16399 0
-57359 24591 49167 16399 -16398 0
-57360 24592 49168 16400 -16399 0
-16399 49167 0
-49168 16399 0
-32800 32783 0
-32832 32800 32816 32784 -32783 0
-40992 32800 40976 32784 -32783 0
-49184 32800 49168 32784 -32783 0
-32816 32783 0
-49200 32816 49168 32784 -32783 0
-32783 33807 0
-42000 33808 40976 32784 -32783 0
-32783 40975 0
-40976 32783 0
-57360 40976 49168 32784 -32783 0
-32783 49167 0
-49168 32783 0
-36920 4152 32824 56 -55 0
-41016 8248 32824 56 -55 0
-49208 16440 32824 56 -55 0
-55 32823 0
-2071 34839 0
-36888 4119 0
-40992 8224 40984 8216 -8215 0
-41016 8248 40984 8216 -8215 0
-57367 24599 40983 8215 -8214 0
-57368 24600 40984 8216 -8215 0
-8215 40983 0
-40984 8215 0
-49184 16416 49176 16408 -16407 0
-49208 16440 49176 16408 -16407 0
-53272 20504 49176 16408 -16407 0
-57367 24599 49175 16407 -16406 0
-57368 24600 49176 16408 -16407 0
-16407 49175 0
-49176 16407 0
-32800 32791 0
-32832 32800 32824 32792 -32791 0
-40992 32800 40984 32792 -32791 0
-49184 32800 49176 32792 -32791 0
-32824 32791 0
-33848 32824 33816 32792 -32791 0
-49208 32824 49176 32792 -32791 0
-34840 32791 0
-53271 36887 49175 32791 -32790 0
-53272 36888 49176 32792 -32791 0
-32791 40983 0
-40984 32791 0
-57368 40984 49176 32792 -32791 0
-32791 49175 0
-49176 32791 0
-35880 3112 33832 1064 -1063 0
-45095 12327 36903 4135 -4134 0
-45096 12328 36904 4136 -4135 0
-36904 4135 0
-41008 8240 41000 8232 -8231 0
-41016 8248 41000 8232 -8231 0
-45095 12327 40999 8231 -8230 0
-45096 12328 41000 8232 -8231 0
-57383 24615 40999 8231 -8230 0
-57384 24616 41000 8232 -8231 0
-8231 40999 0
-41000 8231 0
-49200 16432 49192 16424 -16423 0
-49208 16440 49192 16424 -16423 0
-53287 20519 49191 16423 -16422 0
-53288 20520 49192 16424 -16423 0
-57383 24615 49191 16423 -16422 0
-57384 24616 49192 16424 -16423 0
-16423 49191 0
-49192 16423 0
-32816 32807 0
-32832 32816 32824 32808 -32807 0
-49200 32816 49192 32808 -32807 0
-32824 32807 0
-49208 32824 49192 32808 -32807 0
-33832 32807 0
-36904 32807 0
-45096 36904 41000 32808 -32807 0
-53288 36904 49192 32808 -32807 0
-41000 32807 0
-57384 41000 49192 32808 -32807 0
-32807 49191 0
-49192 32807 0
-35856 33808 35848 33800 -33799 0
-33816 33799 0
-45096 12328 45064 12296 -12295 0
-61448 28680 45064 12296 -12295 0
-45064 12295 0
-61448 28680 53256 20488 -20487 0
-53256 20487 0
-36871 36879 0
-45072 36880 45064 36872 -36871 0
-45064 36871 0
-61448 45064 53256 36872 -36871 0
-53256 36871 0
-57360 24592 57352 24584 -24583 0
-57368 24600 57352 24584 -24583 0
-57384 24616 57352 24584 -24583 0
-61448 28680 57352 24584 -24583 0
-57352 24583 0
-40967 40975 0
-40976 40967 0
-41008 40976 41000 40968 -40967 0
-40967 40983 0
-40984 40967 0
-41016 40984 41000 40968 -40967 0
-41000 40967 0
-45064 40967 0
-61448 45064 57352 40968 -40967 0
-57352 40967 0
-49159 49167 0
-49168 49159 0
-49184 49168 49176 49160 -49159 0
-49200 49168 49192 49160 -49159 0
-57360 49168 57352 49160 -49159 0
-49159 49175 0
-49176 49159 0
-49208 49176 49192 49160 -49159 0
-57368 49176 57352 49160 -49159 0
-49192 49159 0
-57384 49192 57352 49160 -49159 0
-53256 49159 0
-61448 53256 57352 49160 -49159 0
-57352 49159 0
-36924 4156 32828 60 -59 0
-41020 8252 32828 60 -59 0
-49212 16444 32828 60 -59 0
-59 32827 0
-36924 4156 36892 4124 -4123 0
-36892 4123 0
-41020 8252 40988 8220 -8219 0
-57372 24604 40988 8220 -8219 0
-8219 40987 0
-40988 8219 0
-49184 16416 49180 16412 -16411 0
-49212 16444 49180 16412 -16411 0
-53276 20508 49180 16412 -16411 0
-57371 24603 49179 16411 -16410 0
-57372 24604 49180 16412 -16411 0
-16411 49179 0
-49180 16411 0
-32800 32795 0
-32832 32800 32828 32796 -32795 0
-49184 32800 49180 32796 -32795 0
-32828 32795 0
-41020 32828 40988 32796 -32795 0
-49212 32828 49180 32796 -32795 0
-32795 36891 0
-36892 32795 0
-53276 36892 49180 32796 -32795 0
-32795 40987 0
-40988 32795 0
-57372 40988 49180 32796 -32795 0
-32795 49179 0
-49180 32795 0
-33836 1067 0
-45100 12332 36908 4140 -4139 0
-36908 4139 0
-41020 8252 41004 8236 -8235 0
-45100 12332 41004 8236 -8235 0
-57388 24620 41004 8236 -8235 0
-41004 8235 0
-49200 16432 49196 16428 -16427 0
-49212 16444 49196 16428 -16427 0
-57388 24620 49196 16428 -16427 0
-16427 49195 0
-49196 16427 0
-32816 32811 0
-32832 32816 32828 32812 -32811 0
-36912 32816 36908 32812 -32811 0
-41008 32816 41004 32812 -32811 0
-49200 32816 49196 32812 -32811 0
-32828 32811 0
-33852 32828 33836 32812 -32811 0
-49212 32828 49196 32812 -32811 0
-42028 33836 41004 32812 -32811 0
-32811 36907 0
-36908 32811 0
-45100 36908 41004 32812 -32811 0
-53292 36908 49196 32812 -32811 0
-32811 41003 0
-41004 32811 0
-57388 41004 49196 32812 -32811 0
-32811 49195 0
-49196 32811 0
-37900 5131 0
-37932 33836 37900 33804 -33803 0
-47116 14348 45068 12300 -12299 0
-61452 28684 45068 12300 -12299 0
-45068 12299 0
-53292 20524 53260 20492 -20491 0
-61452 28684 53260 20492 -20491 0
-53260 20491 0
-36875 36879 0
-53292 36908 53260 36876 -36875 0
-45068 36875 0
-53260 36875 0
-57360 24592 57356 24588 -24587 0
-57372 24604 57356 24588 -24587 0
-57388 24620 57356 24588 -24587 0
-61452 28684 57356 24588 -24587 0
-57356 24587 0
-40971 40975 0
-40976 40971 0
-40992 40976 40988 40972 -40971 0
-41008 40976 41004 40972 -40971 0
-57360 40976 57356 40972 -40971 0
-40988 40971 0
-41020 40988 41004 40972 -40971 0
-57372 40988 57356 40972 -40971 0
-40971 41003 0
-41004 40971 0
-57388 41004 57356 40972 -40971 0
-45068 40971 0
-61452 45068 57356 40972 -40971 0
-57356 40971 0
-49163 49167 0
-49168 49163 0
-49184 49168 49180 49164 -49163 0
-49200 49168 49196 49164 -49163 0
-57360 49168 57356 49164 -49163 0
-49163 49179 0
-49180 49163 0
-49212 49180 49196 49164 -49163 0
-57372 49180 57356 49164 -49163 0
-49163 49195 0
-49196 49163 0
-57388 49196 57356 49164 -49163 0
-50188 49163 0
-53260 49163 0
-61452 53260 57356 49164 -49163 0
-57356 49163 0
-36916 4147 0
-41016 8248 41012 8244 -8243 0
-41020 8252 41012 8244 -8243 0
-45108 12340 41012 8244 -8243 0
-57396 24628 41012 8244 -8243 0
-41012 8243 0
-49208 16440 49204 16436 -16435 0
-49212 16444 49204 16436 -16435 0
-53299 20531 49203 16435 -16434 0
-57395 24627 49203 16435 -16434 0
-57396 24628 49204 16436 -16435 0
-16435 49203 0
-49204 16435 0
-32824 32819 0
-32832 32824 32828 32820 -32819 0
-49208 32824 49204 32820 -32819 0
-32828 32819 0
-49212 32828 49204 32820 -32819 0
-53300 36916 49204 32820 -32819 0
-32819 41011 0
-41012 32819 0
-57395 41011 49203 32819 -32818 0
-57396 41012 49204 32820 -32819 0
-32819 49203 0
-49204 32819 0
-38932 6163 0
-38936 34840 38932 34836 -34835 0
-61460 28692 45076 12308 -12307 0
-45076 12307 0
-61460 28692 53268 20500 -20499 0
-53268 20499 0
-45084 36892 45076 36884 -36883 0
-45076 36883 0
-53268 36883 0
-57368 24600 57364 24596 -24595 0
-57372 24604 57364 24596 -24595 0
-57396 24628 57364 24596 -24595 0
-61460 28692 57364 24596 -24595 0
-57364 24595 0
-40979 40983 0
-40984 40979 0
-41016 40984 41012 40980 -40979 0
-57368 40984 57364 40980 -40979 0
-40979 40987 0
-40988 40979 0
-40979 41011 0
-45108 41012 45076 40980 -40979 0
-57396 41012 57364 40980 -40979 0
-45076 40979 0
-61460 45076 57364 40980 -40979 0
-57364 40979 0
-49171 49175 0
-49176 49171 0
-49184 49176 49180 49172 -49171 0
-49208 49176 49204 49172 -49171 0
-57368 49176 57364 49172 -49171 0
-49171 49179 0
-49180 49171 0
-49212 49180 49204 49172 -49171 0
-57372 49180 57364 49172 -49171 0
-49171 49203 0
-49204 49171 0
-53300 49204 53268 49172 -49171 0
-57396 49204 57364 49172 -49171 0
-53268 49171 0
-61460 53268 57364 49172 -49171 0
-57364 49171 0
-18467 51235 0
-45108 12340 45092 12324 -12323 0
-47140 14372 45092 12324 -12323 0
-61476 28708 45092 12324 -12323 0
-45092 12323 0
-61476 28708 53284 20516 -20515 0
-53284 20515 0
-36899 36903 0
-36899 36907 0
-36899 36915 0
-53300 36916 53284 36900 -36899 0
-45092 36899 0
-61476 45092 53284 36900 -36899 0
-53284 36899 0
-57384 24616 57380 24612 -24611 0
-57388 24620 57380 24612 -24611 0
-57396 24628 57380 24612 -24611 0
-61476 28708 57380 24612 -24611 0
-57380 24611 0
-40995 40999 0
-41016 41000 41012 40996 -40995 0
-40995 41003 0
-41004 40995 0
-41020 41004 41012 40996 -40995 0
-45100 41004 45092 40996 -40995 0
-57388 41004 57380 40996 -40995 0
-40995 41011 0
-41012 40995 0
-45092 40995 0
-61476 45092 57380 40996 -40995 0
-57380 40995 0
-49187 49191 0
-49192 49187 0
-49200 49192 49196 49188 -49187 0
-49208 49192 49204 49188 -49187 0
-53288 49192 53284 49188 -49187 0
-57384 49192 57380 49188 -49187 0
-49187 49195 0
-49196 49187 0
-49212 49196 49204 49188 -49187 0
-53292 49196 53284 49188 -49187 0
-57388 49196 57380 49188 -49187 0
-49187 49203 0
-49204 49187 0
-57396 49204 57380 49188 -49187 0
-53284 49187 0
-61476 53284 57380 49188 -49187 0
-57380 49187 0
-47112 14344 47108 14340 -14339 0
-47124 14356 47108 14340 -14339 0
-45059 45063 0
-45080 45064 45076 45060 -45059 0
-47112 45064 47108 45060 -45059 0
-45059 45067 0
-45100 45068 45092 45060 -45059 0
-45059 45075 0
-45059 45091 0
-61444 45059 0
-53251 53255 0
-53251 53259 0
-53251 53267 0
-53251 53283 0
-61444 53251 0
-57347 57351 0
-57360 57352 57356 57348 -57347 0
-57368 57352 57364 57348 -57347 0
-57384 57352 57380 57348 -57347 0
-57347 57355 0
-57372 57356 57364 57348 -57347 0
-57388 57356 57380 57348 -57347 0
-57347 57363 0
-57396 57364 57380 57348 -57347 0
-57347 57379 0
-61444 57347 0
-64 32832 0
-45088 12320 40992 8224 -8223 0
-57376 24608 40992 8224 -8223 0
-8223 40991 0
-8224 40992 0
-53280 20512 49184 16416 -16415 0
-57376 24608 49184 16416 -16415 0
-16415 49183 0
-16416 49184 0
-32800 36896 0
-53280 36896 49184 32800 -32799 0
-32800 40992 0
-57376 40992 49184 32800 -32799 0
-32800 49184 0
-4144 36912 0
-45104 12336 41008 8240 -8239 0
-8239 41007 0
-8240 41008 0
-53296 20528 49200 16432 -16431 0
-57392 24624 49200 16432 -16431 0
-16432 49200 0
-32816 41008 0
-57392 41008 49200 32816 -32815 0
-32816 49200 0
-44048 35856 42000 33808 -33807 0
-33808 50192 0
-36880 36912 0
-36880 37904 0
-57376 24608 57360 24592 -24591 0
-61456 28688 57360 24592 -24591 0
-57360 24591 0
-24592 57360 0
-40976 40992 0
-41008 40975 0
-40976 41008 0
-57392 41008 57360 40976 -40975 0
-40976 57360 0
-49184 49167 0
-49168 49184 0
-49216 49184 49200 49168 -49167 0
-57376 49184 57360 49168 -49167 0
-49200 49167 0
-49168 49200 0
-57392 49200 57360 49168 -49167 0
-49168 57360 0
-1080 33848 0
-57400 24632 41016 8248 -8247 0
-8248 41016 0
-53304 20536 49208 16440 -16439 0
-57400 24632 49208 16440 -16439 0
-16440 49208 0
-45112 36920 41016 32824 -32823 0
-53304 36920 49208 32824 -32823 0
-32824 41016 0
-57400 41016 49208 32824 -32823 0
-32824 49208 0
-47128 14360 38936 6168 -6167 0
-61464 28696 53272 20504 -20503 0
-20504 53272 0
-57376 24608 57368 24600 -24599 0
-57400 24632 57368 24600 -24599 0
-61464 28696 57368 24600 -24599 0
-57368 24599 0
-24600 57368 0
-40984 40992 0
-41016 40983 0
-40984 41016 0
-40984 45080 0
-40984 57368 0
-49184 49175 0
-49176 49184 0
-49216 49184 49208 49176 -49175 0
-49176 49208 0
-57400 49208 57368 49176 -49175 0
-61464 53272 57368 49176 -49175 0
-57368 49175 0
-49176 57368 0
-61480 28712 45096 12328 -12327 0
-45096 12327 0
-20520 53288 0
-57392 24624 57384 24616 -24615 0
-61480 28712 57384 24616 -24615 0
-57384 24615 0
-24616 57384 0
-41000 41008 0
-45096 40999 0
-61480 45096 57384 41000 -40999 0
-41000 57384 0
-49200 49191 0
-49192 49200 0
-49216 49200 49208 49192 -49191 0
-49192 49208 0
-57384 49191 0
-49192 57384 0
-35848 35880 0
-14344 47112 0
-51208 51216 0
-45064 45072 0
-45063 45079 0
-45063 45095 0
-45064 47112 0
-53256 53264 0
-53255 53271 0
-53256 53272 0
-53255 53287 0
-53256 53288 0
-57351 57359 0
-57352 57360 0
-57376 57360 57368 57352 -57351 0
-57392 57360 57384 57352 -57351 0
-57351 57367 0
-57352 57368 0
-57400 57368 57384 57352 -57351 0
-57351 57383 0
-57352 57384 0
-1084 33852 0
-8252 41020 0
-57404 24636 49212 16444 -16443 0
-16444 49212 0
-32828 33852 0
-45116 36924 41020 32828 -32827 0
-32828 41020 0
-57404 41020 49212 32828 -32827 0
-32828 49212 0
-61468 28700 45084 12316 -12315 0
-53280 20512 53276 20508 -20507 0
-61468 28700 53276 20508 -20507 0
-36892 36896 0
-57376 24608 57372 24604 -24603 0
-61468 28700 57372 24604 -24603 0
-57372 24603 0
-24604 57372 0
-40988 40992 0
-57376 40992 57372 40988 -40987 0
-40988 41020 0
-40988 57372 0
-49184 49179 0
-49180 49184 0
-49216 49184 49212 49180 -49179 0
-49212 49179 0
-49180 49212 0
-57404 49212 57372 49180 -49179 0
-57372 49179 0
-49180 57372 0
-42044 9276 42028 9260 -9259 0
-9260 42028 0
-33836 33840 0
-33852 33835 0
-36908 36912 0
-36908 37932 0
-36908 53292 0
-57392 24624 57388 24620 -24619 0
-57404 24636 57388 24620 -24619 0
-61484 28716 57388 24620 -24619 0
-24620 57388 0
-41008 41003 0
-41004 41008 0
-41004 45100 0
-61484 45100 57388 41004 -41003 0
-57388 41003 0
-41004 57388 0
-49196 49200 0
-49216 49200 49212 49196 -49195 0
-57392 49200 57388 49196 -49195 0
-49212 49195 0
-49196 49212 0
-61484 53292 57388 49196 -49195 0
-57388 49195 0
-49196 57388 0
-45068 45072 0
-45068 45100 0
-53260 53264 0
-53260 53276 0
-57356 57360 0
-57376 57360 57372 57356 -57355 0
-57392 57360 57388 57356 -57355 0
-57355 57371 0
-57356 57372 0
-57404 57372 57388 57356 -57355 0
-57355 57387 0
-57356 57388 0
-47156 14388 45108 12340 -12339 0
-12340 45108 0
-61492 28724 53300 20532 -20531 0
-20532 53300 0
-36916 36924 0
-57396 24627 0
-24628 57396 0
-41012 41016 0
-41012 41020 0
-41012 57396 0
-49208 49203 0
-49204 49208 0
-49216 49208 49212 49204 -49203 0
-57400 49208 57396 49204 -49203 0
-49204 49212 0
-53308 49212 53300 49204 -49203 0
-53300 49203 0
-57396 49203 0
-49204 57396 0
-45076 45108 0
-45076 47124 0
-53268 53272 0
-53304 53272 53300 53268 -53267 0
-53268 53276 0
-53267 53299 0
-57364 57368 0
-57376 57368 57372 57364 -57363 0
-57364 57372 0
-57363 57395 0
-57364 57396 0
-45092 45096 0
-45092 45108 0
-53284 53288 0
-53284 53292 0
-57380 57384 0
-57392 57384 57388 57380 -57379 0
-57400 57384 57396 57380 -57379 0
-57380 57388 0
-57404 57388 57396 57380 -57379 0
-57380 57396 0
-47108 47116 0
-47108 47124 0
-47108 47140 0
-61444 61448 0
-61444 61452 0
-61444 61460 0
-61444 61476 0
-8256 41024 0
-16448 49216 0
-61472 28704 53280 20512 -20511 0
-24608 57376 0
-61472 45088 57376 40992 -40991 0
-40992 57376 0
-61472 53280 57376 49184 -49183 0
-49184 57376 0
-61488 28720 57392 24624 -24623 0
-24624 57392 0
-61488 45104 57392 41008 -41007 0
-41008 57392 0
-49200 57392 0
-11280 44048 0
-45072 45104 0
-57360 57376 0
-57408 57376 57392 57360 -57359 0
-57360 57392 0
-6200 38968 0
-61496 28728 53304 20536 -20535 0
-20536 53304 0
-24632 57400 0
-47160 45112 47128 45080 -45079 0
-45080 47128 0
-57368 57376 0
-57368 57400 0
-53288 53296 0
-57384 57392 0
-57384 57400 0
-61448 61456 0
-61448 61464 0
-61448 61480 0
-33852 42044 0
-12348 45116 0
-61500 28732 57404 24636 -24635 0
-24636 57404 0
-41020 57404 0
-49212 57404 0
-53276 53280 0
-53276 53308 0
-57372 57376 0
-57408 57392 57404 57388 -57387 0
-57388 57404 0
-47116 47132 0
-61452 61468 0
-61452 61484 0
-57396 57404 0
-47124 47156 0
-61460 61492 0
-41024 57408 0
-38968 47160 0
-61464 61472 0
-61480 61488 0
-61480 61496 0
-61484 61500 0
-65538 0
-65543 0
-65547 0
-65555 0
-65571 0
-98307 0
-65552 0
-65560 0
-65576 0
-73736 0
-81928 0
-98312 0
-65564 0
-65580 0
-73740 0
-81932 0
-98316 0
-65588 0
-73748 0
-81940 0
-98324 0
-73764 0
-81956 0
-98340 0
-90116 0
-114692 0
-98356 98355 0
-73734 8198 65542 6 -5 0
-98314 32778 65546 10 -9 0
-73746 8210 65554 18 -17 0
-98322 32786 65554 18 -17 0
-73762 8226 65570 34 -33 0
-81954 16418 65570 34 -33 0
-98338 32802 65570 34 -33 0
-65550 65542 65546 65538 -65537 0
-65558 65542 65554 65538 -65537 0
-65574 65542 65570 65538 -65537 0
-65578 65546 65570 65538 -65537 0
-73730 65537 0
-81935 16399 65551 15 -14 0
-98319 32783 65551 15 -14 0
-14 65550 0
-81943 16407 65559 23 -22 0
-98327 32791 65559 23 -22 0
-22 65558 0
-73767 8231 65575 39 -38 0
-81959 16423 65575 39 -38 0
-98343 32807 65575 39 -38 0
-38 65574 0
-90119 24583 73735 8199 -8198 0
-73735 8198 0
-81935 16399 81927 16391 -16390 0
-81943 16407 81927 16391 -16390 0
-81959 16423 81927 16391 -16390 0
-90119 24583 81927 16391 -16390 0
-114695 49159 81927 16391 -16390 0
-81927 16390 0
-98319 32783 98311 32775 -32774 0
-98327 32791 98311 32775 -32774 0
-98343 32807 98311 32775 -32774 0
-106503 40967 98311 32775 -32774 0
-114695 49159 98311 32775 -32774 0
-98311 32774 0
-65551 65542 0
-65567 65551 65559 65543 -65542 0
-65583 65551 65575 65543 -65542 0
-98319 65551 98311 65543 -65542 0
-65559 65542 0
-65591 65559 65575 65543 -65542 0
-98327 65559 98311 65543 -65542 0
-65575 65542 0
-98343 65575 98311 65543 -65542 0
-73735 65542 0
-106503 73735 98311 65543 -65542 0
-81927 65542 0
-114695 81927 98311 65543 -65542 0
-81947 16411 65563 27 -26 0
-98331 32795 65563 27 -26 0
-26 65562 0
-73771 8235 65579 43 -42 0
-81963 16427 65579 43 -42 0
-98347 32811 65579 43 -42 0
-42 65578 0
-81963 16427 81931 16395 -16394 0
-98319 32783 98315 32779 -32778 0
-98331 32795 98315 32779 -32778 0
-98347 32811 98315 32779 -32778 0
-106507 40971 98315 32779 -32778 0
-114699 49163 98315 32779 -32778 0
-98315 32778 0
-65551 65546 0
-65567 65551 65563 65547 -65546 0
-65583 65551 65579 65547 -65546 0
-98319 65551 98315 65547 -65546 0
-65563 65546 0
-65595 65563 65579 65547 -65546 0
-65579 65546 0
-98347 65579 98315 65547 -65546 0
-73739 65546 0
-106507 73739 98315 65547 -65546 0
-81931 65546 0
-114699 81931 98315 65547 -65546 0
-98315 65546 0
-73779 8243 65587 51 -50 0
-81971 16435 65587 51 -50 0
-50 65586 0
-73747 8210 0
-98327 32791 98323 32787 -32786 0
-98331 32795 98323 32787 -32786 0
-98355 32819 98323 32787 -32786 0
-106515 40979 98323 32787 -32786 0
-114707 49171 98323 32787 -32786 0
-98323 32786 0
-65559 65554 0
-65567 65559 65563 65555 -65554 0
-65591 65559 65587 65555 -65554 0
-81943 65559 81939 65555 -65554 0
-65563 65554 0
-81947 65563 81939 65555 -65554 0
-98331 65563 98323 65555 -65554 0
-65587 65554 0
-98355 65587 98323 65555 -65554 0
-73747 65554 0
-106515 73747 98323 65555 -65554 0
-81939 65554 0
-114707 81939 98323 65555 -65554 0
-98323 65554 0
-90147 24611 73763 8227 -8226 0
-81955 16418 0
-98343 32807 98339 32803 -32802 0
-98347 32811 98339 32803 -32802 0
-106531 40995 98339 32803 -32802 0
-114723 49187 98339 32803 -32802 0
-98339 32802 0
-65575 65570 0
-65591 65575 65587 65571 -65570 0
-65579 65570 0
-65595 65579 65587 65571 -65570 0
-81963 65579 81955 65571 -65570 0
-65587 65570 0
-98355 65587 98339 65571 -65570 0
-73763 65570 0
-106531 73763 98339 65571 -65570 0
-81955 65570 0
-98339 65570 0
-73730 73734 0
-73730 73746 0
-73730 73762 0
-90115 73730 0
-81922 81954 0
-90115 81922 0
-98319 98311 98315 98307 -98306 0
-98327 98311 98323 98307 -98306 0
-98343 98311 98339 98307 -98306 0
-98306 98314 0
-98331 98315 98323 98307 -98306 0
-98347 98315 98339 98307 -98306 0
-98306 98322 0
-98355 98323 98339 98307 -98306 0
-98306 98338 0
-106499 98306 0
-73760 8224 65568 32 -31 0
-81952 16416 65568 32 -31 0
-98336 32800 65568 32 -31 0
-31 65567 0
-73776 8240 65584 48 -47 0
-81968 16432 65584 48 -47 0
-98352 32816 65584 48 -47 0
-47 65583 0
-90128 24592 73744 8208 -8207 0
-81952 16416 81936 16400 -16399 0
-81968 16432 81936 16400 -16399 0
-90128 24592 81936 16400 -16399 0
-114704 49168 81936 16400 -16399 0
-81936 16399 0
-98336 32800 98320 32784 -32783 0
-98352 32816 98320 32784 -32783 0
-106512 40976 98320 32784 -32783 0
-114703 49167 98319 32783 -32782 0
-114704 49168 98320 32784 -32783 0
-32783 98319 0
-98320 32783 0
-65568 65551 0
-65600 65568 65584 65552 -65551 0
-98336 65568 98320 65552 -65551 0
-65584 65551 0
-81968 65584 81936 65552 -65551 0
-98352 65584 98320 65552 -65551 0
-73744 65551 0
-65551 81935 0
-81936 65551 0
-114704 81936 98320 65552 -65551 0
-65551 98319 0
-98320 65551 0
-81976 16440 65592 56 -55 0
-98360 32824 65592 56 -55 0
-55 65591 0
-77848 12312 73752 8216 -8215 0
-106520 40984 73752 8216 -8215 0
-8215 73751 0
-81952 16416 81944 16408 -16407 0
-81976 16440 81944 16408 -16407 0
-90136 24600 81944 16408 -16407 0
-114712 49176 81944 16408 -16407 0
-16407 81943 0
-81944 16407 0
-98336 32800 98328 32792 -32791 0
-98360 32824 98328 32792 -32791 0
-114712 49176 98328 32792 -32791 0
-32791 98327 0
-98328 32791 0
-65568 65559 0
-65600 65568 65592 65560 -65559 0
-98336 65568 98328 65560 -65559 0
-65592 65559 0
-81976 65592 81944 65560 -65559 0
-98360 65592 98328 65560 -65559 0
-81944 65559 0
-114712 81944 98328 65560 -65559 0
-65559 98327 0
-98328 65559 0
-73768 8231 0
-81968 16432 81960 16424 -16423 0
-81976 16440 81960 16424 -16423 0
-90152 24616 81960 16424 -16423 0
-114728 49192 81960 16424 -16423 0
-16423 81959 0
-81960 16423 0
-98352 32816 98344 32808 -32807 0
-98360 32824 98344 32808 -32807 0
-106536 41000 98344 32808 -32807 0
-114727 49191 98343 32807 -32806 0
-114728 49192 98344 32808 -32807 0
-32807 98343 0
-98344 32807 0
-65584 65575 0
-65600 65584 65592 65576 -65575 0
-98352 65584 98344 65576 -65575 0
-65592 65575 0
-81976 65592 81960 65576 -65575 0
-98360 65592 98344 65576 -65575 0
-90152 73768 81960 65576 -65575 0
-106535 73767 98343 65575 -65574 0
-81960 65575 0
-114728 81960 98344 65576 -65575 0
-65575 98343 0
-98344 65575 0
-94216 28680 77832 12296 -12295 0
-122888 57352 90120 24584 -24583 0
-90120 24583 0
-122888 57352 106504 40968 -40967 0
-106504 40967 0
-73735 73767 0
-122888 90120 106504 73736 -73735 0
-106504 73735 0
-114704 49168 114696 49160 -49159 0
-114712 49176 114696 49160 -49159 0
-114728 49192 114696 49160 -49159 0
-122888 57352 114696 49160 -49159 0
-114696 49159 0
-81927 81935 0
-81936 81927 0
-90128 81936 90120 81928 -81927 0
-114704 81936 114696 81928 -81927 0
-81927 81943 0
-81976 81944 81960 81928 -81927 0
-90136 81944 90120 81928 -81927 0
-114712 81944 114696 81928 -81927 0
-81927 81959 0
-90120 81927 0
-122888 90120 114696 81928 -81927 0
-114696 81927 0
-98311 98319 0
-98320 98311 0
-98336 98320 98328 98312 -98311 0
-98352 98320 98344 98312 -98311 0
-114704 98320 114696 98312 -98311 0
-98311 98327 0
-98328 98311 0
-98360 98328 98344 98312 -98311 0
-114712 98328 114696 98312 -98311 0
-98311 98343 0
-98344 98311 0
-114728 98344 114696 98312 -98311 0
-106504 98311 0
-122888 106504 114696 98312 -98311 0
-114696 98311 0
-73788 8252 65596 60 -59 0
-81980 16444 65596 60 -59 0
-98364 32828 65596 60 -59 0
-59 65595 0
-77852 12316 73756 8220 -8219 0
-90139 24603 81947 16411 -16410 0
-90140 24604 81948 16412 -16411 0
-16411 81947 0
-81948 16411 0
-98336 32800 98332 32796 -32795 0
-98364 32828 98332 32796 -32795 0
-106524 40988 98332 32796 -32795 0
-114715 49179 98331 32795 -32794 0
-114716 49180 98332 32796 -32795 0
-32795 98331 0
-98332 32795 0
-65568 65563 0
-65600 65568 65596 65564 -65563 0
-98336 65568 98332 65564 -65563 0
-65596 65563 0
-98364 65596 98332 65564 -65563 0
-65563 69659 0
-65563 73755 0
-81948 65563 0
-114716 81948 98332 65564 -65563 0
-65563 98331 0
-98332 65563 0
-106540 41004 73772 8236 -8235 0
-81968 16432 81964 16428 -16427 0
-86060 20524 81964 16428 -16427 0
-90156 24620 81964 16428 -16427 0
-114732 49196 81964 16428 -16427 0
-81964 16427 0
-98352 32816 98348 32812 -32811 0
-98364 32828 98348 32812 -32811 0
-106540 41004 98348 32812 -32811 0
-114731 49195 98347 32811 -32810 0
-114732 49196 98348 32812 -32811 0
-32811 98347 0
-98348 32811 0
-65584 65579 0
-65600 65584 65596 65580 -65579 0
-73776 65584 73772 65580 -65579 0
-98352 65584 98348 65580 -65579 0
-65596 65579 0
-98364 65596 98348 65580 -65579 0
-73772 65579 0
-65579 81963 0
-81964 65579 0
-114732 81964 98348 65580 -65579 0
-65579 98347 0
-98348 65579 0
-83980 18443 0
-86032 20496 86028 20492 -20491 0
-90128 24592 90124 24588 -24587 0
-90156 24620 90124 24588 -24587 0
-90124 24587 0
-122892 57356 106508 40972 -40971 0
-106508 40971 0
-73739 73771 0
-122892 90124 106508 73740 -73739 0
-106508 73739 0
-114704 49168 114700 49164 -49163 0
-114716 49180 114700 49164 -49163 0
-114732 49196 114700 49164 -49163 0
-122892 57356 114700 49164 -49163 0
-114700 49163 0
-81931 81935 0
-81968 81936 81964 81932 -81931 0
-114704 81936 114700 81932 -81931 0
-81931 81947 0
-114716 81948 114700 81932 -81931 0
-81931 81963 0
-81964 81931 0
-114732 81964 114700 81932 -81931 0
-116748 83980 114700 81932 -81931 0
-122892 90124 114700 81932 -81931 0
-114700 81931 0
-98315 98319 0
-98320 98315 0
-98335 98319 98331 98315 -98314 0
-98336 98320 98332 98316 -98315 0
-98351 98319 98347 98315 -98314 0
-98352 98320 98348 98316 -98315 0
-114704 98320 114700 98316 -98315 0
-98315 98331 0
-98332 98315 0
-98364 98332 98348 98316 -98315 0
-114716 98332 114700 98316 -98315 0
-98315 98347 0
-98348 98315 0
-114732 98348 114700 98316 -98315 0
-106508 98315 0
-122892 106508 114700 98316 -98315 0
-114700 98315 0
-90163 24627 73779 8243 -8242 0
-73780 8243 0
-81980 16444 81972 16436 -16435 0
-90164 24628 81972 16436 -16435 0
-114740 49204 81972 16436 -16435 0
-81972 16435 0
-98360 32824 98356 32820 -32819 0
-98364 32828 98356 32820 -32819 0
-106548 41012 98356 32820 -32819 0
-114739 49203 98355 32819 -32818 0
-114740 49204 98356 32820 -32819 0
-32819 98355 0
-98356 32819 0
-65592 65587 0
-65600 65592 65596 65588 -65587 0
-98360 65592 98356 65588 -65587 0
-65596 65587 0
-81980 65596 81972 65588 -65587 0
-98364 65596 98356 65588 -65587 0
-67636 65587 0
-65587 81971 0
-81972 65587 0
-114740 81972 98356 65588 -65587 0
-65587 98355 0
-98356 65587 0
-90140 24604 90132 24596 -24595 0
-90132 24595 0
-122900 57364 106516 40980 -40979 0
-106516 40979 0
-106548 73780 106516 73748 -73747 0
-122900 90132 106516 73748 -73747 0
-106516 73747 0
-114712 49176 114708 49172 -49171 0
-114716 49180 114708 49172 -49171 0
-114740 49204 114708 49172 -49171 0
-122900 57364 114708 49172 -49171 0
-114708 49171 0
-81939 81943 0
-81944 81939 0
-90136 81944 90132 81940 -81939 0
-81939 81947 0
-81948 81939 0
-90140 81948 90132 81940 -81939 0
-114716 81948 114708 81940 -81939 0
-81939 81971 0
-122900 90132 114708 81940 -81939 0
-114708 81939 0
-98323 98327 0
-98328 98323 0
-98336 98328 98332 98324 -98323 0
-98360 98328 98356 98324 -98323 0
-114712 98328 114708 98324 -98323 0
-98323 98331 0
-98332 98323 0
-98364 98332 98356 98324 -98323 0
-114716 98332 114708 98324 -98323 0
-98323 98355 0
-98356 98323 0
-114740 98356 114708 98324 -98323 0
-106516 98323 0
-122900 106516 114708 98324 -98323 0
-114708 98323 0
-90152 24616 90148 24612 -24611 0
-90148 24611 0
-122916 57380 106532 40996 -40995 0
-106532 40995 0
-122916 90148 106532 73764 -73763 0
-114728 49192 114724 49188 -49187 0
-114732 49196 114724 49188 -49187 0
-114740 49204 114724 49188 -49187 0
-118820 53284 114724 49188 -49187 0
-122916 57380 114724 49188 -49187 0
-114724 49187 0
-81955 81959 0
-81955 81963 0
-81964 81955 0
-114732 81964 114724 81956 -81955 0
-114740 81972 114724 81956 -81955 0
-122916 90148 114724 81956 -81955 0
-114724 81955 0
-98339 98343 0
-98344 98339 0
-98352 98344 98348 98340 -98339 0
-98360 98344 98356 98340 -98339 0
-114728 98344 114724 98340 -98339 0
-98339 98347 0
-98348 98339 0
-98364 98348 98356 98340 -98339 0
-114732 98348 114724 98340 -98339 0
-98339 98355 0
-98356 98339 0
-114740 98356 114724 98340 -98339 0
-106532 98339 0
-122916 106532 114724 98340 -98339 0
-114724 98339 0
-116744 51208 116740 51204 -51203 0
-94228 28692 94212 28676 -28675 0
-53251 118787 0
-90115 90119 0
-90128 90120 90124 90116 -90115 0
-90115 90123 0
-90115 90131 0
-90115 90147 0
-122884 90115 0
-106499 106503 0
-106499 106507 0
-106499 106515 0
-106499 106531 0
-122884 106499 0
-114691 114695 0
-114704 114696 114700 114692 -114691 0
-114712 114696 114708 114692 -114691 0
-114728 114696 114724 114692 -114691 0
-118792 114696 118788 114692 -114691 0
-114691 114699 0
-114716 114700 114708 114692 -114691 0
-114732 114700 114724 114692 -114691 0
-114691 114707 0
-114740 114708 114724 114692 -114691 0
-118804 114708 118788 114692 -114691 0
-114691 114723 0
-122884 114691 0
-64 65600 0
-2080 67616 0
-90144 24608 73760 8224 -8223 0
-90144 24608 81952 16416 -16415 0
-16415 81951 0
-16416 81952 0
-106528 40992 98336 32800 -32799 0
-114720 49184 98336 32800 -32799 0
-32799 98335 0
-32800 98336 0
-65568 81952 0
-65568 98336 0
-90160 24624 73776 8240 -8239 0
-8240 73776 0
-90160 24624 81968 16432 -16431 0
-114736 49200 81968 16432 -16431 0
-16432 81968 0
-114736 49200 98352 32816 -32815 0
-32815 98351 0
-32816 98352 0
-65584 73776 0
-106544 73776 98352 65584 -65583 0
-65584 81968 0
-65584 98352 0
-122896 57360 90128 24592 -24591 0
-114720 49184 114704 49168 -49167 0
-122896 57360 114704 49168 -49167 0
-49168 114704 0
-81936 81952 0
-81936 81968 0
-81936 86032 0
-81936 90128 0
-81936 114704 0
-98320 98336 0
-114720 98336 114704 98320 -98319 0
-98320 98352 0
-114736 98352 114704 98320 -98319 0
-114704 98319 0
-98320 114704 0
-90168 24632 81976 16440 -16439 0
-114744 49208 81976 16440 -16439 0
-16439 81975 0
-16440 81976 0
-114744 49208 98360 32824 -32823 0
-32823 98359 0
-32824 98360 0
-65592 81976 0
-65592 98360 0
-90144 24608 90136 24600 -24599 0
-90168 24632 90136 24600 -24599 0
-94232 28696 90136 24600 -24599 0
-24600 90136 0
-122904 57368 114712 49176 -49175 0
-114712 49175 0
-49176 114712 0
-81952 81943 0
-81944 81952 0
-81976 81943 0
-81944 81976 0
-81944 90136 0
-122904 90136 114712 81944 -81943 0
-81944 114712 0
-98336 98327 0
-98328 98336 0
-98368 98336 98360 98328 -98327 0
-114720 98336 114712 98328 -98327 0
-98360 98327 0
-98328 98360 0
-114744 98360 114712 98328 -98327 0
-114712 98327 0
-98328 114712 0
-122920 57384 106536 41000 -40999 0
-106536 40999 0
-41000 106536 0
-114736 49200 114728 49192 -49191 0
-114744 49208 114728 49192 -49191 0
-122920 57384 114728 49192 -49191 0
-114728 49191 0
-49192 114728 0
-81968 81959 0
-81960 81968 0
-81984 81968 81976 81960 -81959 0
-114736 81968 114728 81960 -81959 0
-81976 81959 0
-81960 81976 0
-81960 114728 0
-98352 98343 0
-98344 98352 0
-98368 98352 98360 98344 -98343 0
-98360 98343 0
-98344 98360 0
-122920 106536 114728 98344 -98343 0
-114728 98343 0
-98344 114728 0
-77832 77848 0
-90120 90128 0
-94224 90128 94216 90120 -90119 0
-90120 90136 0
-90120 90152 0
-90120 94216 0
-106503 106535 0
-106504 106536 0
-114695 114703 0
-114696 114704 0
-114720 114704 114712 114696 -114695 0
-114736 114704 114728 114696 -114695 0
-114696 114712 0
-114744 114712 114728 114696 -114695 0
-114695 114727 0
-114696 114728 0
-114696 116744 0
-90172 24636 73788 8252 -8251 0
-8252 73788 0
-114748 49212 81980 16444 -16443 0
-16443 81979 0
-16444 81980 0
-114748 49212 98364 32828 -32827 0
-32827 98363 0
-32828 98364 0
-65596 73788 0
-106556 73788 98364 65596 -65595 0
-65596 81980 0
-114748 81980 98364 65596 -65595 0
-65596 98364 0
-79900 14364 77852 12316 -12315 0
-69659 77851 0
-122908 57372 106524 40988 -40987 0
-94236 77852 90140 73756 -73755 0
-73756 90140 0
-114748 49212 114716 49180 -49179 0
-122908 57372 114716 49180 -49179 0
-49180 114716 0
-81948 81952 0
-81948 81980 0
-81948 90140 0
-122908 90140 114716 81948 -81947 0
-81948 114716 0
-98336 98331 0
-98332 98336 0
-114720 98336 114716 98332 -98331 0
-98364 98331 0
-98332 98364 0
-114748 98364 114716 98332 -98331 0
-98332 114716 0
-122924 57388 106540 41004 -41003 0
-73772 90156 0
-114736 49200 114732 49196 -49195 0
-114748 49212 114732 49196 -49195 0
-122924 57388 114732 49196 -49195 0
-114732 49195 0
-49196 114732 0
-81964 81968 0
-81964 90156 0
-81964 114732 0
-98348 98352 0
-98368 98352 98364 98348 -98347 0
-98364 98347 0
-98348 98364 0
-114732 98347 0
-98348 114732 0
-86028 86060 0
-90124 90128 0
-90123 90139 0
-90124 90140 0
-90124 90156 0
-106508 106512 0
-106508 106524 0
-106508 106540 0
-114700 114704 0
-114720 114704 114716 114700 -114699 0
-114736 114704 114732 114700 -114699 0
-114699 114715 0
-114700 114716 0
-114748 114716 114732 114700 -114699 0
-114699 114731 0
-114700 114732 0
-122932 57396 106548 41012 -41011 0
-114744 49208 114740 49204 -49203 0
-114748 49212 114740 49204 -49203 0
-122932 57396 114740 49204 -49203 0
-114740 49203 0
-49204 114740 0
-81972 81976 0
-81972 81980 0
-114748 81980 114740 81972 -81971 0
-81972 114740 0
-98356 98360 0
-98368 98360 98364 98356 -98355 0
-114744 98360 114740 98356 -98355 0
-98364 98355 0
-98356 98364 0
-114748 98364 114740 98356 -98355 0
-114740 98355 0
-98356 114740 0
-90132 90136 0
-90131 90163 0
-90132 90164 0
-90132 94228 0
-114708 114712 0
-114720 114712 114716 114708 -114707 0
-114744 114712 114740 114708 -114707 0
-114708 114716 0
-114748 114716 114740 114708 -114707 0
-114707 114739 0
-114708 114740 0
-90160 90152 90156 90148 -90147 0
-90148 90156 0
-106532 106548 0
-114724 114728 0
-114736 114728 114732 114724 -114723 0
-114744 114728 114740 114724 -114723 0
-114724 114732 0
-114748 114732 114740 114724 -114723 0
-114724 114740 0
-116740 116748 0
-94212 94216 0
-118808 118792 118804 118788 -118787 0
-118788 118820 0
-122884 122888 0
-122884 122892 0
-122884 122900 0
-122884 122916 0
-16448 81984 0
-32832 98368 0
-122912 57376 106528 40992 -40991 0
-49184 114720 0
-122912 90144 114720 81952 -81951 0
-81952 114720 0
-98336 114720 0
-122928 57392 90160 24624 -24623 0
-49200 114736 0
-81968 90160 0
-81968 114736 0
-122928 106544 114736 98352 -98351 0
-98352 114736 0
-28688 94224 0
-90128 90144 0
-90128 90160 0
-90128 94224 0
-114704 114720 0
-114704 114736 0
-122936 57400 90168 24632 -24631 0
-49208 114744 0
-81976 90168 0
-81976 114744 0
-98360 114744 0
-94240 28704 94232 28696 -28695 0
-28696 94232 0
-53272 118808 0
-90136 90168 0
-114712 114720 0
-114728 114736 0
-114728 114744 0
-122888 122896 0
-122888 122904 0
-122888 122920 0
-122940 57404 90172 24636 -24635 0
-49212 114748 0
-81980 114748 0
-122940 106556 114748 98364 -98363 0
-98364 114748 0
-96284 79900 94236 77852 -77851 0
-114716 114748 0
-114732 114748 0
-30732 96268 0
-122892 122908 0
-122892 122924 0
-114740 114744 0
-114752 114744 114748 114740 -114739 0
-114740 114748 0
-122900 122932 0
-81984 114752 0
-94224 94240 0
-122904 122912 0
-122920 122928 0
-122920 122936 0
-122924 122940 0
-96268 96284 0
-131074 0
-131079 0
-131083 0
-131091 0
-131107 0
-139267 0
-147459 0
-163843 0
-196611 0
-131088 0
-131096 0
-131112 0
-147464 0
-163848 0
-196616 0
-131100 0
-131116 0
-139276 0
-147468 0
-163852 0
-196620 0
-131124 0
-139284 0
-147476 0
-163860 0
-196628 0
-147492 0
-163876 0
-196644 0
-143364 0
-155652 0
-180228 0
-229380 0
-163846 32774 131078 6 -5 0
-196614 65542 131078 6 -5 0
-147466 16394 131082 10 -9 0
-163850 32778 131082 10 -9 0
-196618 65546 131082 10 -9 0
-147474 16402 131090 18 -17 0
-163858 32786 131090 18 -17 0
-196626 65554 131090 18 -17 0
-147490 16418 131106 34 -33 0
-163874 32802 131106 34 -33 0
-196642 65570 131106 34 -33 0
-131094 131078 131090 131074 -131073 0
-131098 131082 131090 131074 -131073 0
-131114 131082 131106 131074 -131073 0
-139274 131082 139266 131074 -131073 0
-147458 131073 0
-147471 16399 131087 15 -14 0
-163855 32783 131087 15 -14 0
-196623 65551 131087 15 -14 0
-14 131086 0
-147479 16407 131095 23 -22 0
-163863 32791 131095 23 -22 0
-196631 65559 131095 23 -22 0
-22 131094 0
-147495 16423 131111 39 -38 0
-163879 32807 131111 39 -38 0
-196647 65575 131111 39 -38 0
-38 131110 0
-147471 16399 147463 16391 -16390 0
-147479 16407 147463 16391 -16390 0
-180231 49159 147463 16391 -16390 0
-147463 16390 0
-163863 32791 163847 32775 -32774 0
-180231 49159 163847 32775 -32774 0
-163847 32774 0
-196623 65551 196615 65543 -65542 0
-196631 65559 196615 65543 -65542 0
-196647 65575 196615 65543 -65542 0
-212999 81927 196615 65543 -65542 0
-229383 98311 196615 65543 -65542 0
-196615 65542 0
-131087 131078 0
-131103 131087 131095 131079 -131078 0
-131119 131087 131111 131079 -131078 0
-163855 131087 163847 131079 -131078 0
-196623 131087 196615 131079 -131078 0
-131095 131078 0
-131127 131095 131111 131079 -131078 0
-196631 131095 196615 131079 -131078 0
-131111 131078 0
-196647 131111 196615 131079 -131078 0
-147463 131078 0
-212999 147463 196615 131079 -131078 0
-163847 131078 0
-229383 163847 196615 131079 -131078 0
-196615 131078 0
-147483 16411 131099 27 -26 0
-163867 32795 131099 27 -26 0
-196635 65563 131099 27 -26 0
-26 131098 0
-147499 16427 131115 43 -42 0
-163883 32811 131115 43 -42 0
-196651 65579 131115 43 -42 0
-42 131114 0
-8202 139274 0
-180235 49163 147467 16395 -16394 0
-180235 49163 163851 32779 -32778 0
-229387 98315 163851 32779 -32778 0
-163851 32778 0
-196623 65551 196619 65547 -65546 0
-196635 65563 196619 65547 -65546 0
-196651 65579 196619 65547 -65546 0
-229387 98315 196619 65547 -65546 0
-131087 131082 0
-131103 131087 131099 131083 -131082 0
-131119 131087 131115 131083 -131082 0
-196623 131087 196619 131083 -131082 0
-131099 131082 0
-131131 131099 131115 131083 -131082 0
-147483 131099 147467 131083 -131082 0
-196635 131099 196619 131083 -131082 0
-163883 131115 163851 131083 -131082 0
-196651 131115 196619 131083 -131082 0
-139275 131082 0
-147467 131082 0
-163851 131082 0
-229387 163851 196619 131083 -131082 0
-196619 131082 0
-147507 16435 131123 51 -50 0
-163891 32819 131123 51 -50 0
-196659 65587 131123 51 -50 0
-50 131122 0
-147479 16407 147475 16403 -16402 0
-180243 49171 147475 16403 -16402 0
-213011 81939 147475 16403 -16402 0
-163867 32795 163859 32787 -32786 0
-163891 32819 163859 32787 -32786 0
-180243 49171 163859 32787 -32786 0
-229395 98323 163859 32787 -32786 0
-163859 32786 0
-196631 65559 196627 65555 -65554 0
-196635 65563 196627 65555 -65554 0
-196659 65587 196627 65555 -65554 0
-213011 81939 196627 65555 -65554 0
-229395 98323 196627 65555 -65554 0
-131095 131090 0
-131103 131095 131099 131091 -131090 0
-131127 131095 131123 131091 -131090 0
-131099 131090 0
-131131 131099 131123 131091 -131090 0
-163867 131099 163859 131091 -131090 0
-196635 131099 196627 131091 -131090 0
-131123 131090 0
-196659 131123 196627 131091 -131090 0
-139283 131090 0
-147475 131090 0
-213011 147475 196627 131091 -131090 0
-163859 131090 0
-229395 163859 196627 131091 -131090 0
-196627 131090 0
-180259 49187 147491 16419 -16418 0
-163879 32807 163875 32803 -32802 0
-163891 32819 163875 32803 -32802 0
-172067 40995 163875 32803 -32802 0
-180259 49187 163875 32803 -32802 0
-229411 98339 163875 32803 -32802 0
-196647 65575 196643 65571 -65570 0
-196651 65579 196643 65571 -65570 0
-196659 65587 196643 65571 -65570 0
-213027 81955 196643 65571 -65570 0
-229411 98339 196643 65571 -65570 0
-196643 65570 0
-131111 131106 0
-131119 131111 131115 131107 -131106 0
-131127 131111 131123 131107 -131106 0
-196647 131111 196643 131107 -131106 0
-131115 131106 0
-131131 131115 131123 131107 -131106 0
-147499 131115 147491 131107 -131106 0
-163883 131115 163875 131107 -131106 0
-196651 131115 196643 131107 -131106 0
-131123 131106 0
-163891 131123 163875 131107 -131106 0
-196659 131123 196643 131107 -131106 0
-147491 131106 0
-213027 147491 196643 131107 -131106 0
-163875 131106 0
-229411 163875 196643 131107 -131106 0
-196643 131106 0
-139291 139275 139283 139267 -139266 0
-143371 139275 143363 139267 -139266 0
-147458 147466 0
-155659 147467 155651 147459 -147458 0
-147458 147474 0
-147458 147490 0
-180227 147458 0
-163842 163846 0
-163855 163847 163851 163843 -163842 0
-163842 163850 0
-163842 163858 0
-163891 163859 163875 163843 -163842 0
-163842 163874 0
-180227 163842 0
-196610 196614 0
-196623 196615 196619 196611 -196610 0
-196631 196615 196627 196611 -196610 0
-196647 196615 196643 196611 -196610 0
-196610 196618 0
-196635 196619 196627 196611 -196610 0
-196651 196619 196643 196611 -196610 0
-196610 196626 0
-196659 196627 196643 196611 -196610 0
-196610 196642 0
-212995 196610 0
-163872 32800 131104 32 -31 0
-196640 65568 131104 32 -31 0
-31 131103 0
-163888 32816 131120 48 -47 0
-196656 65584 131120 48 -47 0
-47 131119 0
-143376 12304 135184 4112 -4111 0
-155664 24592 147472 16400 -16399 0
-180239 49167 147471 16399 -16398 0
-213008 81936 147472 16400 -16399 0
-147472 16399 0
-163872 32800 163856 32784 -32783 0
-163888 32816 163856 32784 -32783 0
-180239 49167 163855 32783 -32782 0
-180240 49168 163856 32784 -32783 0
-229391 98319 163855 32783 -32782 0
-229392 98320 163856 32784 -32783 0
-32783 163855 0
-163856 32783 0
-196640 65568 196624 65552 -65551 0
-196656 65584 196624 65552 -65551 0
-229392 98320 196624 65552 -65551 0
-65551 196623 0
-196624 65551 0
-131104 131087 0
-131136 131104 131120 131088 -131087 0
-163872 131104 163856 131088 -131087 0
-196640 131104 196624 131088 -131087 0
-131120 131087 0
-163888 131120 163856 131088 -131087 0
-196656 131120 196624 131088 -131087 0
-135184 131087 0
-139280 131087 0
-131087 147471 0
-147472 131087 0
-213008 147472 196624 131088 -131087 0
-131087 163855 0
-163856 131087 0
-229392 163856 196624 131088 -131087 0
-131087 196623 0
-196624 131087 0
-139320 8248 131128 56 -55 0
-147512 16440 131128 56 -55 0
-163896 32824 131128 56 -55 0
-196664 65592 131128 56 -55 0
-55 131127 0
-143384 12312 139288 8216 -8215 0
-172056 40984 139288 8216 -8215 0
-8215 139287 0
-147512 16440 147480 16408 -16407 0
-180247 49175 147479 16407 -16406 0
-213016 81944 147480 16408 -16407 0
-147480 16407 0
-163872 32800 163864 32792 -32791 0
-163896 32824 163864 32792 -32791 0
-180248 49176 163864 32792 -32791 0
-229400 98328 163864 32792 -32791 0
-32791 163863 0
-163864 32791 0
-196640 65568 196632 65560 -65559 0
-196664 65592 196632 65560 -65559 0
-229400 98328 196632 65560 -65559 0
-65559 196631 0
-196632 65559 0
-131104 131095 0
-131136 131104 131128 131096 -131095 0
-147488 131104 147480 131096 -131095 0
-163872 131104 163864 131096 -131095 0
-196640 131104 196632 131096 -131095 0
-131128 131095 0
-163896 131128 163864 131096 -131095 0
-196664 131128 196632 131096 -131095 0
-204824 139288 196632 131096 -131095 0
-147480 131095 0
-180248 147480 163864 131096 -131095 0
-213016 147480 196632 131096 -131095 0
-131095 163863 0
-163864 131095 0
-229400 163864 196632 131096 -131095 0
-131095 196631 0
-196632 131095 0
-180264 49192 147496 16424 -16423 0
-163896 32824 163880 32808 -32807 0
-180263 49191 163879 32807 -32806 0
-180264 49192 163880 32808 -32807 0
-229415 98343 163879 32807 -32806 0
-229416 98344 163880 32808 -32807 0
-163880 32807 0
-196656 65584 196648 65576 -65575 0
-196664 65592 196648 65576 -65575 0
-213031 81959 196647 65575 -65574 0
-213032 81960 196648 65576 -65575 0
-229415 98343 196647 65575 -65574 0
-229416 98344 196648 65576 -65575 0
-65575 196647 0
-196648 65575 0
-131120 131111 0
-131136 131120 131128 131112 -131111 0
-163888 131120 163880 131112 -131111 0
-196656 131120 196648 131112 -131111 0
-131128 131111 0
-163896 131128 163880 131112 -131111 0
-196664 131128 196648 131112 -131111 0
-147496 131111 0
-131111 163879 0
-163880 131111 0
-229416 163880 196648 131112 -131111 0
-131111 196647 0
-196648 131111 0
-180248 49176 180232 49160 -49159 0
-180264 49192 180232 49160 -49159 0
-188424 57352 180232 49160 -49159 0
-245768 114696 180232 49160 -49159 0
-180232 49159 0
-245768 114696 213000 81928 -81927 0
-213000 81927 0
-147463 147471 0
-147463 147479 0
-180248 147480 180232 147464 -147463 0
-147463 147495 0
-180232 147463 0
-245768 180232 213000 147464 -147463 0
-213000 147463 0
-229392 98320 229384 98312 -98311 0
-229400 98328 229384 98312 -98311 0
-229416 98344 229384 98312 -98311 0
-245768 114696 229384 98312 -98311 0
-229384 98311 0
-163847 163855 0
-163856 163847 0
-229392 163856 229384 163848 -163847 0
-163847 163863 0
-163864 163847 0
-180248 163864 180232 163848 -163847 0
-163847 163879 0
-163880 163847 0
-229416 163880 229384 163848 -163847 0
-180232 163847 0
-245768 180232 229384 163848 -163847 0
-229384 163847 0
-196615 196623 0
-196624 196615 0
-196640 196624 196632 196616 -196615 0
-196655 196623 196647 196615 -196614 0
-196656 196624 196648 196616 -196615 0
-229392 196624 229384 196616 -196615 0
-196615 196631 0
-196632 196615 0
-196663 196631 196647 196615 -196614 0
-196664 196632 196648 196616 -196615 0
-229400 196632 229384 196616 -196615 0
-196615 196647 0
-196648 196615 0
-213032 196648 213000 196616 -196615 0
-229416 196648 229384 196616 -196615 0
-213000 196615 0
-245768 213000 229384 196616 -196615 0
-229384 196615 0
-139324 8252 131132 60 -59 0
-147516 16444 131132 60 -59 0
-163900 32828 131132 60 -59 0
-196668 65596 131132 60 -59 0
-59 131131 0
-139296 8224 139292 8220 -8219 0
-8219 139291 0
-16411 147483 0
-147484 16411 0
-163872 32800 163868 32796 -32795 0
-180252 49180 163868 32796 -32795 0
-229404 98332 163868 32796 -32795 0
-32795 163867 0
-163868 32795 0
-196640 65568 196636 65564 -65563 0
-196668 65596 196636 65564 -65563 0
-213020 81948 196636 65564 -65563 0
-229404 98332 196636 65564 -65563 0
-65563 196635 0
-196636 65563 0
-131104 131099 0
-131136 131104 131132 131100 -131099 0
-196640 131104 196636 131100 -131099 0
-131132 131099 0
-163900 131132 163868 131100 -131099 0
-196668 131132 196636 131100 -131099 0
-139292 131099 0
-131099 147483 0
-213020 147484 196636 131100 -131099 0
-131099 163867 0
-163868 131099 0
-229404 163868 196636 131100 -131099 0
-131099 196635 0
-196636 131099 0
-143404 12332 139308 8236 -8235 0
-147504 16432 147500 16428 -16427 0
-180267 49195 147499 16427 -16426 0
-180268 49196 147500 16428 -16427 0
-16427 147499 0
-163888 32816 163884 32812 -32811 0
-163900 32828 163884 32812 -32811 0
-180268 49196 163884 32812 -32811 0
-229419 98347 163883 32811 -32810 0
-32811 163883 0
-163884 32811 0
-196656 65584 196652 65580 -65579 0
-196668 65596 196652 65580 -65579 0
-213036 81964 196652 65580 -65579 0
-229419 98347 196651 65579 -65578 0
-229420 98348 196652 65580 -65579 0
-65579 196651 0
-196652 65579 0
-131120 131115 0
-131136 131120 131132 131116 -131115 0
-196656 131120 196652 131116 -131115 0
-131132 131115 0
-163900 131132 163884 131116 -131115 0
-196668 131132 196652 131116 -131115 0
-139308 131115 0
-147500 131115 0
-131115 163883 0
-163884 131115 0
-229420 163884 196652 131116 -131115 0
-131115 196651 0
-196652 131115 0
-12299 143371 0
-155676 24604 155660 24588 -24587 0
-155692 24620 155660 24588 -24587 0
-159756 28684 155660 24588 -24587 0
-24587 155659 0
-139292 139275 0
-139324 139292 139308 139276 -139275 0
-155660 139275 0
-180240 49168 180236 49164 -49163 0
-180268 49196 180236 49164 -49163 0
-188428 57356 180236 49164 -49163 0
-245772 114700 180236 49164 -49163 0
-180236 49163 0
-213036 81964 213004 81932 -81931 0
-245772 114700 213004 81932 -81931 0
-213004 81931 0
-147467 147471 0
-213008 147472 213004 147468 -147467 0
-147467 147483 0
-180252 147484 180236 147468 -147467 0
-180236 147467 0
-213004 147467 0
-229392 98320 229388 98316 -98315 0
-229404 98332 229388 98316 -98315 0
-229420 98348 229388 98316 -98315 0
-245772 114700 229388 98316 -98315 0
-229388 98315 0
-163851 163855 0
-163856 163851 0
-163872 163856 163868 163852 -163851 0
-163851 163867 0
-163868 163851 0
-163900 163868 163884 163852 -163851 0
-163851 163883 0
-163884 163851 0
-180268 163884 180236 163852 -163851 0
-229420 163884 229388 163852 -163851 0
-180236 163851 0
-245772 180236 229388 163852 -163851 0
-229388 163851 0
-196619 196623 0
-196624 196619 0
-196640 196624 196636 196620 -196619 0
-196656 196624 196652 196620 -196619 0
-229392 196624 229388 196620 -196619 0
-196619 196635 0
-196636 196619 0
-196668 196636 196652 196620 -196619 0
-229404 196636 229388 196620 -196619 0
-196619 196651 0
-196652 196619 0
-229420 196652 229388 196620 -196619 0
-213004 196619 0
-245772 213004 229388 196620 -196619 0
-229388 196619 0
-143412 12340 139316 8244 -8243 0
-147512 16440 147508 16436 -16435 0
-147516 16444 147508 16436 -16435 0
-155700 24628 147508 16436 -16435 0
-180276 49204 147508 16436 -16435 0
-213044 81972 147508 16436 -16435 0
-163896 32824 163892 32820 -32819 0
-163900 32828 163892 32820 -32819 0
-180276 49204 163892 32820 -32819 0
-229428 98356 163892 32820 -32819 0
-32819 163891 0
-163892 32819 0
-196664 65592 196660 65588 -65587 0
-196668 65596 196660 65588 -65587 0
-213044 81972 196660 65588 -65587 0
-229428 98356 196660 65588 -65587 0
-65587 196659 0
-196660 65587 0
-131128 131123 0
-131136 131128 131132 131124 -131123 0
-196664 131128 196660 131124 -131123 0
-131132 131123 0
-135228 131132 135220 131124 -131123 0
-163900 131132 163892 131124 -131123 0
-196668 131132 196660 131124 -131123 0
-155700 139316 147508 131124 -131123 0
-147508 131123 0
-180275 147507 163891 131123 -131122 0
-131123 163891 0
-163892 131123 0
-229428 163892 196660 131124 -131123 0
-131123 196659 0
-196660 131123 0
-139324 139292 139316 139284 -139283 0
-155668 139283 0
-188436 57364 180244 49172 -49171 0
-245780 114708 180244 49172 -49171 0
-180244 49171 0
-245780 114708 213012 81940 -81939 0
-213012 81939 0
-147475 147479 0
-147480 147475 0
-213016 147480 213012 147476 -147475 0
-147475 147483 0
-147475 147507 0
-155668 147475 0
-188436 155668 180244 147476 -147475 0
-180244 147475 0
-245780 180244 213012 147476 -147475 0
-213012 147475 0
-229400 98328 229396 98324 -98323 0
-229404 98332 229396 98324 -98323 0
-229428 98356 229396 98324 -98323 0
-245780 114708 229396 98324 -98323 0
-229396 98323 0
-163859 163863 0
-163864 163859 0
-163872 163864 163868 163860 -163859 0
-180248 163864 180244 163860 -163859 0
-229400 163864 229396 163860 -163859 0
-163859 163867 0
-163868 163859 0
-163900 163868 163892 163860 -163859 0
-229404 163868 229396 163860 -163859 0
-163859 163891 0
-163892 163859 0
-229428 163892 229396 163860 -163859 0
-245780 180244 229396 163860 -163859 0
-229396 163859 0
-196627 196631 0
-196632 196627 0
-196640 196632 196636 196628 -196627 0
-196664 196632 196660 196628 -196627 0
-229400 196632 229396 196628 -196627 0
-196627 196635 0
-196636 196627 0
-196668 196636 196660 196628 -196627 0
-229404 196636 229396 196628 -196627 0
-196627 196659 0
-196660 196627 0
-229428 196660 229396 196628 -196627 0
-213012 196627 0
-245780 213012 229396 196628 -196627 0
-229396 196627 0
-172076 41004 172068 40996 -40995 0
-188452 57380 172068 40996 -40995 0
-180276 49204 180260 49188 -49187 0
-188452 57380 180260 49188 -49187 0
-245796 114724 180260 49188 -49187 0
-180260 49187 0
-213032 81960 213028 81956 -81955 0
-245796 114724 213028 81956 -81955 0
-147491 147495 0
-147496 147491 0
-180264 147496 180260 147492 -147491 0
-155692 147500 155684 147492 -147491 0
-147491 147507 0
-180260 147491 0
-245796 180260 213028 147492 -147491 0
-213028 147491 0
-229416 98344 229412 98340 -98339 0
-229420 98348 229412 98340 -98339 0
-229428 98356 229412 98340 -98339 0
-245796 114724 229412 98340 -98339 0
-229412 98339 0
-163875 163879 0
-163880 163875 0
-163888 163880 163884 163876 -163875 0
-229416 163880 229412 163876 -163875 0
-163875 163883 0
-163884 163875 0
-163900 163884 163892 163876 -163875 0
-229420 163884 229412 163876 -163875 0
-163875 163891 0
-163892 163875 0
-229428 163892 229412 163876 -163875 0
-172068 163875 0
-180260 163875 0
-245796 180260 229412 163876 -163875 0
-229412 163875 0
-196643 196647 0
-196648 196643 0
-196656 196648 196652 196644 -196643 0
-196664 196648 196660 196644 -196643 0
-229416 196648 229412 196644 -196643 0
-196643 196651 0
-196652 196643 0
-196668 196652 196660 196644 -196643 0
-229420 196652 229412 196644 -196643 0
-196643 196659 0
-196660 196643 0
-229428 196660 229412 196644 -196643 0
-213028 196643 0
-245796 213028 229412 196644 -196643 0
-229412 196643 0
-159752 28680 159748 28676 -28675 0
-159764 28692 159748 28676 -28675 0
-159780 28708 159748 28676 -28675 0
-28675 159747 0
-143412 143380 143396 143364 -143363 0
-188424 57352 188420 57348 -57347 0
-188428 57356 188420 57348 -57347 0
-188436 57364 188420 57348 -57347 0
-188452 57380 188420 57348 -57347 0
-57347 188419 0
-155651 155659 0
-155676 155660 155668 155652 -155651 0
-159764 155668 159748 155652 -155651 0
-172035 172067 0
-188420 172035 0
-180227 180231 0
-188424 180232 188420 180228 -180227 0
-180227 180235 0
-188428 180236 188420 180228 -180227 0
-180227 180243 0
-188436 180244 188420 180228 -180227 0
-180227 180259 0
-245764 180227 0
-212995 212999 0
-212995 213011 0
-212995 213027 0
-245764 212995 0
-229379 229383 0
-229392 229384 229388 229380 -229379 0
-229400 229384 229396 229380 -229379 0
-229416 229384 229412 229380 -229379 0
-229379 229387 0
-229404 229388 229396 229380 -229379 0
-229420 229388 229412 229380 -229379 0
-229379 229395 0
-229428 229396 229412 229380 -229379 0
-229379 229411 0
-245764 229379 0
-64 131136 0
-155680 24608 147488 16416 -16415 0
-16416 147488 0
-180256 49184 163872 32800 -32799 0
-32800 163872 0
-229408 98336 196640 65568 -65567 0
-65568 196640 0
-131104 139296 0
-131104 147488 0
-131104 163872 0
-229408 163872 196640 131104 -131103 0
-131104 196640 0
-155696 24624 139312 8240 -8239 0
-32816 163888 0
-229424 98352 196656 65584 -65583 0
-65583 196655 0
-65584 196656 0
-131120 147504 0
-131120 163888 0
-229424 163888 196656 131120 -131119 0
-131120 196656 0
-139312 139279 0
-159760 143376 155664 139280 -139279 0
-180256 49184 180240 49168 -49167 0
-180240 49167 0
-229408 98336 229392 98320 -98319 0
-229424 98352 229392 98320 -98319 0
-245776 114704 229392 98320 -98319 0
-98320 229392 0
-163856 163872 0
-229408 163872 229392 163856 -163855 0
-163856 163888 0
-229424 163888 229392 163856 -163855 0
-163856 172048 0
-163856 180240 0
-245776 180240 229392 163856 -163855 0
-229392 163855 0
-163856 229392 0
-196640 196623 0
-196624 196640 0
-196672 196640 196656 196624 -196623 0
-229408 196640 229392 196624 -196623 0
-196656 196623 0
-196624 196656 0
-229424 196656 229392 196624 -196623 0
-196624 213008 0
-229392 196623 0
-196624 229392 0
-229432 98360 163896 32824 -32823 0
-32823 163895 0
-32824 163896 0
-213048 81976 196664 65592 -65591 0
-229432 98360 196664 65592 -65591 0
-65591 196663 0
-65592 196664 0
-131128 147512 0
-131128 163896 0
-131128 196664 0
-237592 106520 204824 73752 -73751 0
-73752 204824 0
-139288 139296 0
-139288 139320 0
-237592 172056 204824 139288 -139287 0
-49176 180248 0
-147512 147479 0
-147480 147512 0
-229408 98336 229400 98328 -98327 0
-229432 98360 229400 98328 -98327 0
-245784 114712 229400 98328 -98327 0
-98328 229400 0
-163864 163872 0
-229408 163872 229400 163864 -163863 0
-163864 163896 0
-180280 163896 180248 163864 -163863 0
-163864 180248 0
-245784 180248 229400 163864 -163863 0
-163864 229400 0
-196640 196631 0
-196632 196640 0
-196672 196640 196664 196632 -196631 0
-229408 196640 229400 196632 -196631 0
-196632 196664 0
-229432 196664 229400 196632 -196631 0
-229400 196631 0
-196632 229400 0
-180264 49191 0
-229424 98352 229416 98344 -98343 0
-229432 98360 229416 98344 -98343 0
-245800 114728 229416 98344 -98343 0
-229416 98343 0
-98344 229416 0
-163896 163879 0
-163880 163896 0
-229432 163896 229416 163880 -163879 0
-245800 180264 229416 163880 -163879 0
-163880 229416 0
-196656 196647 0
-196648 196656 0
-196672 196656 196664 196648 -196647 0
-229424 196656 229416 196648 -196647 0
-196664 196647 0
-196648 196664 0
-229432 196664 229416 196648 -196647 0
-245800 213032 229416 196648 -196647 0
-229416 196647 0
-196648 229416 0
-57352 188424 0
-180231 180239 0
-180232 180240 0
-180231 180247 0
-180232 180248 0
-180231 180263 0
-180232 180264 0
-180232 188424 0
-213000 213008 0
-213000 213016 0
-212999 213031 0
-213000 213032 0
-229383 229391 0
-229384 229392 0
-229408 229392 229400 229384 -229383 0
-229424 229392 229416 229384 -229383 0
-229384 229400 0
-229432 229400 229416 229384 -229383 0
-229383 229415 0
-229384 229416 0
-4156 135228 0
-8252 139324 0
-16443 147515 0
-16444 147516 0
-180284 49212 163900 32828 -32827 0
-229436 98364 163900 32828 -32827 0
-32827 163899 0
-32828 163900 0
-213052 81980 196668 65596 -65595 0
-229436 98364 196668 65596 -65595 0
-65595 196667 0
-65596 196668 0
-131132 147516 0
-213052 147516 196668 131132 -131131 0
-131132 163900 0
-229436 163900 196668 131132 -131131 0
-131132 196668 0
-24603 155675 0
-24604 155676 0
-139292 139324 0
-245788 114716 180252 49180 -49179 0
-180252 49179 0
-180252 147483 0
-147484 180252 0
-245788 180252 213020 147484 -147483 0
-147484 213020 0
-229408 98336 229404 98332 -98331 0
-229436 98364 229404 98332 -98331 0
-245788 114716 229404 98332 -98331 0
-98332 229404 0
-163868 163872 0
-163900 163867 0
-163868 163900 0
-163868 229404 0
-196640 196635 0
-196636 196640 0
-196672 196640 196668 196636 -196635 0
-229408 196640 229404 196636 -196635 0
-196668 196635 0
-196636 196668 0
-245788 213020 229404 196636 -196635 0
-229404 196635 0
-196636 229404 0
-24620 155692 0
-180284 49212 180268 49196 -49195 0
-245804 114732 213036 81964 -81963 0
-147516 147499 0
-147500 180268 0
-213036 147499 0
-229424 98352 229420 98348 -98347 0
-229436 98364 229420 98348 -98347 0
-245804 114732 229420 98348 -98347 0
-229420 98347 0
-98348 229420 0
-163888 163883 0
-163884 163888 0
-229424 163888 229420 163884 -163883 0
-163884 163900 0
-172092 163900 172076 163884 -163883 0
-229436 163900 229420 163884 -163883 0
-163884 172076 0
-180268 163883 0
-163884 180268 0
-229420 163883 0
-163884 229420 0
-196656 196651 0
-196652 196656 0
-196672 196656 196668 196652 -196651 0
-229424 196656 229420 196652 -196651 0
-196652 196668 0
-213052 196668 213036 196652 -196651 0
-229436 196668 229420 196652 -196651 0
-245804 213036 229420 196652 -196651 0
-229420 196651 0
-196652 229420 0
-188432 57360 188428 57356 -57355 0
-57356 188428 0
-155660 155664 0
-155708 155676 155692 155660 -155659 0
-180236 180240 0
-180236 180252 0
-180284 180252 180268 180236 -180235 0
-180235 180267 0
-180236 180268 0
-180236 188428 0
-213004 213020 0
-213004 213036 0
-229388 229392 0
-229408 229392 229404 229388 -229387 0
-229424 229392 229420 229388 -229387 0
-229388 229404 0
-229436 229404 229420 229388 -229387 0
-229387 229419 0
-229388 229420 0
-135220 143412 0
-139316 139324 0
-139316 143412 0
-139316 155700 0
-245812 114740 180276 49204 -49203 0
-245812 114740 213044 81972 -81971 0
-147508 147516 0
-229432 98360 229428 98356 -98355 0
-229436 98364 229428 98356 -98355 0
-245812 114740 229428 98356 -98355 0
-98356 229428 0
-163892 163896 0
-163900 163891 0
-163892 163900 0
-163892 180276 0
-163892 229428 0
-196660 196664 0
-196672 196664 196668 196660 -196659 0
-229432 196664 229428 196660 -196659 0
-196668 196659 0
-196660 196668 0
-229436 196668 229428 196660 -196659 0
-229428 196659 0
-196660 229428 0
-28691 159763 0
-28692 159764 0
-143380 143384 0
-57364 188436 0
-155668 155676 0
-155668 159764 0
-180244 180248 0
-180256 180248 180252 180244 -180243 0
-180244 180252 0
-180243 180275 0
-180244 180276 0
-213012 213016 0
-213012 213020 0
-213012 213044 0
-229396 229400 0
-229408 229400 229404 229396 -229395 0
-229432 229400 229428 229396 -229395 0
-229396 229404 0
-229436 229404 229428 229396 -229395 0
-229395 229427 0
-229396 229428 0
-143396 143404 0
-155684 155700 0
-180260 180264 0
-180260 180268 0
-188460 180268 188452 180260 -180259 0
-180260 180276 0
-213028 213032 0
-213028 213044 0
-229412 229416 0
-229424 229416 229420 229412 -229411 0
-229432 229416 229428 229412 -229411 0
-229412 229420 0
-229436 229420 229428 229412 -229411 0
-229412 229428 0
-159768 159752 159764 159748 -159747 0
-159748 159756 0
-159796 159764 159780 159748 -159747 0
-188420 188424 0
-188420 188428 0
-188444 188428 188436 188420 -188419 0
-188460 188428 188452 188420 -188419 0
-188420 188436 0
-188420 188452 0
-245764 245768 0
-245764 245772 0
-245764 245780 0
-245764 245796 0
-8256 139328 0
-32832 163904 0
-65600 196672 0
-245792 114720 180256 49184 -49183 0
-49184 180256 0
-147488 180256 0
-98336 229408 0
-163872 229408 0
-196640 229408 0
-245808 114736 229424 98352 -98351 0
-98352 229424 0
-163888 229424 0
-196656 229424 0
-28688 159760 0
-172048 188432 0
-180240 188432 0
-229392 229408 0
-229440 229408 229424 229392 -229391 0
-229392 229424 0
-49208 180280 0
-245816 114744 213048 81976 -81975 0
-147512 155704 0
-98360 229432 0
-163896 229432 0
-196664 229432 0
-180248 180256 0
-229400 229408 0
-229400 229432 0
-229400 237592 0
-229416 229424 0
-229440 229424 229432 229416 -229415 0
-229416 229432 0
-245768 245776 0
-245768 245784 0
-245768 245800 0
-24636 155708 0
-41020 172092 0
-245820 114748 213052 81980 -81979 0
-81980 213052 0
-147516 180284 0
-245820 180284 213052 147516 -147515 0
-245820 114748 229436 98364 -98363 0
-98364 229436 0
-163900 180284 0
-245820 180284 229436 163900 -163899 0
-163900 229436 0
-196668 229436 0
-155712 155680 155708 155676 -155675 0
-180252 188444 0
-213020 213052 0
-229404 229408 0
-229404 229436 0
-57388 188460 0
-155692 155696 0
-172076 188460 0
-180268 180284 0
-229440 229424 229436 229420 -229419 0
-229420 229436 0
-245772 245788 0
-245772 245804 0
-229428 229432 0
-229440 229432 229436 229428 -229427 0
-159800 159768 159796 159764 -159763 0
-245780 245812 0
-139328 155712 0
-163904 229440 0
-155704 159800 0
-245784 245792 0
-245800 245808 0
-245800 245816 0
-245804 245820 0
-131139 0
-16456 0
-32840 0
-65608 0
-131144 0
-32844 0
-65612 0
-131148 0
-32852 0
-65620 0
-131156 0
-16484 0
-32868 0
-65636 0
-131172 0
-147524 0
-98372 0
-196676 0
-32838 70 32774 6 -5 0
-65606 70 65542 6 -5 0
-131142 70 131078 6 -5 0
-32842 74 32778 10 -9 0
-131146 74 131082 10 -9 0
-65618 82 65554 18 -17 0
-131154 82 131090 18 -17 0
-32866 98 32802 34 -33 0
-65634 98 65570 34 -33 0
-131170 98 131106 34 -33 0
-65615 79 65551 15 -14 0
-131151 79 131087 15 -14 0
-8279 87 8215 23 -22 0
-65623 87 65559 23 -22 0
-131159 87 131095 23 -22 0
-32871 103 32807 39 -38 0
-65639 103 65575 39 -38 0
-131175 103 131111 39 -38 0
-131151 79 131143 71 -70 0
-65623 87 65607 71 -70 0
-131159 87 131143 71 -70 0
-131175 103 131143 71 -70 0
-32839 70 0
-163911 32839 131143 71 -70 0
-65607 70 0
-196679 65607 131143 71 -70 0
-131143 70 0
-32839 32774 0
-98375 32839 98311 32775 -32774 0
-163911 32839 163847 32775 -32774 0
-65639 65575 65607 65543 -65542 0
-65607 65542 0
-98375 65607 98311 65543 -65542 0
-196679 65607 196615 65543 -65542 0
-131151 131087 131143 131079 -131078 0
-131159 131095 131143 131079 -131078 0
-131175 131111 131143 131079 -131078 0
-131143 131078 0
-163911 131143 163847 131079 -131078 0
-196679 131143 196615 131079 -131078 0
-65627 91 65563 27 -26 0
-131163 91 131099 27 -26 0
-32875 107 32811 43 -42 0
-65643 107 65579 43 -42 0
-131179 107 131115 43 -42 0
-131151 79 131147 75 -74 0
-65627 91 65611 75 -74 0
-131163 91 131147 75 -74 0
-131179 107 131147 75 -74 0
-32843 74 0
-65611 74 0
-196683 65611 131147 75 -74 0
-131147 74 0
-32847 32783 32843 32779 -32778 0
-98379 32843 98315 32779 -32778 0
-65611 65546 0
-196683 65611 196619 65547 -65546 0
-131151 131087 131147 131083 -131082 0
-131163 131099 131147 131083 -131082 0
-131179 131115 131147 131083 -131082 0
-131147 131082 0
-163915 131147 163851 131083 -131082 0
-196683 131147 196619 131083 -131082 0
-32883 115 32819 51 -50 0
-65651 115 65587 51 -50 0
-131187 115 131123 51 -50 0
-16471 87 16467 83 -82 0
-32855 87 32851 83 -82 0
-65623 87 65619 83 -82 0
-131159 87 131155 83 -82 0
-131163 91 131155 83 -82 0
-65651 115 65619 83 -82 0
-8275 82 0
-32851 82 0
-163923 32851 131155 83 -82 0
-65619 82 0
-196691 65619 131155 83 -82 0
-131155 82 0
-24659 8275 24595 8211 -8210 0
-32851 32786 0
-65623 65559 65619 65555 -65554 0
-65627 65563 65619 65555 -65554 0
-65651 65587 65619 65555 -65554 0
-65619 65554 0
-98387 65619 98323 65555 -65554 0
-131159 131095 131155 131091 -131090 0
-131163 131099 131155 131091 -131090 0
-131187 131123 131155 131091 -131090 0
-131155 131090 0
-163923 131155 163859 131091 -131090 0
-196691 131155 196627 131091 -131090 0
-16487 103 16483 99 -98 0
-65639 103 65635 99 -98 0
-131175 103 131171 99 -98 0
-131179 107 131171 99 -98 0
-131187 115 131171 99 -98 0
-32867 98 0
-163939 32867 131171 99 -98 0
-65635 98 0
-196707 65635 131171 99 -98 0
-131171 98 0
-32867 32802 0
-98403 32867 98339 32803 -32802 0
-65635 65570 0
-98403 65635 98339 65571 -65570 0
-196707 65635 196643 65571 -65570 0
-131175 131111 131171 131107 -131106 0
-131179 131115 131171 131107 -131106 0
-131187 131123 131171 131107 -131106 0
-131171 131106 0
-163939 131171 163875 131107 -131106 0
-196707 131171 196643 131107 -131106 0
-32834 32838 0
-32834 32842 0
-32834 32866 0
-98371 32834 0
-65602 65606 0
-65602 65618 0
-65602 65634 0
-98371 65602 0
-131138 131142 0
-131151 131143 131147 131139 -131138 0
-131159 131143 131155 131139 -131138 0
-131175 131143 131171 131139 -131138 0
-147527 131143 147523 131139 -131138 0
-131138 131146 0
-131163 131147 131155 131139 -131138 0
-131179 131147 131171 131139 -131138 0
-131138 131154 0
-131187 131155 131171 131139 -131138 0
-131138 131170 0
-163907 131138 0
-24647 24583 24643 24579 -24578 0
-8288 96 8224 32 -31 0
-32864 96 32800 32 -31 0
-65632 96 65568 32 -31 0
-131168 96 131104 32 -31 0
-32880 112 32816 48 -47 0
-65648 112 65584 48 -47 0
-131184 112 131120 48 -47 0
-131168 96 131152 80 -79 0
-65648 112 65616 80 -79 0
-131184 112 131152 80 -79 0
-79 32847 0
-163920 32848 131152 80 -79 0
-79 65615 0
-65616 79 0
-196688 65616 131152 80 -79 0
-79 131151 0
-131152 79 0
-16496 16432 16464 16400 -16399 0
-32864 32800 32848 32784 -32783 0
-32848 32783 0
-98383 32847 98319 32783 -32782 0
-65632 65568 65616 65552 -65551 0
-65616 65551 0
-98383 65615 98319 65551 -65550 0
-98384 65616 98320 65552 -65551 0
-196687 65615 196623 65551 -65550 0
-196688 65616 196624 65552 -65551 0
-131168 131104 131152 131088 -131087 0
-131184 131120 131152 131088 -131087 0
-131087 131151 0
-131152 131087 0
-163920 131152 163856 131088 -131087 0
-196687 131151 196623 131087 -131086 0
-196688 131152 196624 131088 -131087 0
-32888 120 32824 56 -55 0
-65656 120 65592 56 -55 0
-131192 120 131128 56 -55 0
-131168 96 131160 88 -87 0
-65656 120 65624 88 -87 0
-131192 120 131160 88 -87 0
-41048 8280 32856 88 -87 0
-16472 87 0
-87 65623 0
-65624 87 0
-196696 65624 131160 88 -87 0
-87 131159 0
-131160 87 0
-16480 16416 16472 16408 -16407 0
-16407 16471 0
-24664 16472 24600 16408 -16407 0
-32864 32800 32856 32792 -32791 0
-32791 32855 0
-49240 32856 49176 32792 -32791 0
-65632 65568 65624 65560 -65559 0
-65656 65592 65624 65560 -65559 0
-65559 65623 0
-65624 65559 0
-98392 65624 98328 65560 -65559 0
-196696 65624 196632 65560 -65559 0
-131168 131104 131160 131096 -131095 0
-131192 131128 131160 131096 -131095 0
-131095 131159 0
-131160 131095 0
-163928 131160 163864 131096 -131095 0
-196696 131160 196632 131096 -131095 0
-65648 112 65640 104 -103 0
-131184 112 131176 104 -103 0
-65656 120 65640 104 -103 0
-131192 120 131176 104 -103 0
-103 16487 0
-16488 103 0
-103 32871 0
-32872 103 0
-163944 32872 131176 104 -103 0
-103 65639 0
-65640 103 0
-196712 65640 131176 104 -103 0
-103 131175 0
-131176 103 0
-16423 16487 0
-24680 16488 24616 16424 -16423 0
-49256 32872 49192 32808 -32807 0
-98408 32872 98344 32808 -32807 0
-65648 65584 65640 65576 -65575 0
-65656 65592 65640 65576 -65575 0
-65575 65639 0
-65640 65575 0
-98408 65640 98344 65576 -65575 0
-196711 65639 196647 65575 -65574 0
-196712 65640 196648 65576 -65575 0
-131184 131120 131176 131112 -131111 0
-131192 131128 131176 131112 -131111 0
-131111 131175 0
-131176 131111 0
-163944 131176 163880 131112 -131111 0
-196711 131175 196647 131111 -131110 0
-196712 131176 196648 131112 -131111 0
-24664 16472 24648 16456 -16455 0
-16455 24647 0
-81992 16455 0
-229448 98376 163912 32840 -32839 0
-163912 32839 0
-65616 65607 0
-65632 65616 65624 65608 -65607 0
-65607 65623 0
-65656 65624 65640 65608 -65607 0
-98392 65624 98376 65608 -65607 0
-196696 65624 196680 65608 -65607 0
-65607 65639 0
-65640 65607 0
-196712 65640 196680 65608 -65607 0
-114760 81992 98376 65608 -65607 0
-98376 65607 0
-229448 98376 196680 65608 -65607 0
-196680 65607 0
-131143 131151 0
-131152 131143 0
-131168 131152 131160 131144 -131143 0
-131184 131152 131176 131144 -131143 0
-196688 131152 196680 131144 -131143 0
-131143 131159 0
-131160 131143 0
-131192 131160 131176 131144 -131143 0
-196696 131160 196680 131144 -131143 0
-131143 131175 0
-131176 131143 0
-196712 131176 196680 131144 -131143 0
-163912 131143 0
-229448 163912 196680 131144 -131143 0
-196680 131143 0
-24648 24583 0
-147463 147527 0
-98384 98320 98376 98312 -98311 0
-98392 98328 98376 98312 -98311 0
-98376 98311 0
-229448 98376 229384 98312 -98311 0
-163920 163856 163912 163848 -163847 0
-229448 163912 229384 163848 -163847 0
-196688 196624 196680 196616 -196615 0
-196696 196632 196680 196616 -196615 0
-196712 196648 196680 196616 -196615 0
-196680 196615 0
-229448 196680 229384 196616 -196615 0
-32892 124 32828 60 -59 0
-65660 124 65596 60 -59 0
-131196 124 131132 60 -59 0
-8288 96 8284 92 -91 0
-65632 96 65628 92 -91 0
-131168 96 131164 92 -91 0
-65660 124 65628 92 -91 0
-131196 124 131164 92 -91 0
-91 65627 0
-65628 91 0
-196700 65628 131164 92 -91 0
-91 131163 0
-131164 91 0
-32795 32859 0
-41052 32860 40988 32796 -32795 0
-98396 32860 98332 32796 -32795 0
-65628 65563 0
-98396 65628 98332 65564 -65563 0
-196699 65627 196635 65563 -65562 0
-196700 65628 196636 65564 -65563 0
-131168 131104 131164 131100 -131099 0
-131196 131132 131164 131100 -131099 0
-131099 131163 0
-131164 131099 0
-163932 131164 163868 131100 -131099 0
-196700 131164 196636 131100 -131099 0
-32880 112 32876 108 -107 0
-131184 112 131180 108 -107 0
-131196 124 131180 108 -107 0
-107 65643 0
-65644 107 0
-196716 65644 131180 108 -107 0
-107 131179 0
-131180 107 0
-32876 32811 0
-98411 32875 98347 32811 -32810 0
-65648 65584 65644 65580 -65579 0
-65660 65596 65644 65580 -65579 0
-65644 65579 0
-98412 65644 98348 65580 -65579 0
-196716 65644 196652 65580 -65579 0
-131184 131120 131180 131116 -131115 0
-131196 131132 131180 131116 -131115 0
-131115 131179 0
-131180 131115 0
-163948 131180 163884 131116 -131115 0
-196716 131180 196652 131116 -131115 0
-114764 49228 98380 32844 -32843 0
-65611 65615 0
-65611 65627 0
-196700 65628 196684 65612 -65611 0
-65611 65643 0
-65644 65611 0
-196716 65644 196684 65612 -65611 0
-98380 65611 0
-229452 98380 196684 65612 -65611 0
-196684 65611 0
-131147 131151 0
-131152 131147 0
-131167 131151 131163 131147 -131146 0
-131168 131152 131164 131148 -131147 0
-131183 131151 131179 131147 -131146 0
-131184 131152 131180 131148 -131147 0
-147536 131152 147532 131148 -131147 0
-163920 131152 163916 131148 -131147 0
-196688 131152 196684 131148 -131147 0
-131147 131163 0
-131164 131147 0
-131196 131164 131180 131148 -131147 0
-196700 131164 196684 131148 -131147 0
-131147 131179 0
-131180 131147 0
-196716 131180 196684 131148 -131147 0
-131147 147531 0
-163916 131147 0
-196684 131147 0
-147532 147467 0
-98384 98320 98380 98316 -98315 0
-98412 98348 98380 98316 -98315 0
-98380 98315 0
-229452 98380 229388 98316 -98315 0
-229452 163916 229388 163852 -163851 0
-196688 196624 196684 196620 -196619 0
-196700 196636 196684 196620 -196619 0
-196716 196652 196684 196620 -196619 0
-196684 196619 0
-229452 196684 229388 196620 -196619 0
-8312 120 8308 116 -115 0
-32888 120 32884 116 -115 0
-65656 120 65652 116 -115 0
-131192 120 131188 116 -115 0
-65660 124 65652 116 -115 0
-131196 124 131188 116 -115 0
-32884 115 0
-163956 32884 131188 116 -115 0
-115 65651 0
-65652 115 0
-196724 65652 131188 116 -115 0
-115 131187 0
-131188 115 0
-32892 32828 32884 32820 -32819 0
-32884 32819 0
-41076 32884 41012 32820 -32819 0
-163956 32884 163892 32820 -32819 0
-65656 65592 65652 65588 -65587 0
-65660 65596 65652 65588 -65587 0
-65652 65587 0
-98419 65651 98355 65587 -65586 0
-98420 65652 98356 65588 -65587 0
-196724 65652 196660 65588 -65587 0
-131192 131128 131188 131124 -131123 0
-131196 131132 131188 131124 -131123 0
-131123 131187 0
-131188 131123 0
-163956 131188 163892 131124 -131123 0
-196723 131187 196659 131123 -131122 0
-196724 131188 196660 131124 -131123 0
-8275 8279 0
-24660 8275 0
-16467 24659 0
-32856 32851 0
-98420 32884 98388 32852 -32851 0
-98388 32851 0
-229460 98388 163924 32852 -32851 0
-163924 32851 0
-65619 65623 0
-65624 65619 0
-196696 65624 196692 65620 -65619 0
-65628 65619 0
-196700 65628 196692 65620 -65619 0
-65619 65651 0
-65652 65619 0
-98420 65652 98388 65620 -65619 0
-196724 65652 196692 65620 -65619 0
-229460 98388 196692 65620 -65619 0
-196692 65619 0
-131155 131159 0
-131160 131155 0
-131168 131160 131164 131156 -131155 0
-131192 131160 131188 131156 -131155 0
-196696 131160 196692 131156 -131155 0
-131155 131163 0
-131164 131155 0
-131196 131164 131188 131156 -131155 0
-196700 131164 196692 131156 -131155 0
-131155 131187 0
-131188 131155 0
-196724 131188 196692 131156 -131155 0
-163924 131155 0
-229460 163924 196692 131156 -131155 0
-196692 131155 0
-24692 24628 24660 24596 -24595 0
-98396 98332 98388 98324 -98323 0
-98420 98356 98388 98324 -98323 0
-98388 98323 0
-229460 98388 229396 98324 -98323 0
-163956 163892 163924 163860 -163859 0
-163924 163859 0
-229460 163924 229396 163860 -163859 0
-196696 196632 196692 196628 -196627 0
-196700 196636 196692 196628 -196627 0
-196724 196660 196692 196628 -196627 0
-196692 196627 0
-229460 196692 229396 196628 -196627 0
-16504 16488 16500 16484 -16483 0
-32867 32871 0
-163944 32872 163940 32868 -32867 0
-32867 32883 0
-49252 32867 0
-98404 32867 0
-229476 98404 163940 32868 -32867 0
-163940 32867 0
-65635 65639 0
-65640 65635 0
-196712 65640 196708 65636 -65635 0
-65635 65643 0
-65644 65635 0
-65635 65651 0
-196724 65652 196708 65636 -65635 0
-98404 65635 0
-196708 65635 0
-131171 131175 0
-131176 131171 0
-131184 131176 131180 131172 -131171 0
-131192 131176 131188 131172 -131171 0
-163944 131176 163940 131172 -131171 0
-196712 131176 196708 131172 -131171 0
-131171 131179 0
-131180 131171 0
-131196 131180 131188 131172 -131171 0
-196716 131180 196708 131172 -131171 0
-131171 131187 0
-131188 131171 0
-196724 131188 196708 131172 -131171 0
-163940 131171 0
-229476 163940 196708 131172 -131171 0
-196708 131171 0
-57444 49252 57380 49188 -49187 0
-98408 98344 98404 98340 -98339 0
-98412 98348 98404 98340 -98339 0
-98404 98339 0
-114788 98404 114724 98340 -98339 0
-229476 98404 229412 98340 -98339 0
-163948 163884 163940 163876 -163875 0
-163940 163875 0
-229476 163940 229412 163876 -163875 0
-196712 196648 196708 196644 -196643 0
-196716 196652 196708 196644 -196643 0
-196724 196660 196708 196644 -196643 0
-196708 196643 0
-229476 196708 229412 196644 -196643 0
-24643 24659 0
-147564 147532 147556 147524 -147523 0
-98371 98375 0
-98384 98376 98380 98372 -98371 0
-98408 98376 98404 98372 -98371 0
-98371 98379 0
-98371 98387 0
-98420 98388 98404 98372 -98371 0
-98371 98403 0
-229444 98371 0
-163907 163911 0
-163907 163915 0
-163907 163923 0
-163907 163939 0
-229444 163907 0
-196675 196679 0
-196688 196680 196684 196676 -196675 0
-196696 196680 196692 196676 -196675 0
-196712 196680 196708 196676 -196675 0
-196675 196683 0
-196700 196684 196692 196676 -196675 0
-196716 196684 196708 196676 -196675 0
-196675 196691 0
-196724 196692 196708 196676 -196675 0
-196675 196707 0
-229444 196675 0
-57420 57356 57412 57348 -57347 0
-114760 114696 114756 114692 -114691 0
-114764 114700 114756 114692 -114691 0
-96 16480 0
-96 32864 0
-96 65632 0
-196704 65632 131168 96 -95 0
-95 131167 0
-96 131168 0
-8224 8288 0
-163936 32864 163872 32800 -32799 0
-65568 65632 0
-98400 65632 98336 65568 -65567 0
-131104 131168 0
-196704 131168 196640 131104 -131103 0
-112 16496 0
-111 65647 0
-112 65648 0
-196720 65648 131184 112 -111 0
-111 131183 0
-112 131184 0
-32816 32880 0
-98416 32880 98352 32816 -32815 0
-65584 65648 0
-196720 65648 196656 65584 -65583 0
-131120 131184 0
-196720 131184 196656 131120 -131119 0
-32848 32880 0
-32848 98384 0
-229456 98384 163920 32848 -32847 0
-32848 163920 0
-65616 65632 0
-65616 65648 0
-196720 65648 196688 65616 -65615 0
-65616 82000 0
-65616 98384 0
-196688 65615 0
-65616 196688 0
-131168 131151 0
-131152 131168 0
-131200 131168 131184 131152 -131151 0
-196704 131168 196688 131152 -131151 0
-131184 131151 0
-131152 131184 0
-196720 131184 196688 131152 -131151 0
-229456 163920 196688 131152 -131151 0
-196688 131151 0
-131152 196688 0
-98384 98319 0
-163856 163920 0
-229456 163920 229392 163856 -163855 0
-196720 196656 196688 196624 -196623 0
-196688 196623 0
-196624 196688 0
-229456 196688 229392 196624 -196623 0
-119 32887 0
-119 65655 0
-120 65656 0
-196728 65656 131192 120 -119 0
-119 131191 0
-120 131192 0
-8248 8312 0
-16440 16504 0
-98424 32888 98360 32824 -32823 0
-163960 32888 163896 32824 -32823 0
-65592 65656 0
-98424 65656 98360 65592 -65591 0
-196728 65656 196664 65592 -65591 0
-131128 131192 0
-163960 131192 163896 131128 -131127 0
-196728 131192 196664 131128 -131127 0
-8280 8288 0
-16472 49240 0
-32856 32888 0
-65624 65632 0
-196704 65632 196696 65624 -65623 0
-65656 65623 0
-65624 65656 0
-65624 98392 0
-196696 65623 0
-65624 196696 0
-131168 131159 0
-131160 131168 0
-131200 131168 131192 131160 -131159 0
-196704 131168 196696 131160 -131159 0
-131192 131159 0
-131160 131192 0
-196728 131192 196696 131160 -131159 0
-229464 163928 196696 131160 -131159 0
-196696 131159 0
-131160 196696 0
-40984 41048 0
-98424 98360 98392 98328 -98327 0
-196704 196640 196696 196632 -196631 0
-196632 196696 0
-229464 196696 229400 196632 -196631 0
-57448 24680 49256 16488 -16487 0
-16488 49256 0
-32872 32880 0
-32872 32888 0
-229480 98408 163944 32872 -32871 0
-65640 65648 0
-65640 65656 0
-196728 65656 196712 65640 -65639 0
-65640 98408 0
-65640 196712 0
-131184 131175 0
-131176 131184 0
-131200 131184 131192 131176 -131175 0
-196720 131184 196712 131176 -131175 0
-131192 131175 0
-131176 131192 0
-196728 131192 196712 131176 -131175 0
-196712 131175 0
-131176 196712 0
-229480 98408 229416 98344 -98343 0
-163880 163944 0
-229480 163944 229416 163880 -163879 0
-196728 196664 196712 196648 -196647 0
-196712 196647 0
-196648 196712 0
-229480 196712 229416 196648 -196647 0
-98375 98383 0
-98376 98384 0
-98376 98392 0
-98376 98408 0
-98376 114760 0
-163912 163920 0
-196679 196687 0
-196680 196688 0
-196704 196688 196696 196680 -196679 0
-196720 196688 196712 196680 -196679 0
-196680 196696 0
-196728 196696 196712 196680 -196679 0
-196679 196711 0
-196680 196712 0
-114696 114760 0
-124 32892 0
-123 65659 0
-124 65660 0
-196732 65660 131196 124 -123 0
-123 131195 0
-124 131196 0
-163964 32892 163900 32828 -32827 0
-65596 65660 0
-98428 65660 98364 65596 -65595 0
-196732 65660 196668 65596 -65595 0
-131132 131196 0
-163964 131196 163900 131132 -131131 0
-196732 131196 196668 131132 -131131 0
-8284 41052 0
-32860 32864 0
-32860 98396 0
-32860 163932 0
-65628 65632 0
-65628 65660 0
-65628 98396 0
-196700 65627 0
-65628 196700 0
-131168 131163 0
-131164 131168 0
-131200 131168 131196 131164 -131163 0
-196704 131168 196700 131164 -131163 0
-131196 131163 0
-131164 131196 0
-196732 131196 196700 131164 -131163 0
-229468 163932 196700 131164 -131163 0
-196700 131163 0
-131164 196700 0
-40988 41052 0
-98332 98396 0
-229468 98396 229404 98332 -98331 0
-196704 196640 196700 196636 -196635 0
-196732 196668 196700 196636 -196635 0
-196700 196635 0
-196636 196700 0
-229468 196700 229404 196636 -196635 0
-32876 163948 0
-65644 65648 0
-65644 65660 0
-65644 98412 0
-196716 65643 0
-65644 196716 0
-131184 131179 0
-131180 131184 0
-131200 131184 131196 131180 -131179 0
-163952 131184 163948 131180 -131179 0
-196720 131184 196716 131180 -131179 0
-131196 131179 0
-131180 131196 0
-196732 131196 196716 131180 -131179 0
-196716 131179 0
-131180 196716 0
-229484 163948 229420 163884 -163883 0
-196720 196656 196716 196652 -196651 0
-196716 196651 0
-196652 196716 0
-229484 196716 229420 196652 -196651 0
-49228 57420 0
-147568 147536 147564 147532 -147531 0
-98380 98384 0
-98380 98396 0
-98428 98396 98412 98380 -98379 0
-98379 98411 0
-98380 98412 0
-196684 196688 0
-196704 196688 196700 196684 -196683 0
-196720 196688 196716 196684 -196683 0
-196683 196699 0
-196684 196700 0
-196732 196700 196716 196684 -196683 0
-196684 196716 0
-114768 114704 114764 114700 -114699 0
-114700 114764 0
-8308 41076 0
-16500 24692 0
-32884 32892 0
-32884 98420 0
-163956 32883 0
-65652 65656 0
-196728 65656 196724 65652 -65651 0
-65660 65651 0
-65652 65660 0
-65652 98420 0
-229492 98420 196724 65652 -65651 0
-65652 196724 0
-131192 131187 0
-131188 131192 0
-131200 131192 131196 131188 -131187 0
-196728 131192 196724 131188 -131187 0
-131188 131196 0
-196732 131196 196724 131188 -131187 0
-229492 163956 196724 131188 -131187 0
-131188 196724 0
-98420 98355 0
-98356 98420 0
-229492 163956 229428 163892 -163891 0
-196728 196664 196724 196660 -196659 0
-196732 196668 196724 196660 -196659 0
-196660 196724 0
-229492 196724 229428 196660 -196659 0
-24660 24664 0
-98388 98392 0
-98388 98396 0
-98387 98419 0
-98388 98420 0
-163924 163928 0
-163924 163956 0
-196692 196696 0
-196704 196696 196700 196692 -196691 0
-196728 196696 196724 196692 -196691 0
-196692 196700 0
-196732 196700 196724 196692 -196691 0
-196691 196723 0
-196692 196724 0
-98404 98408 0
-98404 98412 0
-98404 98420 0
-163940 163944 0
-163940 163948 0
-163940 163956 0
-196708 196712 0
-196720 196712 196716 196708 -196707 0
-196728 196712 196724 196708 -196707 0
-196708 196716 0
-196732 196716 196724 196708 -196707 0
-196708 196724 0
-57412 57444 0
-114756 114788 0
-229444 229448 0
-229444 229452 0
-229444 229460 0
-229444 229476 0
-128 131200 0
-65632 196704 0
-131168 196704 0
-196640 196704 0
-65648 196720 0
-131184 196720 0
-147504 147568 0
-229488 98416 229424 98352 -98351 0
-163888 163952 0
-196656 196720 0
-229488 196720 229424 196656 -196655 0
-82000 114768 0
-98384 98400 0
-163920 163936 0
-196688 196704 0
-196688 196720 0
-229496 98424 163960 32888 -32887 0
-65656 196728 0
-229496 163960 196728 131192 -131191 0
-131192 196728 0
-229496 98424 229432 98360 -98359 0
-229496 163960 229432 163896 -163895 0
-196664 196728 0
-196696 196704 0
-196696 196728 0
-98408 98424 0
-163944 163960 0
-196712 196720 0
-196736 196720 196728 196712 -196711 0
-196712 196728 0
-57384 57448 0
-229448 229456 0
-229448 229464 0
-229448 229480 0
-32892 98428 0
-65660 196732 0
-131196 196732 0
-229500 98428 229436 98364 -98363 0
-196668 196732 0
-229500 196732 229436 196668 -196667 0
-196700 196704 0
-196700 196732 0
-163948 163964 0
-196716 196732 0
-229452 229468 0
-229452 229484 0
-196724 196732 0
-229460 229492 0
-131200 196736 0
-229480 229488 0
-229480 229496 0
-229484 229500 0
-131203 0
-65672 0
-131208 0
-32908 0
-65676 0
-131212 0
-16532 0
-65684 0
-131220 0
-32932 0
-65700 0
-131236 0
-131268 0
-196740 0
-65670 134 65542 6 -5 0
-131206 134 131078 6 -5 0
-65674 138 65546 10 -9 0
-131210 138 131082 10 -9 0
-65682 146 65554 18 -17 0
-131218 146 131090 18 -17 0
-65698 162 65570 34 -33 0
-131234 162 131106 34 -33 0
-65679 143 65551 15 -14 0
-131215 143 131087 15 -14 0
-65687 151 65559 23 -22 0
-131223 151 131095 23 -22 0
-65703 167 65575 39 -38 0
-131239 167 131111 39 -38 0
-65735 199 65607 71 -70 0
-131271 199 131143 71 -70 0
-131215 143 131207 135 -134 0
-65735 199 65671 135 -134 0
-131271 199 131207 135 -134 0
-65671 134 0
-131207 134 0
-196743 65671 196615 65543 -65542 0
-131215 131087 131207 131079 -131078 0
-131271 131143 131207 131079 -131078 0
-131207 131078 0
-196743 131207 196615 131079 -131078 0
-65691 155 65563 27 -26 0
-131227 155 131099 27 -26 0
-65707 171 65579 43 -42 0
-131243 171 131115 43 -42 0
-65739 203 65611 75 -74 0
-131275 203 131147 75 -74 0
-131215 143 131211 139 -138 0
-131227 155 131211 139 -138 0
-131243 171 131211 139 -138 0
-65739 203 65675 139 -138 0
-131275 203 131211 139 -138 0
-65675 138 0
-131211 138 0
-65675 65546 0
-196747 65675 196619 65547 -65546 0
-131227 131099 131211 131083 -131082 0
-131243 131115 131211 131083 -131082 0
-131275 131147 131211 131083 -131082 0
-131211 131082 0
-196747 131211 196619 131083 -131082 0
-65715 179 65587 51 -50 0
-131251 179 131123 51 -50 0
-65747 211 65619 83 -82 0
-131283 211 131155 83 -82 0
-131223 151 131219 147 -146 0
-16539 155 16531 147 -146 0
-131227 155 131219 147 -146 0
-65747 211 65683 147 -146 0
-131283 211 131219 147 -146 0
-65683 146 0
-131219 146 0
-65683 65554 0
-196755 65683 196627 65555 -65554 0
-131227 131099 131219 131091 -131090 0
-131283 131155 131219 131091 -131090 0
-131219 131090 0
-196755 131219 196627 131091 -131090 0
-65763 227 65635 99 -98 0
-131299 227 131171 99 -98 0
-131243 171 131235 163 -162 0
-32947 179 32931 163 -162 0
-131251 179 131235 163 -162 0
-131299 227 131235 163 -162 0
-65699 162 0
-65707 65579 65699 65571 -65570 0
-65763 65635 65699 65571 -65570 0
-196771 65699 196643 65571 -65570 0
-131239 131111 131235 131107 -131106 0
-131243 131115 131235 131107 -131106 0
-131235 131106 0
-196771 131235 196643 131107 -131106 0
-65666 65670 0
-65666 65674 0
-65666 65682 0
-65666 65698 0
-65731 65666 0
-131202 131206 0
-131202 131210 0
-131227 131211 131219 131203 -131202 0
-131202 131218 0
-131202 131234 0
-131267 131202 0
-65696 160 65568 32 -31 0
-131232 160 131104 32 -31 0
-32944 176 32816 48 -47 0
-131248 176 131120 48 -47 0
-65744 208 65616 80 -79 0
-131279 207 131151 79 -78 0
-131280 208 131152 80 -79 0
-131232 160 131216 144 -143 0
-131248 176 131216 144 -143 0
-32976 208 32912 144 -143 0
-131280 208 131216 144 -143 0
-143 65679 0
-196752 65680 131216 144 -143 0
-143 131215 0
-131216 143 0
-32912 32783 0
-65680 65551 0
-131232 131104 131216 131088 -131087 0
-131248 131120 131216 131088 -131087 0
-131280 131152 131216 131088 -131087 0
-131087 131215 0
-131216 131087 0
-196752 131216 196624 131088 -131087 0
-131256 184 131128 56 -55 0
-65752 216 65624 88 -87 0
-131287 215 131159 87 -86 0
-131288 216 131160 88 -87 0
-131232 160 131224 152 -151 0
-131256 184 131224 152 -151 0
-65752 216 65688 152 -151 0
-131288 216 131224 152 -151 0
-65688 151 0
-151 131223 0
-131224 151 0
-65688 65559 0
-196760 65688 196632 65560 -65559 0
-131232 131104 131224 131096 -131095 0
-131256 131128 131224 131096 -131095 0
-131288 131160 131224 131096 -131095 0
-131095 131223 0
-131224 131095 0
-196760 131224 196632 131096 -131095 0
-65768 232 65640 104 -103 0
-131303 231 131175 103 -102 0
-131304 232 131176 104 -103 0
-131248 176 131240 168 -167 0
-65768 232 65704 168 -167 0
-131304 232 131240 168 -167 0
-167 131239 0
-131240 167 0
-65704 65575 0
-131248 131120 131240 131112 -131111 0
-131256 131128 131240 131112 -131111 0
-131304 131176 131240 131112 -131111 0
-131111 131239 0
-131240 131111 0
-196775 131239 196647 131111 -131110 0
-196776 131240 196648 131112 -131111 0
-131280 208 131272 200 -199 0
-131288 216 131272 200 -199 0
-65768 232 65736 200 -199 0
-131304 232 131272 200 -199 0
-65736 199 0
-196808 65736 131272 200 -199 0
-131272 199 0
-65752 65624 65736 65608 -65607 0
-65768 65640 65736 65608 -65607 0
-65736 65607 0
-196808 65736 196680 65608 -65607 0
-131280 131152 131272 131144 -131143 0
-131288 131160 131272 131144 -131143 0
-131304 131176 131272 131144 -131143 0
-131272 131143 0
-196808 131272 196680 131144 -131143 0
-65671 65679 0
-65671 65687 0
-65671 65703 0
-65736 65671 0
-196808 65736 196744 65672 -65671 0
-196744 65671 0
-131207 131215 0
-131232 131216 131224 131208 -131207 0
-131280 131216 131272 131208 -131207 0
-131207 131223 0
-131288 131224 131272 131208 -131207 0
-131207 131239 0
-131240 131207 0
-131304 131240 131272 131208 -131207 0
-131272 131207 0
-196808 131272 196744 131208 -131207 0
-196744 131207 0
-196752 196624 196744 196616 -196615 0
-196808 196680 196744 196616 -196615 0
-196744 196615 0
-65724 188 65596 60 -59 0
-131260 188 131132 60 -59 0
-32988 220 32860 92 -91 0
-65756 220 65628 92 -91 0
-131292 220 131164 92 -91 0
-131232 160 131228 156 -155 0
-32956 188 32924 156 -155 0
-65724 188 65692 156 -155 0
-65756 220 65692 156 -155 0
-131292 220 131228 156 -155 0
-16540 155 0
-32924 155 0
-65692 155 0
-155 131227 0
-131228 155 0
-16411 16539 0
-163996 32924 163868 32796 -32795 0
-131232 131104 131228 131100 -131099 0
-131260 131132 131228 131100 -131099 0
-131292 131164 131228 131100 -131099 0
-131099 131227 0
-131228 131099 0
-196764 131228 196636 131100 -131099 0
-65772 236 65644 108 -107 0
-131307 235 131179 107 -106 0
-131308 236 131180 108 -107 0
-131248 176 131244 172 -171 0
-131260 188 131244 172 -171 0
-131308 236 131244 172 -171 0
-171 131243 0
-131244 171 0
-32944 32816 32940 32812 -32811 0
-49324 32940 49196 32812 -32811 0
-131248 131120 131244 131116 -131115 0
-131260 131132 131244 131116 -131115 0
-131308 131180 131244 131116 -131115 0
-131115 131243 0
-131244 131115 0
-196779 131243 196651 131115 -131114 0
-196780 131244 196652 131116 -131115 0
-131280 208 131276 204 -203 0
-32988 220 32972 204 -203 0
-131292 220 131276 204 -203 0
-131308 236 131276 204 -203 0
-65740 203 0
-196812 65740 131276 204 -203 0
-131276 203 0
-65740 65611 0
-196812 65740 196684 65612 -65611 0
-131280 131152 131276 131148 -131147 0
-131292 131164 131276 131148 -131147 0
-131308 131180 131276 131148 -131147 0
-131276 131147 0
-196812 131276 196684 131148 -131147 0
-32940 32907 0
-65675 65691 0
-65692 65675 0
-65675 65707 0
-65740 65675 0
-196812 65740 196748 65676 -65675 0
-196748 65675 0
-131211 131215 0
-131216 131211 0
-131232 131216 131228 131212 -131211 0
-131248 131216 131244 131212 -131211 0
-131280 131216 131276 131212 -131211 0
-131211 131227 0
-131228 131211 0
-131260 131228 131244 131212 -131211 0
-131292 131228 131276 131212 -131211 0
-131211 131243 0
-131244 131211 0
-131308 131244 131276 131212 -131211 0
-131276 131211 0
-196812 131276 196748 131212 -131211 0
-163980 131211 0
-196748 131211 0
-213132 82060 213004 81932 -81931 0
-164012 163884 163980 163852 -163851 0
-196780 196652 196748 196620 -196619 0
-196812 196684 196748 196620 -196619 0
-196748 196619 0
-65780 244 65652 116 -115 0
-131315 243 131187 115 -114 0
-131316 244 131188 116 -115 0
-131256 184 131252 180 -179 0
-131260 188 131252 180 -179 0
-131316 244 131252 180 -179 0
-32948 179 0
-164020 32948 131252 180 -179 0
-179 65715 0
-65716 179 0
-196788 65716 131252 180 -179 0
-179 131251 0
-131252 179 0
-65720 65592 65716 65588 -65587 0
-65716 65587 0
-98484 65716 98356 65588 -65587 0
-131256 131128 131252 131124 -131123 0
-131260 131132 131252 131124 -131123 0
-131316 131188 131252 131124 -131123 0
-131123 131251 0
-131252 131123 0
-196787 131251 196659 131123 -131122 0
-196788 131252 196660 131124 -131123 0
-131288 216 131284 212 -211 0
-131292 220 131284 212 -211 0
-131316 244 131284 212 -211 0
-65748 211 0
-196820 65748 131284 212 -211 0
-131284 211 0
-32851 32979 0
-98516 32980 98388 32852 -32851 0
-65756 65628 65748 65620 -65619 0
-65748 65619 0
-196820 65748 196692 65620 -65619 0
-131288 131160 131284 131156 -131155 0
-131292 131164 131284 131156 -131155 0
-131316 131188 131284 131156 -131155 0
-131284 131155 0
-196820 131284 196692 131156 -131155 0
-82076 16540 82068 16532 -16531 0
-147604 16531 0
-65683 65687 0
-65683 65691 0
-98460 65692 98452 65684 -65683 0
-65683 65715 0
-65748 65683 0
-196756 65683 0
-131219 131223 0
-131224 131219 0
-131232 131224 131228 131220 -131219 0
-131256 131224 131252 131220 -131219 0
-131288 131224 131284 131220 -131219 0
-131219 131227 0
-131228 131219 0
-131260 131228 131252 131220 -131219 0
-131292 131228 131284 131220 -131219 0
-196764 131228 196756 131220 -131219 0
-131219 131251 0
-131252 131219 0
-131316 131252 131284 131220 -131219 0
-131284 131219 0
-196820 131284 196756 131220 -131219 0
-180372 147604 163988 131220 -131219 0
-131219 163987 0
-196756 131219 0
-114836 98452 114708 98324 -98323 0
-229524 163988 229396 163860 -163859 0
-196788 196660 196756 196628 -196627 0
-196820 196692 196756 196628 -196627 0
-196756 196627 0
-229524 196756 229396 196628 -196627 0
-65768 232 65764 228 -227 0
-131304 232 131300 228 -227 0
-131308 236 131300 228 -227 0
-65780 244 65764 228 -227 0
-131316 244 131300 228 -227 0
-65764 227 0
-196836 65764 131300 228 -227 0
-131300 227 0
-65764 65635 0
-196836 65764 196708 65636 -65635 0
-131304 131176 131300 131172 -131171 0
-131308 131180 131300 131172 -131171 0
-131316 131188 131300 131172 -131171 0
-131300 131171 0
-164068 131300 163940 131172 -131171 0
-196836 131300 196708 131172 -131171 0
-32956 32940 32948 32932 -32931 0
-65704 65699 0
-65699 65707 0
-65699 65715 0
-65764 65699 0
-196836 65764 196772 65700 -65699 0
-196772 65699 0
-131235 131239 0
-131240 131235 0
-131248 131240 131244 131236 -131235 0
-131304 131240 131300 131236 -131235 0
-131235 131243 0
-131244 131235 0
-131260 131244 131252 131236 -131235 0
-131308 131244 131300 131236 -131235 0
-131235 131251 0
-131252 131235 0
-131316 131252 131300 131236 -131235 0
-131300 131235 0
-196836 131300 196772 131236 -131235 0
-164004 131235 0
-196772 131235 0
-229540 164004 229412 163876 -163875 0
-196776 196648 196772 196644 -196643 0
-196836 196708 196772 196644 -196643 0
-196772 196643 0
-65731 65735 0
-65731 65739 0
-65731 65747 0
-65731 65763 0
-196804 65731 0
-131267 131271 0
-131280 131272 131276 131268 -131267 0
-131288 131272 131284 131268 -131267 0
-131304 131272 131300 131268 -131267 0
-164040 131272 164036 131268 -131267 0
-131267 131275 0
-131292 131276 131284 131268 -131267 0
-131308 131276 131300 131268 -131267 0
-164044 131276 164036 131268 -131267 0
-131267 131283 0
-131316 131284 131300 131268 -131267 0
-164052 131284 164036 131268 -131267 0
-131267 131299 0
-147684 131300 147652 131268 -131267 0
-196804 131267 0
-163907 164035 0
-196739 196743 0
-196739 196747 0
-196780 196748 196772 196740 -196739 0
-229516 196748 229508 196740 -196739 0
-196739 196755 0
-196739 196771 0
-196804 196739 0
-245892 213124 229508 196740 -196739 0
-65760 224 65632 96 -95 0
-131296 224 131168 96 -95 0
-131296 224 131232 160 -159 0
-159 131231 0
-160 131232 0
-196768 65696 196640 65568 -65567 0
-131296 131168 131232 131104 -131103 0
-131104 131232 0
-65776 240 65648 112 -111 0
-131312 240 131184 112 -111 0
-65776 240 65712 176 -175 0
-131312 240 131248 176 -175 0
-176 32944 0
-175 65711 0
-176 65712 0
-175 131247 0
-176 131248 0
-131312 131184 131248 131120 -131119 0
-131120 131248 0
-131296 224 131280 208 -207 0
-131312 240 131280 208 -207 0
-196816 65744 131280 208 -207 0
-131280 207 0
-208 131280 0
-16464 16592 0
-131296 131168 131280 131152 -131151 0
-131312 131184 131280 131152 -131151 0
-131280 131151 0
-131152 131280 0
-196816 131280 196688 131152 -131151 0
-65680 65696 0
-65744 65679 0
-131216 131232 0
-131216 131248 0
-131312 131248 131280 131216 -131215 0
-131280 131215 0
-131216 131280 0
-196816 131280 196752 131216 -131215 0
-131216 196752 0
-196816 196688 196752 196624 -196623 0
-196752 196623 0
-65784 248 65656 120 -119 0
-131320 248 131192 120 -119 0
-131320 248 131256 184 -183 0
-184 32952 0
-183 131255 0
-184 131256 0
-131320 131192 131256 131128 -131127 0
-131128 131256 0
-131296 224 131288 216 -215 0
-131320 248 131288 216 -215 0
-65752 215 0
-131288 215 0
-216 131288 0
-196824 65752 196696 65624 -65623 0
-131296 131168 131288 131160 -131159 0
-131320 131192 131288 131160 -131159 0
-131288 131159 0
-131160 131288 0
-196824 131288 196696 131160 -131159 0
-131224 131232 0
-131264 131232 131256 131224 -131223 0
-131224 131256 0
-131288 131223 0
-131224 131288 0
-196824 131288 196760 131224 -131223 0
-131312 240 131304 232 -231 0
-65784 248 65768 232 -231 0
-131320 248 131304 232 -231 0
-131304 231 0
-232 131304 0
-196840 65768 196712 65640 -65639 0
-131312 131184 131304 131176 -131175 0
-131320 131192 131304 131176 -131175 0
-131304 131175 0
-131176 131304 0
-196840 131304 196712 131176 -131175 0
-131240 131248 0
-131312 131248 131304 131240 -131239 0
-131240 131256 0
-131304 131239 0
-131240 131304 0
-196840 131304 196776 131240 -131239 0
-65736 65744 0
-65776 65744 65768 65736 -65735 0
-65736 65752 0
-65736 65768 0
-131271 131279 0
-131272 131280 0
-131296 131280 131288 131272 -131271 0
-131312 131280 131304 131272 -131271 0
-131271 131287 0
-131272 131288 0
-131320 131288 131304 131272 -131271 0
-131271 131303 0
-131272 131304 0
-196784 196752 196776 196744 -196743 0
-196744 196760 0
-196743 196775 0
-196744 196776 0
-65788 252 65660 124 -123 0
-131324 252 131196 124 -123 0
-65788 252 65724 188 -187 0
-131324 252 131260 188 -187 0
-188 32956 0
-187 65723 0
-188 65724 0
-187 131259 0
-188 131260 0
-32828 32956 0
-65596 65724 0
-131324 131196 131260 131132 -131131 0
-131132 131260 0
-196796 131260 196668 131132 -131131 0
-131296 224 131292 220 -219 0
-131324 252 131292 220 -219 0
-196828 65756 131292 220 -219 0
-131292 219 0
-220 131292 0
-164060 32988 163932 32860 -32859 0
-65756 65627 0
-196828 65756 196700 65628 -65627 0
-131296 131168 131292 131164 -131163 0
-131324 131196 131292 131164 -131163 0
-131292 131163 0
-131164 131292 0
-196828 131292 196700 131164 -131163 0
-32924 32988 0
-65692 65696 0
-65756 65691 0
-65692 196764 0
-131232 131227 0
-131228 131232 0
-131296 131232 131292 131228 -131227 0
-131228 131260 0
-131324 131260 131292 131228 -131227 0
-131292 131227 0
-131228 131292 0
-196828 131292 196764 131228 -131227 0
-131228 196764 0
-98332 98460 0
-196796 196668 196764 196636 -196635 0
-131312 240 131308 236 -235 0
-131324 252 131308 236 -235 0
-131308 235 0
-236 131308 0
-196844 65772 196716 65644 -65643 0
-131312 131184 131308 131180 -131179 0
-131308 131179 0
-131180 131308 0
-196844 131308 196716 131180 -131179 0
-32940 32944 0
-32940 49324 0
-32940 164012 0
-131244 131248 0
-131312 131248 131308 131244 -131243 0
-131260 131243 0
-131244 131260 0
-131308 131243 0
-131244 131308 0
-131244 196780 0
-49324 49195 0
-32972 32976 0
-65740 65744 0
-65740 65756 0
-65740 65772 0
-131276 131280 0
-131296 131280 131292 131276 -131275 0
-131312 131280 131308 131276 -131275 0
-131276 131292 0
-131324 131292 131308 131276 -131275 0
-131275 131307 0
-131276 131308 0
-163916 164044 0
-82060 82076 0
-196748 196752 0
-196748 196764 0
-196796 196764 196780 196748 -196747 0
-213148 196764 213132 196748 -196747 0
-196747 196779 0
-229388 229516 0
-131320 248 131316 244 -243 0
-131324 252 131316 244 -243 0
-196852 65780 131316 244 -243 0
-131316 243 0
-244 131316 0
-65652 65780 0
-131320 131192 131316 131188 -131187 0
-131324 131196 131316 131188 -131187 0
-131316 131187 0
-131188 131316 0
-196852 131316 196724 131188 -131187 0
-32956 32947 0
-32948 98484 0
-65716 65724 0
-65780 65715 0
-229556 98484 196788 65716 -65715 0
-131252 131256 0
-131260 131251 0
-131252 131260 0
-196796 131260 196788 131252 -131251 0
-131316 131251 0
-131252 131316 0
-196852 131316 196788 131252 -131251 0
-196796 196668 196788 196660 -196659 0
-196852 196724 196788 196660 -196659 0
-229588 98516 164052 32980 -32979 0
-32980 164052 0
-65748 65752 0
-65748 65756 0
-131284 131288 0
-131296 131288 131292 131284 -131283 0
-131320 131288 131316 131284 -131283 0
-131284 131292 0
-131324 131292 131316 131284 -131283 0
-131283 131315 0
-131284 131316 0
-82068 114836 0
-98452 98484 0
-98452 229524 0
-163988 163996 0
-163988 164020 0
-180404 164020 180372 163988 -163987 0
-196756 196760 0
-196756 196764 0
-196755 196787 0
-196756 196788 0
-65764 65768 0
-65764 65772 0
-65764 65780 0
-131300 131304 0
-131312 131304 131308 131300 -131299 0
-131320 131304 131316 131300 -131299 0
-131300 131308 0
-131324 131308 131316 131300 -131299 0
-131300 131316 0
-147556 147684 0
-196772 196776 0
-196772 196780 0
-196772 196788 0
-147652 147668 0
-164048 164040 164044 164036 -164035 0
-164036 164068 0
-196804 196808 0
-196804 196812 0
-196804 196820 0
-196804 196836 0
-213124 213132 0
-229508 229524 0
-229508 229540 0
-245764 245892 0
-192 131264 0
-224 131296 0
-131168 131296 0
-196832 131296 196704 131168 -131167 0
-131232 131296 0
-240 65776 0
-240 131312 0
-196848 65776 196720 65648 -65647 0
-131184 131312 0
-196848 131312 196720 131184 -131183 0
-196848 65776 196784 65712 -65711 0
-65712 196784 0
-131248 131312 0
-131248 196784 0
-65744 65760 0
-131280 131296 0
-131328 131296 131312 131280 -131279 0
-131280 131312 0
-163920 164048 0
-248 65784 0
-196856 65784 131320 248 -247 0
-248 131320 0
-65656 65784 0
-196856 65784 196728 65656 -65655 0
-131192 131320 0
-32952 98488 0
-131288 131296 0
-131288 131320 0
-196760 196768 0
-65768 65784 0
-131304 131312 0
-131304 131320 0
-196808 196816 0
-196808 196824 0
-196808 196840 0
-252 131324 0
-196860 65788 196732 65660 -65659 0
-131196 131324 0
-196860 131324 196732 131196 -131195 0
-196860 65788 196796 65724 -65723 0
-65724 196796 0
-131260 131324 0
-131260 196796 0
-196668 196796 0
-131292 131296 0
-131292 131324 0
-131292 164060 0
-213020 213148 0
-131308 131312 0
-131328 131312 131324 131308 -131307 0
-131308 131324 0
-196812 196828 0
-196812 196844 0
-131316 131320 0
-131328 131320 131324 131316 -131315 0
-131316 131324 0
-131316 164084 0
-164084 164019 0
-245940 180404 229556 164020 -164019 0
-196788 196796 0
-196820 196852 0
-229460 229588 0
-229524 229556 0
-245780 245908 0
-131200 131328 0
-196824 196832 0
-196840 196848 0
-196840 196856 0
-196844 196860 0
-245908 245940 0
-131331 0
-131336 0
-131340 0
-65812 0
-131348 0
-131364 0
-131396 0
-131460 0
-196868 0
-131334 262 131078 6 -5 0
-131338 266 131082 10 -9 0
-131346 274 131090 18 -17 0
-131362 290 131106 34 -33 0
-131343 271 131087 15 -14 0
-131351 279 131095 23 -22 0
-131367 295 131111 39 -38 0
-131399 327 131143 71 -70 0
-131463 391 131207 135 -134 0
-131351 279 131335 263 -262 0
-131463 391 131335 263 -262 0
-131335 262 0
-131399 131143 131335 131079 -131078 0
-131335 131078 0
-131355 283 131099 27 -26 0
-131371 299 131115 43 -42 0
-131403 331 131147 75 -74 0
-131467 395 131211 139 -138 0
-131343 271 131339 267 -266 0
-131467 395 131339 267 -266 0
-131339 266 0
-131371 131115 131339 131083 -131082 0
-131339 131082 0
-131379 307 131123 51 -50 0
-131411 339 131155 83 -82 0
-131475 403 131219 147 -146 0
-131351 279 131347 275 -274 0
-131355 283 131347 275 -274 0
-65875 339 65811 275 -274 0
-131411 339 131347 275 -274 0
-131475 403 131347 275 -274 0
-131347 274 0
-131355 131099 131347 131091 -131090 0
-131411 131155 131347 131091 -131090 0
-131427 355 131171 99 -98 0
-131491 419 131235 163 -162 0
-131491 419 131363 291 -290 0
-65827 290 0
-131363 290 0
-131371 131115 131363 131107 -131106 0
-131379 131123 131363 131107 -131106 0
-131427 131171 131363 131107 -131106 0
-131491 131235 131363 131107 -131106 0
-131363 131106 0
-65891 355 65859 323 -322 0
-131330 131334 0
-131330 131338 0
-131330 131346 0
-131330 131362 0
-196899 131363 196867 131331 -131330 0
-131395 131330 0
-131360 288 131104 32 -31 0
-131376 304 131120 48 -47 0
-131407 335 131151 79 -78 0
-131408 336 131152 80 -79 0
-131472 400 131216 144 -143 0
-65824 288 65808 272 -271 0
-131376 304 131344 272 -271 0
-131408 336 131344 272 -271 0
-131472 400 131344 272 -271 0
-271 65807 0
-131344 271 0
-65824 65568 65808 65552 -65551 0
-131360 131104 131344 131088 -131087 0
-131407 131151 131343 131087 -131086 0
-131408 131152 131344 131088 -131087 0
-131472 131216 131344 131088 -131087 0
-131087 131343 0
-131344 131087 0
-65848 312 65592 56 -55 0
-131384 312 131128 56 -55 0
-131415 343 131159 87 -86 0
-131416 344 131160 88 -87 0
-131480 408 131224 152 -151 0
-65824 288 65816 280 -279 0
-131360 288 131352 280 -279 0
-131416 344 131352 280 -279 0
-131480 408 131352 280 -279 0
-131352 279 0
-131360 131104 131352 131096 -131095 0
-131384 131128 131352 131096 -131095 0
-131416 131160 131352 131096 -131095 0
-131479 131223 131351 131095 -131094 0
-131095 131351 0
-131352 131095 0
-196888 131352 196632 131096 -131095 0
-131431 359 131175 103 -102 0
-131432 360 131176 104 -103 0
-131495 423 131239 167 -166 0
-131496 424 131240 168 -167 0
-131384 312 131368 296 -295 0
-131495 423 131367 295 -294 0
-131496 424 131368 296 -295 0
-65832 295 0
-295 131367 0
-131368 295 0
-65840 65584 65832 65576 -65575 0
-98600 65832 98344 65576 -65575 0
-131376 131120 131368 131112 -131111 0
-131384 131128 131368 131112 -131111 0
-131432 131176 131368 131112 -131111 0
-131496 131240 131368 131112 -131111 0
-131111 131367 0
-131368 131111 0
-131528 456 131272 200 -199 0
-131432 360 131400 328 -327 0
-131528 456 131400 328 -327 0
-131400 327 0
-131408 131152 131400 131144 -131143 0
-131528 131272 131400 131144 -131143 0
-131400 131143 0
-131496 424 131464 392 -391 0
-131528 456 131464 392 -391 0
-131464 391 0
-131472 131216 131464 131208 -131207 0
-131496 131240 131464 131208 -131207 0
-131528 131272 131464 131208 -131207 0
-131464 131207 0
-131335 131343 0
-131335 131351 0
-131352 131335 0
-131384 131352 131368 131336 -131335 0
-131335 131367 0
-131432 131368 131400 131336 -131335 0
-131496 131368 131464 131336 -131335 0
-131400 131335 0
-131528 131400 131464 131336 -131335 0
-131464 131335 0
-196880 196624 196872 196616 -196615 0
-131388 316 131132 60 -59 0
-131420 348 131164 92 -91 0
-65948 412 65692 156 -155 0
-131484 412 131228 156 -155 0
-131360 288 131356 284 -283 0
-65852 316 65820 284 -283 0
-131388 316 131356 284 -283 0
-131484 412 131356 284 -283 0
-65820 283 0
-283 131355 0
-131356 283 0
-65820 65563 0
-98588 65820 98332 65564 -65563 0
-131420 131164 131356 131100 -131099 0
-131484 131228 131356 131100 -131099 0
-131099 131355 0
-131356 131099 0
-131435 363 131179 107 -106 0
-131436 364 131180 108 -107 0
-131500 428 131244 172 -171 0
-131499 427 131371 299 -298 0
-131500 428 131372 300 -299 0
-299 131371 0
-131372 299 0
-65840 65584 65836 65580 -65579 0
-131376 131120 131372 131116 -131115 0
-131388 131132 131372 131116 -131115 0
-131435 131179 131371 131115 -131114 0
-131436 131180 131372 131116 -131115 0
-131499 131243 131371 131115 -131114 0
-131500 131244 131372 131116 -131115 0
-131115 131371 0
-131372 131115 0
-131532 460 131276 204 -203 0
-131408 336 131404 332 -331 0
-131420 348 131404 332 -331 0
-131436 364 131404 332 -331 0
-131532 460 131404 332 -331 0
-131404 331 0
-131408 131152 131404 131148 -131147 0
-131420 131164 131404 131148 -131147 0
-131436 131180 131404 131148 -131147 0
-131532 131276 131404 131148 -131147 0
-131404 131147 0
-131472 400 131468 396 -395 0
-131484 412 131468 396 -395 0
-131500 428 131468 396 -395 0
-131532 460 131468 396 -395 0
-131468 395 0
-33168 32912 33164 32908 -32907 0
-131472 131216 131468 131212 -131211 0
-131484 131228 131468 131212 -131211 0
-131500 131244 131468 131212 -131211 0
-131532 131276 131468 131212 -131211 0
-131468 131211 0
-197004 131468 196748 131212 -131211 0
-131339 131343 0
-131344 131339 0
-131376 131344 131372 131340 -131339 0
-196880 131344 196876 131340 -131339 0
-131339 131355 0
-131339 131371 0
-131372 131339 0
-131500 131372 131468 131340 -131339 0
-131404 131339 0
-131532 131404 131468 131340 -131339 0
-131468 131339 0
-164108 131339 0
-196876 131339 0
-98576 98320 98572 98316 -98315 0
-164140 163884 164108 163852 -163851 0
-196908 196652 196876 196620 -196619 0
-131443 371 131187 115 -114 0
-131444 372 131188 116 -115 0
-131508 436 131252 180 -179 0
-131444 372 131380 308 -307 0
-131507 435 131379 307 -306 0
-131508 436 131380 308 -307 0
-307 131379 0
-131380 307 0
-65852 65596 65844 65588 -65587 0
-131444 131188 131380 131124 -131123 0
-131508 131252 131380 131124 -131123 0
-131123 131379 0
-131380 131123 0
-196916 131380 196660 131124 -131123 0
-131540 468 131284 212 -211 0
-131444 372 131412 340 -339 0
-131540 468 131412 340 -339 0
-131412 339 0
-131444 131188 131412 131156 -131155 0
-131540 131284 131412 131156 -131155 0
-131412 131155 0
-196948 131412 196692 131156 -131155 0
-131480 408 131476 404 -403 0
-131484 412 131476 404 -403 0
-131508 436 131476 404 -403 0
-131540 468 131476 404 -403 0
-131476 403 0
-131480 131224 131476 131220 -131219 0
-131484 131228 131476 131220 -131219 0
-131508 131252 131476 131220 -131219 0
-131540 131284 131476 131220 -131219 0
-131476 131219 0
-65824 65816 65820 65812 -65811 0
-131347 131351 0
-131352 131347 0
-131360 131352 131356 131348 -131347 0
-131384 131352 131380 131348 -131347 0
-131416 131352 131412 131348 -131347 0
-131420 131356 131412 131348 -131347 0
-131484 131356 131476 131348 -131347 0
-131347 131379 0
-131380 131347 0
-131508 131380 131476 131348 -131347 0
-131412 131347 0
-131540 131412 131476 131348 -131347 0
-196948 131412 196884 131348 -131347 0
-131476 131347 0
-196884 131347 0
-131556 484 131300 228 -227 0
-131432 360 131428 356 -355 0
-131436 364 131428 356 -355 0
-131444 372 131428 356 -355 0
-131556 484 131428 356 -355 0
-131428 355 0
-65635 65891 0
-131432 131176 131428 131172 -131171 0
-131444 131188 131428 131172 -131171 0
-131556 131300 131428 131172 -131171 0
-131428 131171 0
-131496 424 131492 420 -419 0
-65964 428 65956 420 -419 0
-131500 428 131492 420 -419 0
-131508 436 131492 420 -419 0
-131556 484 131492 420 -419 0
-131492 419 0
-131496 131240 131492 131236 -131235 0
-131500 131244 131492 131236 -131235 0
-131508 131252 131492 131236 -131235 0
-131556 131300 131492 131236 -131235 0
-131492 131235 0
-196900 65827 0
-131363 131367 0
-131384 131368 131380 131364 -131363 0
-131496 131368 131492 131364 -131363 0
-131363 131371 0
-131372 131363 0
-131363 131379 0
-131508 131380 131492 131364 -131363 0
-131428 131363 0
-131556 131428 131492 131364 -131363 0
-131492 131363 0
-196900 131363 0
-196643 196899 0
-229668 196900 229412 196644 -196643 0
-65859 65875 0
-131395 131399 0
-131408 131400 131404 131396 -131395 0
-131432 131400 131428 131396 -131395 0
-131395 131403 0
-131420 131404 131412 131396 -131395 0
-131436 131404 131428 131396 -131395 0
-131395 131411 0
-131395 131427 0
-196964 131428 196932 131396 -131395 0
-131524 131395 0
-196936 196680 196932 196676 -196675 0
-196940 196684 196932 196676 -196675 0
-131459 131463 0
-131472 131464 131468 131460 -131459 0
-131480 131464 131476 131460 -131459 0
-131496 131464 131492 131460 -131459 0
-131459 131467 0
-131484 131468 131476 131460 -131459 0
-131500 131468 131492 131460 -131459 0
-131459 131475 0
-131508 131476 131492 131460 -131459 0
-131459 131491 0
-131524 131459 0
-196916 196884 196900 196868 -196867 0
-229652 196884 229636 196868 -196867 0
-196932 196867 0
-229652 229396 229636 229380 -229379 0
-131424 352 131168 96 -95 0
-131488 416 131232 160 -159 0
-288 33056 0
-288 65824 0
-287 131359 0
-288 131360 0
-65568 65824 0
-131104 131360 0
-131440 368 131184 112 -111 0
-304 65840 0
-304 131376 0
-65584 65840 0
-131440 131184 131376 131120 -131119 0
-131504 131248 131376 131120 -131119 0
-131120 131376 0
-131536 464 131280 208 -207 0
-131536 464 131408 336 -335 0
-131536 131280 131408 131152 -131151 0
-131152 131408 0
-131536 464 131472 400 -399 0
-400 33168 0
-400 131472 0
-131536 131280 131472 131216 -131215 0
-131216 131472 0
-65808 65840 0
-65808 98576 0
-131344 131360 0
-131344 131376 0
-131408 131343 0
-131344 131472 0
-131344 196880 0
-98592 98336 98576 98320 -98319 0
-196624 196880 0
-131448 376 131192 120 -119 0
-65976 440 65720 184 -183 0
-311 131383 0
-312 131384 0
-131448 131192 131384 131128 -131127 0
-131128 131384 0
-131544 472 131288 216 -215 0
-131544 472 131416 344 -343 0
-131544 131288 131416 131160 -131159 0
-131416 131159 0
-131544 472 131480 408 -407 0
-408 131480 0
-131544 131288 131480 131224 -131223 0
-65816 65848 0
-65816 98584 0
-131352 131360 0
-131352 131384 0
-131448 131384 131416 131352 -131351 0
-131416 131351 0
-131352 131416 0
-131480 131351 0
-131352 131480 0
-131560 488 131304 232 -231 0
-131440 368 131432 360 -359 0
-131448 376 131432 360 -359 0
-131560 488 131432 360 -359 0
-131432 359 0
-360 131432 0
-131440 131184 131432 131176 -131175 0
-131448 131192 131432 131176 -131175 0
-131560 131304 131432 131176 -131175 0
-131504 432 131496 424 -423 0
-131512 440 131496 424 -423 0
-131560 488 131496 424 -423 0
-424 131496 0
-131504 131248 131496 131240 -131239 0
-131560 131304 131496 131240 -131239 0
-131496 131239 0
-131240 131496 0
-131368 131376 0
-131384 131367 0
-131368 131384 0
-131512 131384 131496 131368 -131367 0
-131368 131432 0
-131560 131432 131496 131368 -131367 0
-131496 131367 0
-131368 131496 0
-131368 196904 0
-98608 98352 98600 98344 -98343 0
-131399 131407 0
-131400 131408 0
-131424 131408 131416 131400 -131399 0
-131399 131415 0
-131400 131416 0
-131399 131431 0
-131400 131432 0
-131400 196936 0
-131464 131472 0
-131463 131479 0
-131464 131480 0
-131463 131495 0
-131464 131496 0
-196872 196888 0
-131452 380 131196 124 -123 0
-131516 444 131260 188 -187 0
-316 65852 0
-315 131387 0
-316 131388 0
-65596 65852 0
-131452 131196 131388 131132 -131131 0
-131132 131388 0
-131548 476 131292 220 -219 0
-131420 347 0
-348 131420 0
-131548 131292 131420 131164 -131163 0
-131420 131163 0
-196956 131420 196700 131164 -131163 0
-131548 476 131484 412 -411 0
-131484 411 0
-412 131484 0
-131488 131232 131484 131228 -131227 0
-131548 131292 131484 131228 -131227 0
-65820 65948 0
-131356 131360 0
-131356 131388 0
-131548 131420 131484 131356 -131355 0
-131356 131484 0
-131564 492 131308 236 -235 0
-131452 380 131436 364 -363 0
-131564 492 131436 364 -363 0
-131564 131308 131436 131180 -131179 0
-131564 492 131500 428 -427 0
-428 131500 0
-131564 131308 131500 131244 -131243 0
-131244 131500 0
-65836 65964 0
-131372 131376 0
-131372 131388 0
-131436 131371 0
-131500 131371 0
-229676 164140 196908 131372 -131371 0
-131404 131408 0
-131404 131420 0
-131403 131435 0
-131404 131436 0
-131404 196940 0
-33164 33180 0
-131468 131472 0
-131488 131472 131484 131468 -131467 0
-131468 131484 0
-131516 131484 131500 131468 -131467 0
-131467 131499 0
-131468 131500 0
-98572 98588 0
-196876 197004 0
-131572 500 131316 244 -243 0
-131452 380 131444 372 -371 0
-131572 500 131444 372 -371 0
-372 131444 0
-131448 131192 131444 131188 -131187 0
-131572 131316 131444 131188 -131187 0
-131444 131187 0
-131188 131444 0
-131512 440 131508 436 -435 0
-131572 500 131508 436 -435 0
-131572 131316 131508 131252 -131251 0
-131252 131508 0
-65844 65848 0
-131380 131384 0
-131392 131384 131388 131380 -131379 0
-131380 131388 0
-131444 131379 0
-196980 131444 196916 131380 -131379 0
-131508 131379 0
-131380 131508 0
-196660 196916 0
-131412 131416 0
-131412 131420 0
-131411 131443 0
-131412 131444 0
-131476 131480 0
-131488 131480 131484 131476 -131475 0
-131512 131480 131508 131476 -131475 0
-131476 131484 0
-131475 131507 0
-131476 131508 0
-196884 196892 0
-196884 229652 0
-229396 229652 0
-131428 131432 0
-131428 131436 0
-131428 131444 0
-196708 196964 0
-65956 65972 0
-131492 131496 0
-131504 131496 131500 131492 -131491 0
-131512 131496 131508 131492 -131491 0
-131492 131500 0
-131492 131508 0
-131524 131528 0
-131524 131532 0
-131524 131540 0
-131524 131556 0
-196932 196936 0
-196932 196948 0
-229636 229668 0
-320 131392 0
-131552 480 131296 224 -223 0
-131168 131424 0
-416 131488 0
-131232 131488 0
-33056 98592 0
-131360 131488 0
-131568 496 131312 240 -239 0
-368 131440 0
-432 131504 0
-131568 131312 131504 131248 -131247 0
-131248 131504 0
-131408 131440 0
-131472 131488 0
-131472 131504 0
-98576 98608 0
-131576 504 131320 248 -247 0
-131576 504 131448 376 -375 0
-376 131448 0
-131192 131448 0
-440 131512 0
-131576 131320 131512 131256 -131255 0
-131256 131512 0
-131384 131448 0
-131576 131448 131512 131384 -131383 0
-131384 131512 0
-131416 131448 0
-131432 131440 0
-131432 131448 0
-131496 131512 0
-131528 131536 0
-131528 131544 0
-131528 131560 0
-131580 131324 131452 131196 -131195 0
-131196 131452 0
-444 131516 0
-131580 131324 131516 131260 -131259 0
-131580 131452 131516 131388 -131387 0
-131420 131424 0
-131484 131516 0
-196892 196956 0
-229420 229676 0
-131532 131548 0
-131532 131564 0
-131444 131452 0
-196724 196980 0
-65972 65976 0
-131540 131572 0
-196728 196984 0
-131544 131552 0
-131560 131568 0
-131560 131576 0
-131564 131580 0
-131592 0
-131596 0
-131604 0
-131620 0
-131652 0
-131716 0
-131844 0
-131599 527 131595 523 -522 0
-131611 539 131595 523 -522 0
-131595 522 0
-131723 131211 131595 131083 -131082 0
-131851 131339 131595 131083 -131082 0
-131595 131082 0
-66099 563 65587 51 -50 0
-131611 539 131603 531 -530 0
-131859 787 131603 531 -530 0
-131635 131123 131619 131107 -131106 0
-131619 131106 0
-131659 131147 131651 131139 -131138 0
-131731 659 131715 643 -642 0
-131632 560 131120 48 -47 0
-527 131599 0
-131600 527 0
-131616 131104 131600 131088 -131087 0
-131728 131216 131600 131088 -131087 0
-131087 131599 0
-131640 568 131128 56 -55 0
-131672 600 131160 88 -87 0
-131864 792 131608 536 -535 0
-131608 535 0
-131616 131104 131608 131096 -131095 0
-131640 131128 131608 131096 -131095 0
-131736 131224 131608 131096 -131095 0
-131864 131352 131608 131096 -131095 0
-131608 131095 0
-197144 131608 196632 131096 -131095 0
-131880 808 131368 296 -295 0
-131640 568 131624 552 -551 0
-131688 616 131624 552 -551 0
-131624 551 0
-131640 131128 131624 131112 -131111 0
-131752 131240 131624 131112 -131111 0
-131880 131368 131624 131112 -131111 0
-131111 131623 0
-197160 131624 196648 131112 -131111 0
-131784 712 131272 200 -199 0
-131672 600 131656 584 -583 0
-131656 583 0
-131672 131160 131656 131144 -131143 0
-131688 131176 131656 131144 -131143 0
-131656 131143 0
-131976 904 131464 392 -391 0
-131976 904 131720 648 -647 0
-131848 775 0
-131864 131608 131848 131592 -131591 0
-131720 131591 0
-197160 196648 197128 196616 -196615 0
-66108 572 65596 60 -59 0
-131644 572 131132 60 -59 0
-131676 604 131164 92 -91 0
-131868 796 131356 284 -283 0
-131616 544 131612 540 -539 0
-131868 796 131612 540 -539 0
-131612 539 0
-131616 131104 131612 131100 -131099 0
-131676 131164 131612 131100 -131099 0
-131099 131611 0
-131612 131099 0
-131692 620 131180 108 -107 0
-66096 560 66092 556 -555 0
-131644 572 131628 556 -555 0
-131644 131132 131628 131116 -131115 0
-131628 131115 0
-131788 716 131660 588 -587 0
-587 131659 0
-131660 131147 0
-131980 908 131468 396 -395 0
-131728 656 131724 652 -651 0
-131724 651 0
-131728 131216 131724 131212 -131211 0
-131740 131228 131724 131212 -131211 0
-131788 131276 131724 131212 -131211 0
-131724 131211 0
-131856 784 131852 780 -779 0
-779 131851 0
-131852 779 0
-131856 131344 131852 131340 -131339 0
-131980 131468 131852 131340 -131339 0
-131852 131339 0
-131616 131600 131612 131596 -131595 0
-131664 131600 131660 131596 -131595 0
-131700 628 131188 116 -115 0
-131892 820 131380 308 -307 0
-131644 572 131636 564 -563 0
-563 131635 0
-131636 131123 0
-131700 131188 131668 131156 -131155 0
-131668 131155 0
-131988 916 131476 404 -403 0
-131732 659 0
-131219 131731 0
-131732 131219 0
-131892 820 131860 788 -787 0
-131347 131859 0
-131860 131347 0
-131616 131608 131612 131604 -131603 0
-131603 131611 0
-131636 131603 0
-131796 131668 131732 131604 -131603 0
-131812 740 131300 228 -227 0
-131700 628 131684 612 -611 0
-131700 131188 131684 131172 -131171 0
-132004 932 131492 420 -419 0
-131752 680 131748 676 -675 0
-131756 131244 131748 131236 -131235 0
-131748 131235 0
-131880 808 131876 804 -803 0
-131876 803 0
-132004 131492 131876 131364 -131363 0
-131363 131875 0
-131892 131636 131876 131620 -131619 0
-131784 712 131780 708 -707 0
-131796 724 131780 708 -707 0
-131788 131276 131780 131268 -131267 0
-131688 131656 131684 131652 -131651 0
-131676 131660 131668 131652 -131651 0
-131780 131651 0
-131976 904 131972 900 -899 0
-131980 908 131972 900 -899 0
-132004 932 131972 900 -899 0
-131988 131476 131972 131460 -131459 0
-131715 131719 0
-131736 131720 131732 131716 -131715 0
-131715 131723 0
-131972 131715 0
-131972 131843 0
-131680 608 131616 544 -543 0
-544 131616 0
-131104 131616 0
-65584 66096 0
-131664 591 0
-131792 131280 131664 131152 -131151 0
-131984 912 131856 784 -783 0
-131856 783 0
-131984 131472 131856 131344 -131343 0
-131600 131616 0
-131600 131632 0
-131600 131856 0
-131704 632 131192 120 -119 0
-131896 824 131384 312 -311 0
-567 131639 0
-568 131640 0
-131128 131640 0
-197176 131640 196664 131128 -131127 0
-131800 728 131672 600 -599 0
-131736 663 0
-664 131736 0
-131224 131736 0
-792 131864 0
-131872 131360 131864 131352 -131351 0
-131352 131864 0
-131608 131672 0
-131816 744 131688 616 -615 0
-131176 131688 0
-132008 936 131496 424 -423 0
-132008 131496 131880 131368 -131367 0
-131367 131879 0
-131368 131880 0
-131624 131632 0
-131624 131752 0
-131624 197160 0
-131272 131784 0
-131464 131976 0
-131720 131728 0
-131744 131728 131736 131720 -131719 0
-131720 131752 0
-197128 197144 0
-572 131644 0
-131132 131644 0
-131680 608 131676 604 -603 0
-131708 636 131676 604 -603 0
-604 131676 0
-131804 131292 131740 131228 -131227 0
-131612 131644 0
-131612 131868 0
-812 131884 0
-66092 66108 0
-131628 131632 0
-131628 197164 0
-716 131788 0
-131276 131788 0
-131660 131664 0
-131660 197196 0
-908 131980 0
-131468 131980 0
-131724 131728 0
-131724 131756 0
-131852 131868 0
-131828 756 131316 244 -243 0
-131956 884 131444 372 -371 0
-628 131700 0
-131700 131187 0
-131188 131700 0
-197428 66356 131892 820 -819 0
-819 131891 0
-820 131892 0
-197428 131892 196916 131380 -131379 0
-66356 66099 0
-131636 131640 0
-131636 131700 0
-131636 131892 0
-131284 131796 0
-131668 131672 0
-131668 131700 0
-916 131988 0
-131860 131864 0
-131860 131988 0
-131684 131688 0
-131684 131692 0
-131684 131700 0
-132020 131508 132004 131492 -131491 0
-131492 132004 0
-131748 132004 0
-131876 131880 0
-131876 131884 0
-131876 131892 0
-197156 197160 0
-131780 131784 0
-131780 131788 0
-131780 131796 0
-131780 131812 0
-131972 131976 0
-131972 131980 0
-131972 131988 0
-131972 132004 0
-131168 131680 0
-132000 131488 131744 131232 -131231 0
-132000 131488 131872 131360 -131359 0
-131360 131872 0
-720 131792 0
-131472 131984 0
-131960 888 131448 376 -375 0
-131383 131895 0
-197432 131896 197176 131640 -131639 0
-131288 131800 0
-920 131992 0
-131304 131816 0
-196712 197224 0
-936 132008 0
-131880 132008 0
-131784 131792 0
-131976 131984 0
-131976 131992 0
-131196 131708 0
-732 131804 0
-131444 131956 0
-131700 131704 0
-948 132020 0
-197432 131896 197428 131892 -131891 0
-131796 131828 0
-131312 131824 0
-197496 131960 197432 131896 -131895 0
-131992 132000 0
-197224 197240 0
-196984 197496 0
-197240 197496 0
-132135 1063 131111 39 -38 0
-132139 1067 131115 43 -42 0
-132176 1104 131152 80 -79 0
-132152 1080 131128 56 -55 0
-132184 131160 132120 131096 -131095 0
-132200 1128 131176 104 -103 0
-132648 1576 131624 552 -551 0
-132136 1063 0
-132144 131120 132136 131112 -131111 0
-132200 131176 132136 131112 -131111 0
-132136 131111 0
-132176 131152 132168 131144 -131143 0
-132156 1084 131132 60 -59 0
-132636 1564 131612 540 -539 0
-132380 131356 132124 131100 -131099 0
-132652 1580 131628 556 -555 0
-132144 131120 132140 131116 -131115 0
-132204 131180 132172 131148 -131147 0
-132748 1676 131724 652 -651 0
-132268 131244 132236 131212 -131211 0
-132876 1804 131852 780 -779 0
-132624 1552 132620 1548 -1547 0
-132652 1580 132620 1548 -1547 0
-131595 132619 0
-132660 1588 131636 564 -563 0
-132884 1812 131860 788 -787 0
-132632 1560 132628 1556 -1555 0
-132636 1564 132628 1556 -1555 0
-1123 132195 0
-132452 131428 132196 131172 -131171 0
-132516 131492 132260 131236 -131235 0
-132900 1828 131876 804 -803 0
-132644 131619 0
-132131 132139 0
-132260 132131 0
-132876 1804 132868 1796 -1795 0
-132876 131852 132868 131844 -131843 0
-132208 1136 131184 112 -111 0
-1072 132144 0
-132432 1360 132176 1104 -1103 0
-1112 132184 0
-1560 132632 0
-131608 132632 0
-132120 132152 0
-1128 132200 0
-132904 1832 131880 808 -807 0
-132712 1640 132648 1576 -1575 0
-132656 131632 132648 131624 -131623 0
-131624 132648 0
-132136 132152 0
-132648 132135 0
-132168 132200 0
-132412 131388 132380 131356 -131355 0
-132892 131868 132636 131612 -131611 0
-131612 132636 0
-132124 132636 0
-1132 132204 0
-131628 132652 0
-132140 132156 0
-132172 132176 0
-132236 132748 0
-131852 132876 0
-132656 132624 132652 132620 -132619 0
-132620 132876 0
-133012 131988 132884 131860 -131859 0
-132628 132636 0
-132628 132660 0
-1380 132452 0
-132196 132200 0
-132456 132200 132452 132196 -132195 0
-1444 132516 0
-132260 132268 0
-132916 131892 132900 131876 -131875 0
-132868 132884 0
-132720 1648 132208 1136 -1135 0
-1584 132656 0
-131408 132432 0
-131432 132456 0
-132840 1768 132712 1640 -1639 0
-133032 132008 132904 131880 -131879 0
-1928 133000 0
-1340 132412 0
-1820 132892 0
-131308 132332 0
-1844 132916 0
-1940 133012 0
-132848 1776 132720 1648 -1647 0
-132848 1776 132840 1768 -1767 0
-133000 133032 0
-132332 132336 0
-131824 132848 0
-132336 132848 0
64 0
964 0
1924 0
3844 0
7684 0
15364 0
30724 0
61444 0
122884 0
245764 0
229444 0
196804 0
131524 0
-64 -124 -244 -484 -229384 -196624 -131104 0
-96 -124 -244 -484 -932 -229384 -196624 -131104 0
-96 -220 -244 -484 -932 -1828 -229384 -196624 -131104 0
-96 -220 -468 -484 -932 -1828 -3620 -229384 -196624 -131104 0
-96 -220 -468 -932 -1828 -3620 -7204 -229384 -196624 -131104 0
-96 -220 -468 -7204 -14372 -28708 -57380 -229384 -196624 -131104 0
-96 -220 -468 -57380 -114724 -229412 -196648 -196624 -131104 0
-96 -124 -244 -436 -932 -229384 -196624 -131152 0
-96 -220 -244 -436 -932 -1828 -229384 -196624 -131152 0
-96 -220 -468 -436 -932 -1828 -3620 -229384 -196624 -131152 0
-96 -220 -468 -916 -932 -1828 -3620 -7204 -229384 -196624 -131152 0
-208 -460 -468 -916 -1812 -3604 -114724 -229412 -196648 -131120 -131152 0
-208 -460 -14356 -28692 -57364 -114708 -114724 -229412 -196648 -131120 -131152 0
-208 -460 -28692 -57364 -114708 -98356 -229412 -196648 -131120 -131152 0
-96 -220 -412 -916 -932 -1828 -3620 -7204 -229384 -196680 -131152 0
-96 -220 -412 -916 -7204 -14372 -28708 -57380 -229384 -196680 -131152 0
-96 -220 -412 -916 -14372 -28708 -57380 -114724 -229384 -196680 -131152 0
-208 -220 -188 -316 -820 -1828 -229384 -196680 -131272 0
-208 -460 -412 -316 -820 -1588 -3620 -229384 -196680 -131272 0
-208 -460 -908 -796 -1812 -3604 -3124 -7204 -14372 -28708 -229384 -196680 -131272 0
-208 -460 -908 -1804 -114708 -98356 -196660 -131128 -131176 -131272 0
-456 -460 -412 -316 -572 -1588 -3620 -229384 -196680 -131272 0
-456 -460 -412 -796 -572 -1588 -3620 -7204 -229384 -196680 -131272 0
-456 -460 -908 -1804 -1564 -3604 -7188 -14356 -57380 -114724 -229412 -196648 -196680 -131272 0
-456 -460 -908 -1804 -1564 -3604 -7188 -14356 -114724 -229412 -196648 -131176 -131272 0
-456 -1804 -1564 -3100 -6172 -14356 -114724 -229412 -196648 -131176 -131272 0
-456 -3596 -7180 -14348 -28684 -114708 -98356 -196660 -131128 -131176 -131272 0
-456 -7180 -6172 -4156 -8252 -24628 -57380 -229384 -196680 -131272 0
-456 -14348 -28684 -57356 -49180 -49204 -98356 -196660 -196648 -196680 -131272 0
-456 -28684 -24604 -49180 -98332 -98356 -229412 -196648 -131176 -131272 0
-456 -57356 -49180 -32828 -65596 -196660 -196648 -196680 -131272 0
-456 -57356 -114700 -98332 -65596 -196660 -131128 -131176 -131272 0
-96 -64 -188 -436 -932 -196680 -131152 0
-96 -160 -188 -436 -932 -1828 -196680 -131152 0
-96 -160 -412 -436 -932 -1828 -3620 -196680 -131152 0
-96 -160 -412 -916 -932 -1828 -3620 -7204 -196680 -131152 0
-96 -160 -412 -916 -57380 -114724 -229412 -196708 -196680 -131152 0
-96 -160 -412 -916 -114724 -229412 -196708 -131176 -131152 0
-208 -160 -188 -436 -820 -1828 -196680 -131152 0
-208 -160 -412 -916 -820 -1828 -3620 -7204 -196680 -131152 0
-208 -400 -412 -916 -820 -1588 -3620 -7204 -196680 -131152 0
-208 -160 -412 -796 -1812 -1828 -3620 -7204 -14372 -196680 -131272 0
-208 -160 -412 -796 -1812 -114724 -229412 -196708 -131176 -131272 0
-208 -400 -908 -1804 -3604 -7188 -14356 -12340 -28708 -57380 -114724 -196680 -131272 0
-456 -400 -412 -316 -572 -1588 -3620 -196680 -131272 0
-456 -400 -908 -796 -572 -1588 -3124 -7204 -196680 -131272 0
-456 -400 -908 -1804 -1564 -1588 -3124 -6196 -14372 -196680 -131272 0
-456 -400 -908 -1804 -1564 -3604 -7188 -14356 -114724 -229412 -196708 -131176 -131272 0
-456 -904 -908 -796 -572 -1084 -3124 -7204 -196680 -131272 0
-456 -904 -908 -1804 -1564 -1084 -3124 -6196 -14372 -196680 -131272 0
-456 -904 -908 -1804 -3596 -3100 -7188 -14356 -28692 -57380 -114724 -229412 -196708 -196680 -131272 0
-456 -904 -1804 -1564 -1084 -2108 -6196 -14372 -196680 -131272 0
-456 -904 -3596 -3100 -2108 -4156 -12340 -28708 -196680 -131272 0
-456 -904 -14348 -12316 -8252 -16444 -49204 -114724 -196680 -131272 0
-456 -904 -14348 -12316 -24604 -16444 -49204 -114724 -229412 -196680 -131272 0
-456 -904 -28684 -24604 -16444 -32828 -98356 -229412 -196680 -131272 0
-456 -904 -28684 -24604 -49180 -98332 -98356 -229412 -196708 -131176 -131272 0
-456 -904 -57356 -49180 -32828 -65596 -196660 -196708 -196680 -131272 0
-456 -904 -114700 -98332 -65596 -131132 -131188 -131176 -131272 0
-208 -160 -64 -316 -820 -1828 -131272 0
-208 -160 -288 -796 -820 -1828 -3620 -7204 -131272 0
-208 -160 -288 -796 -1812 -1828 -3620 -7204 -14372 -131272 0
-208 -160 -288 -796 -1812 -114724 -229412 -196708 -131300 -131272 0
-208 -400 -288 -316 -820 -1588 -3620 -131272 0
-208 -400 -288 -796 -1812 -1588 -3620 -7204 -14372 -131272 0
-208 -400 -288 -796 -1812 -3604 -28708 -57380 -114724 -229412 -131272 0
-208 -400 -288 -796 -1812 -3604 -114724 -229412 -196708 -131300 -131272 0
-208 -400 -784 -796 -1812 -1588 -3124 -7204 -14372 -131272 0
-456 -400 -288 -316 -572 -1588 -3620 -131272 0
-456 -400 -288 -796 -572 -1588 -3620 -7204 -131272 0
-456 -400 -288 -796 -1564 -3604 -14372 -28708 -57380 -114724 -131272 0
-456 -400 -288 -796 -1564 -3604 -114724 -229412 -196708 -131300 -131272 0
-456 -904 -784 -796 -572 -1084 -3124 -7204 -131272 0
-456 -904 -784 -1804 -1564 -1084 -3124 -6196 -14372 -131272 0
-456 -904 -784 -1804 -3596 -7180 -28692 -57364 -114708 -98356 -229412 -196708 -131300 -131272 0
-456 -904 -1800 -1804 -1564 -1084 -2108 -6196 -14372 -131272 0
-456 -904 -1800 -1804 -1564 -3100 -2108 -6196 -14372 -28708 -131272 0
-456 -904 -1800 -1804 -1564 -3100 -6172 -14356 -57380 -114724 -229412 -196708 -131272 0
-456 -904 -1800 -28684 -24604 -16444 -32828 -98356 -229412 -131272 0
-456 -904 -1800 -57356 -49180 -98332 -65596 -196660 -196708 -131300 -131272 0
-456 -400 -288 -64 -572 -1588 -3620 0
-456 -400 -288 -544 -572 -1588 -3620 -7204 0
-456 -400 -288 -544 -1564 -1588 -3620 -7204 -14372 0
-456 -400 -288 -544 -1564 -3604 -14372 -28708 -57380 -114724 0
-456 -400 -784 -1552 -1564 -1588 -3124 -6196 -14372 0
-456 -904 -784 -544 -572 -1084 -3124 -7204 0
-456 -904 -1800 -1552 -1564 -1084 -2108 -6196 -14372 0
-456 -904 -1800 -3592 -3596 -3100 -2108 -4156 -12340 -28708 0
-904 -784 -544 -64 -1084 -3124 -7204 0
-904 -784 -544 -1056 -3100 -3124 -7204 -14372 -28708 0
-904 -784 -1552 -1056 -1084 -3124 -6196 -14372 0
-904 -1800 -1552 -1056 -1084 -2108 -6196 -14372 0
-904 -1800 -1552 -1056 -3100 -6172 -14356 -57380 -114724 -229412 -196708 0
-904 -1800 -3592 -3088 -3100 -2108 -4156 -12340 -28708 0
-904 -1800 -3592 -7176 -7180 -6172 -12316 -8252 -24628 -57380 -114724 0
-1800 -1552 -1056 -64 -2108 -6196 -14372 0
-1800 -1552 -1056 -2080 -2108 -6196 -14372 -28708 0
-1800 -3592 -7176 -14344 -57356 -49180 -98332 -65596 -196660 -196708 -131300 0
-3592 -3088 -2080 -64 -4156 -12340 -28708 0
-3592 -7176 -14344 -12304 -28684 -24604 -49180 -114708 -98356 -229412 -196708 -131300 0
-7176 -6160 -4128 -64 -8252 -24628 -57380 0
-7176 -6160 -12304 -8224 -24604 -24628 -49204 -114724 -229412 0
-14344 -12304 -8224 -64 -16444 -49204 -114724 0
-28680 -24592 -16416 -64 -32828 -98356 -229412 0
-28680 -24592 -16416 -32800 -98332 -98356 -229412 -196708 -131300 0
-28680 -24592 -49168 -32800 -32828 -98356 -196660 -196708 0
-28680 -57352 -114696 -98320 -98332 -65596 -131132 -131188 -131300 0
-57352 -49168 -32800 -64 -65596 -196660 -196708 0
-114696 -98320 -65568 -64 -131132 -131188 -131300 0
-64 -124 -244 -468 -229384 -196624 -131120 0
-112 -236 -244 -468 -916 -1812 -229384 -196624 -131120 0
-112 -236 -484 -916 -1812 -3604 -7188 -229384 -196624 -131120 0
-112 -236 -484 -57364 -114708 -229396 -196632 -196624 -131120 0
-112 -236 -484 -436 -916 -1812 -3604 -229384 -196624 -131152 0
-112 -236 -484 -932 -916 -1812 -3604 -7188 -229384 -196624 -131152 0
-208 -460 -484 -932 -1828 -3620 -114708 -229396 -196632 -131104 -131152 0
-208 -460 -28708 -57380 -49204 -98356 -229396 -196632 -196624 -131152 0
-208 -460 -114724 -98356 -196660 -131128 -131104 -131152 0
-112 -236 -428 -932 -916 -1812 -3604 -7188 -229384 -196680 -131152 0
-208 -460 -428 -436 -820 -1588 -3604 -229384 -196680 -131152 0
-208 -236 -188 -316 -820 -1812 -229384 -196680 -131272 0
-208 -460 -428 -316 -820 -1588 -3604 -229384 -196680 -131272 0
-208 -460 -908 -812 -1828 -3620 -7204 -57364 -114708 -229396 -196632 -196680 -131272 0
-208 -460 -908 -1804 -1828 -3620 -7204 -14372 -57364 -114708 -229396 -196632 -196680 -131272 0
-456 -460 -428 -316 -572 -1588 -3604 -229384 -196680 -131272 0
-456 -460 -428 -812 -572 -1588 -3604 -7188 -229384 -196680 -131272 0
-456 -460 -428 -812 -1580 -3620 -114708 -229396 -196632 -131160 -131272 0
-456 -908 -812 -572 -1084 -3124 -7188 -229384 -196680 -131272 0
-456 -908 -812 -1580 -1084 -3124 -7188 -14356 -229384 -196680 -131272 0
-456 -3596 -3116 -2108 -4156 -12340 -28692 -229384 -196680 -131272 0
-456 -3596 -3116 -6188 -12332 -28708 -57364 -114708 -229396 -196632 -196680 -131272 0
-456 -3596 -7180 -14348 -12332 -28708 -57380 -114724 -114708 -229396 -196632 -131160 -131272 0
-456 -14348 -12332 -24620 -16444 -49204 -114708 -229396 -229384 -196680 -131272 0
-456 -14348 -28684 -24620 -16444 -49204 -98356 -229396 -229384 -196680 -131272 0
-456 -14348 -28684 -57356 -114700 -114724 -98356 -196660 -131128 -131160 -131272 0
-456 -28684 -24620 -49196 -32828 -98356 -229396 -196632 -196680 -131272 0
-456 -57356 -49196 -32828 -65596 -196660 -196632 -196680 -131272 0
-112 -64 -188 -436 -916 -196680 -131152 0
-112 -176 -188 -436 -916 -1812 -196680 -131152 0
-112 -176 -428 -436 -916 -1812 -3604 -196680 -131152 0
-112 -176 -428 -932 -916 -1812 -3604 -7188 -196680 -131152 0
-112 -176 -428 -932 -3604 -7188 -14356 -28692 -196680 -131152 0
-112 -176 -428 -932 -14356 -28692 -57364 -114708 -196680 -131152 0
-208 -176 -428 -436 -820 -1812 -3604 -196680 -131152 0
-208 -176 -428 -932 -820 -1812 -3604 -7188 -196680 -131152 0
-208 -176 -428 -932 -1828 -1812 -3604 -7188 -14356 -196680 -131152 0
-208 -400 -908 -932 -1828 -1588 -3124 -7188 -14356 -196680 -131152 0
-208 -400 -908 -57380 -114724 -98356 -196660 -196692 -131160 -131152 0
-208 -176 -428 -316 -820 -1812 -3604 -196680 -131272 0
-208 -176 -428 -812 -1828 -1812 -3604 -7188 -14356 -196680 -131272 0
-208 -400 -908 -812 -820 -1588 -3124 -7188 -196680 -131272 0
-456 -400 -428 -316 -572 -1588 -3604 -196680 -131272 0
-456 -400 -908 -812 -572 -1588 -3124 -7188 -196680 -131272 0
-456 -400 -908 -1804 -1580 -3620 -7204 -6196 -14356 -28692 -57364 -196680 -131272 0
-456 -400 -908 -1804 -1580 -3620 -7204 -14372 -114708 -229396 -196692 -131160 -131272 0
-456 -400 -908 -1804 -3596 -7204 -14372 -28708 -24628 -57364 -114708 -229396 -196680 -131272 0
-456 -400 -908 -1804 -3596 -14372 -28708 -57380 -114724 -114708 -229396 -196692 -131160 -131272 0
-456 -400 -908 -1804 -3596 -28708 -57380 -114724 -98356 -229396 -196692 -131160 -131272 0
-456 -904 -908 -812 -572 -1084 -3124 -7188 -196680 -131272 0
-456 -904 -908 -812 -1580 -1084 -3124 -7188 -14356 -196680 -131272 0
-456 -904 -908 -1804 -3596 -3116 -7204 -14372 -28708 -114708 -229396 -196692 -131160 -131272 0
-456 -904 -908 -1804 -3596 -7180 -7204 -6196 -12340 -24628 -57364 -196680 -131272 0
-456 -904 -1804 -1580 -1084 -2108 -6196 -14356 -196680 -131272 0
-456 -904 -3596 -3116 -2108 -4156 -12340 -28692 -196680 -131272 0
-456 -904 -3596 -3116 -6188 -4156 -12340 -28692 -57364 -196680 -131272 0
-456 -904 -14348 -12332 -8252 -16444 -49204 -114708 -196680 -131272 0
-456 -904 -28684 -24620 -16444 -32828 -98356 -229396 -196680 -131272 0
-456 -904 -57356 -49196 -32828 -65596 -196660 -196692 -196680 -131272 0
-456 -904 -114700 -98348 -65596 -131132 -131188 -131160 -131272 0
-208 -176 -64 -316 -820 -1812 -131272 0
-208 -176 -304 -812 -820 -1812 -3604 -7188 -131272 0
-208 -176 -304 -812 -1828 -1812 -3604 -7188 -14356 -131272 0
-208 -176 -304 -812 -1828 -114708 -229396 -196692 -131284 -131272 0
-208 -400 -304 -316 -820 -1588 -3604 -131272 0
-208 -400 -304 -812 -1828 -1588 -3604 -7188 -14356 -131272 0
-208 -400 -304 -812 -1828 -3620 -28692 -57364 -114708 -229396 -131272 0
-456 -400 -304 -316 -572 -1588 -3604 -131272 0
-456 -904 -784 -812 -572 -1084 -3124 -7188 -131272 0
-456 -904 -784 -1804 -1580 -1084 -3124 -6196 -14356 -131272 0
-456 -904 -784 -1804 -3596 -3116 -7204 -14372 -28708 -114708 -229396 -196692 -131284 -131272 0
-456 -904 -1800 -1804 -1580 -3116 -2108 -6196 -14356 -28692 -131272 0
-456 -904 -1800 -57356 -49196 -32828 -65596 -196660 -196692 -131272 0
-456 -904 -1800 -57356 -114700 -98348 -65596 -196660 -131188 -131284 -131272 0
-456 -400 -304 -64 -572 -1588 -3604 0
-456 -400 -304 -560 -1580 -1588 -3604 -7188 -14356 0
-456 -400 -304 -560 -1580 -3620 -114708 -229396 -196692 -131284 0
-456 -904 -784 -560 -572 -1084 -3124 -7188 0
-456 -904 -784 -560 -1580 -3116 -7204 -114708 -229396 -196692 -131284 0
-456 -904 -784 -1552 -3596 -7180 -7204 -14372 -28708 -24628 -57364 -114708 -229396 0
-456 -904 -1800 -1552 -1580 -1084 -2108 -6196 -14356 0
-456 -904 -1800 -1552 -3596 -7180 -6188 -14372 -28708 -24628 -57364 -114708 -229396 0
-456 -904 -1800 -3592 -3596 -3116 -2108 -4156 -12340 -28692 0
-456 -904 -1800 -3592 -3596 -3116 -6188 -4156 -12340 -28692 -57364 0
-456 -904 -1800 -3592 -3596 -7180 -6188 -4156 -12340 -24628 -57364 0
-904 -784 -560 -64 -1084 -3124 -7188 0
-904 -784 -560 -1072 -3116 -7204 -114708 -229396 -196692 -131284 0
-904 -784 -1552 -1072 -3116 -7204 -14372 -14356 -28692 -57364 -114708 0
-904 -1800 -1552 -1072 -1084 -2108 -6196 -14356 0
-904 -1800 -1552 -1072 -3116 -6188 -14372 -14356 -28692 -57364 -114708 0
-904 -1800 -1552 -1072 -3116 -6188 -14372 -28692 -57364 -114708 -229396 0
-904 -1800 -1552 -3088 -3116 -2108 -6196 -12340 -28692 0
-904 -1800 -3592 -3088 -3116 -2108 -4156 -12340 -28692 0
-1800 -1552 -1072 -64 -2108 -6196 -14356 0
-1800 -1552 -3088 -2096 -2108 -6196 -12340 -28692 0
-1800 -1552 -3088 -2096 -6188 -14372 -12340 -28692 -57364 -114708 0
-1800 -3592 -3088 -2096 -2108 -4156 -12340 -28692 0
-1800 -3592 -3088 -2096 -6188 -12332 -28708 -114708 -229396 -196692 -131284 0
-1800 -3592 -7176 -6160 -6188 -4156 -8252 -24628 -57364 0
-1800 -3592 -7176 -14344 -28684 -24620 -16444 -32828 -98356 -229396 0
-3592 -3088 -2096 -64 -4156 -12340 -28692 0
-3592 -7176 -6160 -4144 -12332 -24620 -57380 -57364 -114708 -229396 -196692 0
-3592 -7176 -14344 -12304 -12332 -8252 -16444 -49204 -114708 0
-7176 -6160 -4144 -64 -8252 -24628 -57364 0
-7176 -6160 -4144 -8240 -8252 -24628 -57364 -114708 0
-7176 -6160 -4144 -8240 -24620 -24628 -57364 -114708 -229396 0
-7176 -6160 -12304 -8240 -24620 -24628 -49204 -114708 -229396 0
-7176 -14344 -12304 -8240 -8252 -16444 -49204 -114708 0
-14344 -12304 -8240 -64 -16444 -49204 -114708 0
-14344 -12304 -8240 -16432 -49196 -49204 -114708 -229396 -196692 0
-14344 -12304 -8240 -16432 -49196 -114724 -114708 -229396 -196692 -131284 0
-14344 -28680 -57352 -49168 -49196 -32828 -65596 -196660 -196692 0
-28680 -24592 -16432 -64 -32828 -98356 -229396 0
-28680 -57352 -114696 -98320 -98348 -65596 -131132 -131188 -131284 0
-57352 -49168 -32816 -64 -65596 -196660 -196692 0
-57352 -49168 -32816 -65584 -65596 -196660 -196692 -131284 0
-114696 -98320 -65584 -64 -131132 -131188 -131284 0
-64 -124 -236 -484 -229384 -196632 -131104 0
-96 -220 -236 -484 -932 -1828 -229384 -196632 -131104 0
-96 -220 -460 -484 -932 -1828 -3620 -229384 -196632 -131104 0
-96 -220 -460 -57380 -114724 -229412 -196648 -196632 -131104 0
-96 -124 -236 -428 -932 -229384 -196632 -131160 0
-96 -220 -460 -428 -932 -1828 -3620 -229384 -196632 -131160 0
-96 -220 -460 -908 -932 -1828 -3620 -7204 -229384 -196632 -131160 0
-216 -220 -460 -908 -812 -1828 -3620 -7204 -229384 -196632 -131160 0
-216 -468 -28684 -57356 -114700 -98348 -229412 -196648 -131128 -131160 0
-96 -220 -412 -908 -932 -1828 -3620 -7204 -229384 -196680 -131160 0
-216 -468 -916 -908 -812 -1580 -3116 -7204 -229384 -196680 -131160 0
-216 -468 -412 -316 -812 -1580 -3620 -229384 -196680 -131272 0
-216 -468 -916 -796 -1804 -3596 -7180 -57380 -114724 -229412 -196648 -196680 -131272 0
-216 -468 -916 -1812 -114700 -98348 -196652 -131120 -131176 -131272 0
-456 -468 -412 -316 -572 -1580 -3620 -229384 -196680 -131272 0
-456 -468 -412 -796 -572 -1580 -3620 -7204 -229384 -196680 -131272 0
-456 -468 -916 -1812 -1564 -3596 -7180 -14348 -57380 -114724 -229412 -196648 -196680 -131272 0
-456 -468 -916 -1812 -3604 -14348 -28684 -57356 -49196 -114724 -229412 -196648 -196680 -131272 0
-456 -916 -796 -572 -1084 -3116 -7204 -229384 -196680 -131272 0
-456 -916 -796 -1564 -1084 -3116 -7204 -14372 -229384 -196680 -131272 0
-456 -916 -1812 -1564 -1084 -3116 -6188 -14372 -229384 -196680 -131272 0
-456 -57364 -49180 -32828 -65596 -196652 -196648 -196680 -131272 0
-96 -64 -188 -428 -932 -196680 -131160 0
-96 -160 -188 -428 -932 -1828 -196680 -131160 0
-96 -160 -412 -428 -932 -1828 -3620 -196680 -131160 0
-96 -160 -412 -908 -932 -1828 -3620 -7204 -196680 -131160 0
-96 -160 -412 -908 -1828 -3620 -7204 -14372 -196680 -131160 0
-96 -160 -412 -908 -14372 -28708 -57380 -114724 -196680 -131160 0
-216 -160 -188 -428 -812 -1828 -196680 -131160 0
-216 -160 -412 -428 -812 -1828 -3620 -196680 -131160 0
-216 -160 -412 -908 -812 -1828 -3620 -7204 -196680 -131160 0
-216 -408 -916 -908 -1804 -3596 -3116 -7204 -14372 -28708 -196680 -131160 0
-216 -160 -188 -316 -812 -1828 -196680 -131272 0
-216 -160 -412 -796 -1804 -1828 -3620 -7204 -14372 -196680 -131272 0
-216 -160 -412 -796 -1804 -114724 -229412 -196708 -131176 -131272 0
-216 -408 -412 -796 -1804 -3596 -114724 -229412 -196708 -131176 -131272 0
-216 -408 -916 -1812 -57356 -49196 -98348 -196652 -196708 -196680 -131272 0
-216 -408 -916 -1812 -114700 -98348 -196652 -131180 -131176 -131272 0
-456 -408 -412 -316 -572 -1580 -3620 -196680 -131272 0
-456 -408 -916 -796 -572 -1580 -3116 -7204 -196680 -131272 0
-456 -408 -916 -1812 -1564 -1580 -3116 -6188 -14372 -196680 -131272 0
-456 -408 -916 -1812 -1564 -3596 -7180 -14348 -57380 -114724 -229412 -196708 -196680 -131272 0
-456 -408 -916 -1812 -1564 -3596 -7180 -14348 -114724 -229412 -196708 -131176 -131272 0
-456 -408 -916 -1812 -3604 -28684 -57356 -114700 -98348 -229412 -196708 -131176 -131272 0
-456 -408 -916 -1812 -3604 -114700 -98348 -196652 -131180 -131176 -131272 0
-456 -904 -916 -796 -572 -1084 -3116 -7204 -196680 -131272 0
-456 -904 -916 -796 -1564 -1084 -3116 -7204 -14372 -196680 -131272 0
-456 -904 -916 -1812 -1564 -1084 -3116 -6188 -14372 -196680 -131272 0
-456 -904 -1812 -1564 -1084 -2108 -6188 -14372 -196680 -131272 0
-456 -904 -3604 -3100 -2108 -4156 -12332 -28708 -196680 -131272 0
-456 -904 -28692 -24604 -16444 -32828 -98348 -229412 -196680 -131272 0
-456 -904 -28692 -57364 -49180 -32828 -98348 -196652 -196708 -196680 -131272 0
-456 -904 -114708 -98332 -65596 -131132 -131180 -131176 -131272 0
-216 -160 -64 -316 -812 -1828 -131272 0
-216 -160 -288 -796 -812 -1828 -3620 -7204 -131272 0
-216 -160 -288 -796 -1804 -1828 -3620 -7204 -14372 -131272 0
-216 -160 -288 -796 -1804 -57380 -114724 -229412 -196708 -131272 0
-216 -160 -288 -796 -1804 -114724 -229412 -196708 -131300 -131272 0
-216 -408 -288 -796 -812 -1580 -3620 -7204 -131272 0
-216 -408 -288 -796 -1804 -1580 -3620 -7204 -14372 -131272 0
-216 -408 -288 -796 -1804 -3596 -114724 -229412 -196708 -131300 -131272 0
-456 -408 -288 -316 -572 -1580 -3620 -131272 0
-456 -408 -288 -796 -572 -1580 -3620 -7204 -131272 0
-456 -408 -288 -796 -1564 -3596 -3620 -7204 -14372 -28708 -131272 0
-456 -408 -288 -796 -1564 -3596 -114724 -229412 -196708 -131300 -131272 0
-456 -904 -792 -796 -572 -1084 -3116 -7204 -131272 0
-456 -904 -792 -1812 -3604 -3100 -7180 -14348 -28684 -114724 -229412 -196708 -131300 -131272 0
-456 -904 -792 -1812 -3604 -7188 -14348 -28684 -57356 -49196 -114724 -229412 -196708 -131272 0
-456 -904 -1800 -1812 -1564 -1084 -2108 -6188 -14372 -131272 0
-456 -904 -1800 -1812 -1564 -3100 -2108 -6188 -14372 -28708 -131272 0
-456 -904 -1800 -57364 -49180 -98332 -65596 -196652 -196708 -131300 -131272 0
-456 -904 -1800 -57364 -114708 -98332 -65596 -196652 -131180 -131300 -131272 0
-456 -408 -288 -64 -572 -1580 -3620 0
-456 -408 -288 -544 -1564 -1580 -3620 -7204 -14372 0
-456 -408 -288 -544 -1564 -3596 -3620 -7204 -14372 -28708 0
-456 -408 -792 -544 -1564 -3596 -3116 -7204 -14372 -28708 0
-456 -408 -792 -1560 -1564 -3596 -3116 -6188 -14372 -28708 0
-456 -904 -1800 -1560 -1564 -1084 -2108 -6188 -14372 0
-456 -904 -1800 -1560 -1564 -3100 -2108 -6188 -14372 -28708 0
-456 -904 -1800 -3592 -3604 -3100 -6172 -4156 -12332 -28708 -57380 0
-904 -792 -544 -64 -1084 -3116 -7204 0
-904 -792 -544 -1056 -1084 -3116 -7204 -14372 0
-904 -792 -544 -1056 -3100 -3116 -7204 -14372 -28708 0
-904 -792 -1560 -1056 -1084 -3116 -6188 -14372 0
-904 -792 -1560 -1056 -3100 -3116 -6188 -14372 -28708 0
-904 -1800 -3592 -3096 -3100 -2108 -4156 -12332 -28708 0
-1800 -1560 -1056 -64 -2108 -6188 -14372 0
-1800 -1560 -1056 -2080 -2108 -6188 -14372 -28708 0
-3592 -3096 -2080 -64 -4156 -12332 -28708 0
-3592 -7176 -14344 -12312 -28692 -24604 -49180 -114700 -98348 -229412 -196708 -131300 0
-3592 -7176 -14344 -28680 -114708 -98332 -65596 -131132 -131180 -131300 0
-7176 -6168 -4128 -64 -8252 -24620 -57380 0
-7176 -14344 -28680 -57352 -114708 -98332 -65596 -131132 -131180 -131300 0
-14344 -12312 -8224 -64 -16444 -49196 -114724 0
-28680 -24600 -16416 -64 -32828 -98348 -229412 0
-28680 -24600 -16416 -32800 -32828 -98348 -229412 -196708 0
-28680 -57352 -49176 -32800 -98332 -65596 -196652 -196708 -131300 0
-28680 -57352 -114696 -98328 -98332 -65596 -131132 -131180 -131300 0
-57352 -49176 -32800 -64 -65596 -196652 -196708 0
-114696 -98328 -65568 -64 -131132 -131180 -131300 0
-64 -124 -236 -460 -229384 -196632 -131128 0
-120 -244 -236 -460 -908 -1804 -229384 -196632 -131128 0
-120 -244 -484 -460 -908 -1804 -3596 -229384 -196632 -131128 0
-216 -244 -484 -428 -812 -1804 -3596 -229384 -196632 -131160 0
-216 -468 -28708 -57380 -49196 -98348 -229388 -196624 -196632 -131160 0
-120 -244 -188 -428 -908 -1804 -229384 -196680 -131160 0
-216 -244 -188 -316 -812 -1804 -229384 -196680 -131272 0
-216 -468 -436 -316 -812 -1580 -3596 -229384 -196680 -131272 0
-216 -468 -916 -820 -1828 -3620 -7204 -57356 -114700 -229388 -196624 -196680 -131272 0
-216 -468 -916 -1812 -14372 -28708 -57380 -49196 -114700 -229388 -196624 -196680 -131272 0
-456 -468 -436 -316 -572 -1580 -3596 -229384 -196680 -131272 0
-456 -468 -436 -820 -572 -1580 -3596 -7180 -229384 -196680 -131272 0
-456 -468 -916 -1812 -1588 -3620 -7204 -14372 -57356 -114700 -229388 -196624 -196680 -131272 0
-456 -3604 -7188 -14356 -28692 -114724 -98348 -196652 -131120 -131152 -131272 0
-456 -14356 -12340 -24628 -16444 -49196 -114700 -229388 -229384 -196680 -131272 0
-456 -28692 -24628 -49204 -32828 -98348 -229388 -196624 -196680 -131272 0
-456 -57364 -114708 -98356 -65596 -196652 -131120 -131152 -131272 0
-120 -64 -188 -428 -908 -196680 -131160 0
-120 -184 -436 -428 -908 -1804 -3596 -196680 -131160 0
-120 -184 -436 -932 -908 -1804 -3596 -7180 -196680 -131160 0
-216 -184 -188 -428 -812 -1804 -196680 -131160 0
-216 -184 -436 -428 -812 -1804 -3596 -196680 -131160 0
-216 -184 -436 -932 -812 -1804 -3596 -7180 -196680 -131160 0
-216 -184 -436 -820 -812 -1804 -3596 -7180 -196680 -131272 0
-216 -184 -436 -820 -1828 -1804 -3596 -7180 -14348 -196680 -131272 0
-216 -184 -436 -820 -1828 -114700 -229388 -196684 -131152 -131272 0
-216 -408 -916 -820 -812 -1580 -3116 -7180 -196680 -131272 0
-216 -408 -916 -1812 -14372 -28708 -57380 -49196 -114700 -229388 -196684 -196680 -131272 0
-456 -408 -436 -316 -572 -1580 -3596 -196680 -131272 0
-456 -408 -916 -820 -572 -1580 -3116 -7180 -196680 -131272 0
-456 -408 -916 -1812 -1588 -3620 -7204 -14372 -114700 -229388 -196684 -131152 -131272 0
-456 -904 -916 -820 -572 -1084 -3116 -7180 -196680 -131272 0
-456 -904 -916 -820 -1588 -1084 -3116 -7180 -14348 -196680 -131272 0
-456 -904 -916 -1812 -1588 -3124 -7204 -14372 -114700 -229388 -196684 -131152 -131272 0
-456 -904 -1812 -1588 -1084 -2108 -6188 -14348 -196680 -131272 0
-456 -904 -7188 -14356 -28692 -24628 -57380 -114724 -98348 -229388 -196684 -131152 -131272 0
-456 -904 -28692 -24628 -16444 -32828 -98348 -229388 -196680 -131272 0
-456 -904 -114708 -98356 -65596 -131132 -131180 -131152 -131272 0
-216 -184 -64 -316 -812 -1804 -131272 0
-216 -184 -312 -820 -812 -1804 -3596 -7180 -131272 0
-216 -184 -312 -820 -1828 -1804 -3596 -7180 -14348 -131272 0
-216 -184 -312 -820 -1828 -114700 -229388 -196684 -131276 -131272 0
-216 -408 -312 -316 -812 -1580 -3596 -131272 0
-216 -408 -312 -820 -812 -1580 -3596 -7180 -131272 0
-216 -408 -312 -820 -1828 -1580 -3596 -7180 -14348 -131272 0
-216 -408 -312 -820 -1828 -3620 -114700 -229388 -196684 -131276 -131272 0
-216 -408 -792 -1812 -1828 -3620 -3116 -6188 -14348 -28684 -131272 0
-456 -408 -312 -316 -572 -1580 -3596 -131272 0
-456 -408 -312 -820 -572 -1580 -3596 -7180 -131272 0
-456 -904 -792 -820 -572 -1084 -3116 -7180 -131272 0
-456 -904 -792 -1812 -1588 -1084 -3116 -6188 -14348 -131272 0
-456 -904 -1800 -1812 -1588 -1084 -2108 -6188 -14348 -131272 0
-456 -904 -1800 -1812 -1588 -3124 -2108 -6188 -14348 -28684 -131272 0
-456 -408 -312 -64 -572 -1580 -3596 0
-456 -408 -312 -568 -1588 -1580 -3596 -7180 -14348 0
-456 -408 -312 -568 -1588 -3620 -114700 -229388 -196684 -131276 0
-456 -408 -792 -568 -1588 -1580 -3116 -7180 -14348 0
-456 -408 -792 -568 -1588 -3620 -3116 -7180 -14348 -28684 0
-456 -904 -792 -568 -1588 -1084 -3116 -7180 -14348 0
-456 -904 -1800 -1560 -1588 -1084 -2108 -6188 -14348 0
-456 -904 -1800 -3592 -3604 -3124 -6196 -4156 -12332 -28684 -57356 0
-904 -792 -568 -64 -1084 -3116 -7180 0
-904 -792 -568 -1080 -3124 -7204 -114700 -229388 -196684 -131276 0
-904 -1800 -3592 -3096 -3124 -2108 -4156 -12332 -28684 0
-904 -1800 -3592 -7176 -7188 -14356 -12340 -8252 -24620 -49196 -114700 0
-904 -1800 -3592 -7176 -28692 -24628 -49204 -32828 -98348 -229388 -196684 0
-1800 -1560 -1080 -64 -2108 -6188 -14348 0
-1800 -3592 -3096 -2104 -2108 -4156 -12332 -28684 0
-1800 -3592 -7176 -6168 -6196 -4156 -8252 -24620 -57356 0
-1800 -3592 -7176 -14344 -114708 -98356 -65596 -131132 -131180 -131276 0
-3592 -3096 -2104 -64 -4156 -12332 -28684 0
-3592 -7176 -6168 -4152 -4156 -8252 -24620 -57356 0
-3592 -7176 -6168 -4152 -12340 -8252 -24620 -57356 -114700 0
-3592 -7176 -14344 -28680 -28692 -24628 -16444 -32828 -98348 -229388 0
-3592 -7176 -14344 -28680 -57364 -49204 -32828 -65596 -196652 -196684 0
-7176 -6168 -4152 -64 -8252 -24620 -57356 0
-7176 -14344 -28680 -57352 -57364 -49204 -32828 -65596 -196652 -196684 0
-14344 -12312 -8248 -64 -16444 -49196 -114700 0
-14344 -28680 -57352 -49176 -49204 -32828 -65596 -196652 -196684 0
-14344 -28680 -57352 -114696 -114708 -98356 -65596 -131132 -131180 -131276 0
-28680 -24600 -16440 -64 -32828 -98348 -229388 0
-28680 -24600 -16440 -32824 -98356 -98348 -229388 -196684 -131276 0
-57352 -49176 -32824 -64 -65596 -196652 -196684 0
-57352 -114696 -98328 -65592 -65596 -131132 -131180 -131276 0
-114696 -98328 -65592 -64 -131132 -131180 -131276 0
-64 -124 -220 -468 -229384 -196648 -131120 0
-112 -124 -220 -468 -916 -229384 -196648 -131120 0
-112 -236 -220 -468 -916 -1812 -229384 -196648 -131120 0
-112 -236 -460 -1812 -3604 -7188 -14356 -229384 -196648 -131120 0
-232 -236 -460 -412 -796 -1812 -3604 -229384 -196648 -131176 0
-232 -236 -460 -908 -796 -1812 -3604 -7188 -229384 -196648 -131176 0
-232 -484 -460 -908 -1804 -3596 -114708 -229396 -196632 -131128 -131176 0
-232 -484 -114700 -98332 -196636 -131104 -131128 -131176 0
-112 -124 -188 -412 -916 -229384 -196680 -131176 0
-112 -236 -428 -908 -916 -1812 -3604 -7188 -229384 -196680 -131176 0
-232 -236 -188 -412 -796 -1812 -229384 -196680 -131176 0
-232 -484 -428 -412 -796 -1564 -3604 -229384 -196680 -131176 0
-232 -484 -932 -57356 -49180 -98332 -196636 -196632 -196680 -131176 0
-232 -236 -188 -316 -796 -1812 -229384 -196680 -131272 0
-232 -484 -932 -812 -1804 -3596 -3100 -7188 -14356 -28692 -229384 -196680 -131272 0
-232 -484 -932 -812 -1804 -3596 -7180 -57364 -114708 -229396 -196632 -196680 -131272 0
-232 -484 -932 -1828 -114700 -98332 -196636 -131104 -131160 -131272 0
-456 -484 -428 -316 -572 -1564 -3604 -229384 -196680 -131272 0
-456 -484 -428 -812 -572 -1564 -3604 -7188 -229384 -196680 -131272 0
-456 -484 -932 -812 -572 -1564 -3100 -7188 -229384 -196680 -131272 0
-456 -932 -1828 -3620 -3116 -7180 -14348 -28684 -114708 -229396 -196632 -131160 -131272 0
-456 -1828 -3620 -3116 -2108 -6172 -12316 -28692 -229384 -196680 -131272 0
-456 -1828 -3620 -7204 -6188 -6172 -12316 -24604 -57364 -229384 -196680 -131272 0
-456 -3620 -7204 -6188 -12332 -28684 -57356 -57364 -114708 -229396 -196632 -196680 -131272 0
-456 -3620 -7204 -14372 -12332 -28684 -57356 -49180 -114708 -229396 -196632 -196680 -131272 0
-456 -3620 -7204 -14372 -28708 -114700 -98332 -196636 -131104 -131160 -131272 0
-456 -14372 -28708 -24620 -16444 -49180 -98332 -229396 -229384 -196680 -131272 0
-456 -14372 -28708 -57380 -114724 -114700 -98332 -196636 -131104 -131160 -131272 0
-456 -28708 -24620 -16444 -32828 -98332 -229396 -229384 -196680 -131272 0
-456 -28708 -24620 -49196 -32828 -98332 -229396 -196632 -196680 -131272 0
-456 -28708 -57380 -114724 -98348 -98332 -196636 -131104 -131160 -131272 0
-112 -64 -188 -412 -916 -196680 -131176 0
-112 -176 -428 -412 -916 -1812 -3604 -196680 -131176 0
-112 -176 -428 -908 -916 -1812 -3604 -7188 -196680 -131176 0
-112 -176 -428 -908 -3604 -7188 -14356 -28692 -196680 -131176 0
-232 -176 -188 -412 -796 -1812 -196680 -131176 0
-232 -176 -428 -908 -796 -1812 -3604 -7188 -196680 -131176 0
-232 -424 -428 -908 -1804 -3596 -114708 -229396 -196692 -131160 -131176 0
-232 -424 -932 -908 -1804 -1564 -3100 -7188 -14356 -196680 -131176 0
-232 -176 -188 -316 -796 -1812 -196680 -131272 0
-232 -176 -428 -812 -1804 -1812 -3604 -7188 -14356 -196680 -131272 0
-232 -176 -428 -812 -1804 -57364 -114708 -229396 -196692 -196680 -131272 0
-232 -176 -428 -812 -1804 -114708 -229396 -196692 -131160 -131272 0
-232 -424 -428 -316 -796 -1564 -3604 -196680 -131272 0
-232 -424 -932 -1828 -114700 -98332 -196636 -131164 -131160 -131272 0
-456 -424 -428 -316 -572 -1564 -3604 -196680 -131272 0
-456 -424 -932 -812 -572 -1564 -3100 -7188 -196680 -131272 0
-456 -904 -932 -812 -572 -1084 -3100 -7188 -196680 -131272 0
-456 -904 -932 -812 -1580 -1084 -3100 -7188 -14356 -196680 -131272 0
-456 -904 -1828 -1580 -1084 -2108 -6172 -14356 -196680 -131272 0
-456 -904 -1828 -3620 -7204 -6188 -14348 -28684 -57356 -57364 -114708 -229396 -196692 -196680 -131272 0
-456 -904 -3620 -3116 -2108 -4156 -12316 -28692 -196680 -131272 0
-456 -904 -3620 -3116 -6188 -4156 -12316 -28692 -57364 -196680 -131272 0
-456 -904 -7204 -14372 -28708 -24620 -57356 -114700 -98332 -229396 -196692 -131160 -131272 0
-456 -904 -14372 -12332 -8252 -16444 -49180 -114708 -196680 -131272 0
-456 -904 -28708 -57380 -49196 -32828 -98332 -196636 -196692 -196680 -131272 0
-232 -176 -64 -316 -796 -1812 -131272 0
-232 -176 -304 -812 -796 -1812 -3604 -7188 -131272 0
-232 -176 -304 -812 -1804 -1812 -3604 -7188 -14356 -131272 0
-232 -176 -304 -812 -1804 -57364 -114708 -229396 -196692 -131272 0
-232 -176 -304 -812 -1804 -114708 -229396 -196692 -131284 -131272 0
-232 -424 -304 -316 -796 -1564 -3604 -131272 0
-232 -424 -304 -812 -796 -1564 -3604 -7188 -131272 0
-232 -424 -304 -812 -1804 -1564 -3604 -7188 -14356 -131272 0
-232 -424 -304 -812 -1804 -3596 -114708 -229396 -196692 -131284 -131272 0
-232 -424 -808 -812 -1804 -1564 -3100 -7188 -14356 -131272 0
-456 -424 -304 -316 -572 -1564 -3604 -131272 0
-456 -424 -304 -812 -1580 -3596 -3604 -7188 -14356 -28692 -131272 0
-456 -424 -304 -812 -1580 -3596 -14356 -28692 -57364 -114708 -131272 0
-456 -424 -808 -812 -572 -1564 -3100 -7188 -131272 0
-456 -904 -808 -812 -572 -1084 -3100 -7188 -131272 0
-456 -904 -808 -1828 -1580 -1084 -3100 -6172 -14356 -131272 0
-456 -904 -1800 -1828 -3620 -3116 -2108 -6172 -12316 -28692 -131272 0
-456 -904 -1800 -3620 -3116 -6188 -12332 -28684 -114708 -229396 -196692 -131284 -131272 0
-456 -904 -1800 -57380 -114724 -98348 -65596 -196636 -131164 -131284 -131272 0
-456 -424 -304 -64 -572 -1564 -3604 0
-456 -424 -304 -560 -572 -1564 -3604 -7188 0
-456 -424 -304 -560 -1580 -1564 -3604 -7188 -14356 0
-456 -904 -808 -560 -572 -1084 -3100 -7188 0
-456 -904 -808 -560 -1580 -3116 -7180 -7188 -14356 -28692 -57364 0
-456 -904 -808 -1576 -3620 -3116 -3100 -6172 -12316 -28692 0
-456 -904 -1800 -1576 -1580 -1084 -2108 -6172 -14356 0
-456 -904 -1800 -3592 -3620 -3116 -6188 -4156 -12316 -28692 -57364 0
-904 -808 -560 -64 -1084 -3100 -7188 0
-904 -808 -560 -1072 -3116 -3100 -7188 -14356 -28692 0
-904 -808 -1576 -1072 -1084 -3100 -6172 -14356 0
-904 -1800 -3592 -3112 -3116 -2108 -4156 -12316 -28692 0
-1800 -1576 -1072 -64 -2108 -6172 -14356 0
-1800 -3592 -3112 -2096 -2108 -4156 -12316 -28692 0
-3592 -3112 -2096 -64 -4156 -12316 -28692 0
-7176 -6184 -4144 -64 -8252 -24604 -57364 0
-7176 -6184 -4144 -8240 -8252 -24604 -57364 -114708 0
-7176 -14344 -28680 -57352 -57380 -49196 -32828 -65596 -196636 -196692 0
-7176 -14344 -28680 -57352 -114724 -98348 -65596 -131132 -131164 -131284 0
-14344 -12328 -8240 -64 -16444 -49180 -114708 0
-14344 -12328 -8240 -16432 -49196 -49180 -114708 -229396 -196692 0
-14344 -28680 -57352 -49192 -114724 -98348 -65596 -196636 -131164 -131284 0
-14344 -28680 -57352 -114696 -114724 -98348 -65596 -131132 -131164 -131284 0
-28680 -24616 -16432 -64 -32828 -98332 -229396 0
-28680 -57352 -114696 -98344 -98348 -65596 -131132 -131164 -131284 0
-57352 -49192 -32816 -64 -65596 -196636 -196692 0
-114696 -98344 -65584 -64 -131132 -131164 -131284 0
-64 -124 -220 -460 -229384 -196648 -131128 0
-120 -244 -220 -460 -908 -1804 -229384 -196648 -131128 0
-120 -244 -468 -908 -1804 -3596 -7180 -229384 -196648 -131128 0
-120 -244 -468 -7180 -14348 -28684 -57356 -229384 -196648 -131128 0
-120 -124 -220 -412 -908 -229384 -196648 -131176 0
-120 -244 -468 -412 -908 -1804 -3596 -229384 -196648 -131176 0
-120 -244 -468 -916 -7180 -14348 -28684 -57356 -229384 -196648 -131176 0
-120 -244 -468 -916 -28684 -57356 -114700 -229388 -229384 -196648 -131176 0
-232 -244 -468 -412 -796 -1804 -3596 -229384 -196648 -131176 0
-232 -484 -468 -916 -796 -1564 -3596 -7180 -229384 -196648 -131176 0
-232 -484 -468 -916 -1812 -1564 -3596 -7180 -14348 -229384 -196648 -131176 0
-232 -484 -28692 -57364 -114708 -98332 -229388 -196624 -131120 -131176 0
-232 -484 -114708 -98332 -196636 -131104 -131120 -131176 0
-120 -124 -188 -412 -908 -229384 -196680 -131176 0
-120 -244 -436 -916 -908 -1804 -3596 -7180 -229384 -196680 -131176 0
-120 -244 -436 -916 -57356 -114700 -229388 -196624 -196680 -131176 0
-232 -484 -932 -820 -796 -1564 -3100 -7180 -229384 -196680 -131272 0
-232 -484 -932 -820 -1812 -3604 -3100 -7180 -14348 -28684 -229384 -196680 -131272 0
-232 -484 -932 -1828 -14356 -28692 -57364 -49180 -114700 -229388 -196624 -196680 -131272 0
-456 -484 -436 -316 -572 -1564 -3596 -229384 -196680 -131272 0
-456 -484 -436 -820 -572 -1564 -3596 -7180 -229384 -196680 -131272 0
-456 -484 -932 -820 -572 -1564 -3100 -7180 -229384 -196680 -131272 0
-456 -484 -932 -1828 -1588 -3604 -7188 -14356 -57356 -114700 -229388 -196624 -196680 -131272 0
-456 -932 -1828 -3620 -7204 -114708 -98332 -196636 -131104 -131152 -131272 0
-456 -1828 -3620 -7204 -14372 -114708 -98332 -196636 -131104 -131152 -131272 0
-456 -3620 -7204 -14372 -12340 -28692 -57364 -49180 -114700 -229388 -196624 -196680 -131272 0
-456 -3620 -7204 -14372 -28708 -114708 -98332 -196636 -131104 -131152 -131272 0
-456 -28708 -24628 -16444 -32828 -98332 -229388 -229384 -196680 -131272 0
-456 -28708 -24628 -49204 -32828 -98332 -229388 -196624 -196680 -131272 0
-456 -57380 -49204 -32828 -65596 -196636 -196624 -196680 -131272 0
-456 -57380 -49204 -98356 -65596 -196636 -196624 -131152 -131272 0
-120 -64 -188 -412 -908 -196680 -131176 0
-120 -184 -188 -412 -908 -1804 -196680 -131176 0
-120 -184 -436 -412 -908 -1804 -3596 -196680 -131176 0
-120 -184 -436 -916 -908 -1804 -3596 -7180 -196680 -131176 0
-120 -184 -436 -916 -3596 -7180 -14348 -28684 -196680 -131176 0
-120 -184 -436 -916 -57356 -114700 -229388 -196684 -196680 -131176 0
-120 -184 -436 -916 -114700 -229388 -196684 -131152 -131176 0
-232 -184 -188 -412 -796 -1804 -196680 -131176 0
-232 -184 -436 -916 -796 -1804 -3596 -7180 -196680 -131176 0
-232 -184 -436 -916 -1812 -1804 -3596 -7180 -14348 -196680 -131176 0
-232 -424 -436 -916 -796 -1564 -3596 -7180 -196680 -131176 0
-232 -184 -188 -316 -796 -1804 -196680 -131272 0
-232 -184 -436 -820 -796 -1804 -3596 -7180 -196680 -131272 0
-232 -184 -436 -820 -1812 -1804 -3596 -7180 -14348 -196680 -131272 0
-232 -184 -436 -820 -1812 -28684 -57356 -114700 -229388 -196680 -131272 0
-456 -424 -436 -316 -572 -1564 -3596 -196680 -131272 0
-456 -424 -932 -820 -572 -1564 -3100 -7180 -196680 -131272 0
-456 -424 -932 -1828 -3620 -28692 -57364 -114708 -98332 -229388 -196684 -131152 -131272 0
-456 -904 -932 -820 -572 -1084 -3100 -7180 -196680 -131272 0
-456 -904 -932 -820 -1588 -1084 -3100 -7180 -14348 -196680 -131272 0
-456 -904 -1828 -1588 -1084 -2108 -6172 -14348 -196680 -131272 0
-456 -904 -3620 -3124 -2108 -4156 -12316 -28684 -196680 -131272 0
-456 -904 -14372 -12340 -8252 -16444 -49180 -114700 -196680 -131272 0
-456 -904 -14372 -12340 -24628 -16444 -49180 -114700 -229388 -196680 -131272 0
-456 -904 -28708 -24628 -16444 -32828 -98332 -229388 -196680 -131272 0
-456 -904 -28708 -24628 -49204 -32828 -98332 -229388 -196684 -196680 -131272 0
-456 -904 -28708 -57380 -49204 -32828 -98332 -196636 -196684 -196680 -131272 0
-456 -904 -57380 -49204 -32828 -65596 -196636 -196684 -196680 -131272 0
-456 -904 -57380 -49204 -98356 -65596 -196636 -196684 -131152 -131272 0
-232 -184 -64 -316 -796 -1804 -131272 0
-232 -184 -312 -316 -796 -1804 -3596 -131272 0
-232 -184 -312 -820 -796 -1804 -3596 -7180 -131272 0
-232 -424 -312 -316 -796 -1564 -3596 -131272 0
-232 -424 -312 -820 -796 -1564 -3596 -7180 -131272 0
-232 -424 -312 -820 -1812 -1564 -3596 -7180 -14348 -131272 0
-232 -424 -312 -820 -1812 -3604 -114700 -229388 -196684 -131276 -131272 0
-232 -424 -808 -820 -796 -1564 -3100 -7180 -131272 0
-456 -424 -312 -316 -572 -1564 -3596 -131272 0
-456 -424 -312 -820 -572 -1564 -3596 -7180 -131272 0
-456 -424 -312 -820 -1588 -3604 -3596 -7180 -14348 -28684 -131272 0
-456 -424 -312 -820 -1588 -3604 -14348 -28684 -57356 -114700 -131272 0
-456 -424 -808 -1828 -1588 -1564 -3100 -6172 -14348 -131272 0
-456 -904 -808 -820 -572 -1084 -3100 -7180 -131272 0
-456 -904 -808 -1828 -1588 -1084 -3100 -6172 -14348 -131272 0
-456 -904 -808 -1828 -3620 -7204 -28692 -57364 -49180 -98332 -229388 -196684 -131272 0
-456 -904 -1800 -1828 -1588 -3124 -2108 -6172 -14348 -28684 -131272 0
-456 -904 -1800 -3620 -3124 -2108 -4156 -12316 -28684 -131272 0
-456 -904 -1800 -57380 -49204 -32828 -65596 -196636 -196684 -131272 0
-456 -904 -1800 -57380 -114724 -98356 -65596 -196636 -131164 -131276 -131272 0
-456 -424 -312 -64 -572 -1564 -3596 0
-456 -424 -312 -568 -1588 -1564 -3596 -7180 -14348 0
-456 -424 -312 -568 -1588 -3604 -114700 -229388 -196684 -131276 0
-456 -424 -808 -568 -1588 -3604 -3100 -7180 -14348 -28684 0
-456 -904 -808 -568 -1588 -3124 -7188 -28684 -57356 -114700 -229388 0
-456 -904 -1800 -1576 -1588 -1084 -2108 -6172 -14348 0
-456 -904 -1800 -1576 -3620 -7204 -14372 -14356 -28692 -57364 -49180 -114700 -229388 -196684 0
-456 -904 -1800 -3592 -3620 -3124 -6196 -4156 -12316 -28684 -57356 0
-456 -904 -1800 -3592 -57380 -49204 -32828 -65596 -196636 -196684 0
-904 -808 -568 -64 -1084 -3100 -7180 0
-904 -808 -568 -1080 -3124 -7188 -7180 -14348 -28684 -57356 0
-904 -808 -1576 -1080 -3124 -7188 -14356 -114700 -229388 -196684 -131276 0
-904 -1800 -1576 -1080 -3124 -6196 -14356 -28684 -57356 -114700 -229388 0
-904 -1800 -1576 -1080 -3124 -6196 -14356 -57356 -114700 -229388 -196684 0
-904 -1800 -3592 -3112 -3124 -2108 -4156 -12316 -28684 0
-904 -1800 -3592 -7176 -7204 -6196 -12340 -8252 -24604 -57356 -114700 0
-1800 -1576 -1080 -64 -2108 -6172 -14348 0
-1800 -3592 -7176 -14344 -14372 -12340 -8252 -16444 -49180 -114700 0
-3592 -3112 -2104 -64 -4156 -12316 -28684 0
-7176 -6184 -4152 -64 -8252 -24604 -57356 0
-7176 -6184 -12328 -8248 -24628 -57364 -49180 -114700 -229388 -196684 0
-7176 -14344 -12328 -8248 -8252 -16444 -49180 -114700 0
-7176 -14344 -28680 -57352 -57380 -49204 -32828 -65596 -196636 -196684 0
-14344 -12328 -8248 -64 -16444 -49180 -114700 0
-14344 -12328 -8248 -16440 -49204 -49180 -114700 -229388 -196684 0
-14344 -28680 -24616 -16440 -49204 -98356 -98332 -229388 -196684 -131276 0
-14344 -28680 -57352 -114696 -114724 -98356 -65596 -131132 -131164 -131276 0
-28680 -24616 -16440 -64 -32828 -98332 -229388 0
-28680 -57352 -114696 -98344 -98356 -65596 -131132 -131164 -131276 0
-57352 -49192 -32824 -64 -65596 -196636 -196684 0
-57352 -49192 -32824 -65592 -65596 -196636 -196684 -131276 0
-114696 -98344 -65592 -64 -131132 -131164 -131276 0
-64 -120 -244 -484 -229388 -196624 -131104 0
-96 -120 -244 -484 -932 -229388 -196624 -131104 0
-96 -216 -244 -484 -932 -1828 -229388 -196624 -131104 0
-96 -216 -468 -484 -932 -1828 -3620 -229388 -196624 -131104 0
-96 -216 -468 -932 -1828 -3620 -7204 -229388 -196624 -131104 0
-96 -216 -468 -28708 -57380 -114724 -229412 -229388 -196624 -131104 0
-96 -120 -244 -436 -932 -229388 -196624 -131152 0
-96 -216 -468 -916 -28708 -57380 -114724 -229412 -229388 -196624 -131152 0
-96 -216 -468 -916 -114724 -229412 -196652 -131120 -131152 0
-208 -216 -244 -436 -820 -1828 -229388 -196624 -131152 0
-208 -216 -468 -436 -820 -1828 -3620 -229388 -196624 -131152 0
-208 -456 -468 -916 -1812 -3604 -114724 -229412 -196652 -131120 -131152 0
-208 -456 -14356 -28692 -57364 -114708 -114724 -229412 -196652 -131120 -131152 0
-96 -216 -184 -436 -932 -1828 -229388 -196684 -131152 0
-96 -216 -408 -916 -932 -1828 -3620 -7204 -229388 -196684 -131152 0
-96 -216 -408 -916 -57380 -114724 -229412 -196652 -196684 -131152 0
-96 -216 -408 -916 -114724 -229412 -196652 -131180 -131152 0
-208 -216 -184 -436 -820 -1828 -229388 -196684 -131152 0
-208 -216 -184 -312 -820 -1828 -229388 -196684 -131276 0
-208 -216 -408 -312 -820 -1828 -3620 -229388 -196684 -131276 0
-208 -456 -408 -312 -820 -1588 -3620 -229388 -196684 -131276 0
-208 -456 -904 -792 -1812 -3604 -3124 -7204 -14372 -28708 -229388 -196684 -131276 0
-460 -456 -408 -312 -568 -1588 -3620 -229388 -196684 -131276 0
-460 -456 -408 -792 -568 -1588 -3620 -7204 -229388 -196684 -131276 0
-460 -3592 -7176 -6168 -4152 -12340 -24628 -57380 -229388 -196684 -131276 0
-460 -3592 -7176 -14344 -28680 -114708 -98356 -196660 -131132 -131180 -131276 0
-460 -14344 -28680 -24600 -16440 -49204 -98356 -229412 -229388 -196684 -131276 0
-460 -28680 -24600 -16440 -32824 -98356 -229412 -229388 -196684 -131276 0
-96 -64 -184 -436 -932 -196684 -131152 0
-96 -160 -184 -436 -932 -1828 -196684 -131152 0
-96 -160 -408 -436 -932 -1828 -3620 -196684 -131152 0
-96 -160 -408 -916 -932 -1828 -3620 -7204 -196684 -131152 0
-96 -160 -408 -916 -3620 -7204 -14372 -28708 -196684 -131152 0
-96 -160 -408 -916 -114724 -229412 -196708 -131180 -131152 0
-208 -160 -184 -436 -820 -1828 -196684 -131152 0
-208 -160 -408 -436 -820 -1828 -3620 -196684 -131152 0
-208 -160 -408 -916 -1812 -57380 -114724 -229412 -196708 -196684 -131152 0
-208 -400 -408 -916 -820 -1588 -3620 -7204 -196684 -131152 0
-208 -160 -184 -312 -820 -1828 -196684 -131276 0
-208 -160 -408 -792 -1812 -1828 -3620 -7204 -14372 -196684 -131276 0
-208 -160 -408 -792 -1812 -114724 -229412 -196708 -131180 -131276 0
-208 -400 -904 -1800 -1812 -3604 -7188 -6196 -14372 -28708 -57380 -196684 -131276 0
-460 -400 -408 -312 -568 -1588 -3620 -196684 -131276 0
-460 -400 -904 -792 -568 -1588 -3124 -7204 -196684 -131276 0
-460 -400 -904 -1800 -1560 -1588 -3124 -6196 -14372 -196684 -131276 0
-460 -400 -904 -1800 -1560 -3604 -7188 -14356 -114724 -229412 -196708 -131180 -131276 0
-460 -400 -904 -1800 -3592 -14356 -28692 -24628 -49204 -114724 -229412 -196684 -131276 0
-460 -908 -904 -792 -568 -1080 -3124 -7204 -196684 -131276 0
-460 -908 -904 -792 -1560 -1080 -3124 -7204 -14372 -196684 -131276 0
-460 -908 -1800 -1560 -1080 -2104 -6196 -14372 -196684 -131276 0
-460 -908 -3592 -3096 -2104 -4152 -12340 -28708 -196684 -131276 0
-460 -908 -57352 -49176 -98328 -65592 -196660 -196708 -131180 -131276 0
-460 -908 -114696 -98328 -65592 -131128 -131188 -131180 -131276 0
-208 -160 -64 -312 -820 -1828 -131276 0
-208 -160 -288 -312 -820 -1828 -3620 -131276 0
-208 -160 -288 -792 -820 -1828 -3620 -7204 -131276 0
-208 -160 -288 -792 -1812 -1828 -3620 -7204 -14372 -131276 0
-208 -160 -288 -792 -1812 -114724 -229412 -196708 -131300 -131276 0
-208 -400 -288 -312 -820 -1588 -3620 -131276 0
-208 -400 -288 -792 -820 -1588 -3620 -7204 -131276 0
-208 -400 -288 -792 -1812 -1588 -3620 -7204 -14372 -131276 0
-460 -400 -288 -792 -1560 -3604 -3620 -7204 -14372 -28708 -131276 0
-460 -400 -288 -792 -1560 -3604 -14372 -28708 -57380 -114724 -131276 0
-460 -400 -288 -792 -1560 -3604 -57380 -114724 -229412 -196708 -131276 0
-460 -400 -288 -792 -1560 -3604 -114724 -229412 -196708 -131300 -131276 0
-460 -908 -784 -792 -568 -1080 -3124 -7204 -131276 0
-460 -908 -784 -792 -1560 -1080 -3124 -7204 -14372 -131276 0
-460 -908 -1804 -1800 -1560 -1080 -2104 -6196 -14372 -131276 0
-460 -908 -1804 -1800 -1560 -3096 -2104 -6196 -14372 -28708 -131276 0
-460 -908 -1804 -57352 -114696 -98328 -65592 -196660 -131188 -131300 -131276 0
-460 -400 -288 -64 -568 -1588 -3620 0
-460 -400 -288 -544 -1560 -3604 -114724 -229412 -196708 -131300 0
-460 -400 -784 -544 -1560 -1588 -3124 -7204 -14372 0
-460 -400 -784 -1552 -3592 -57364 -49204 -98356 -196660 -196708 0
-460 -908 -784 -544 -1560 -3096 -3124 -7204 -14372 -28708 0
-460 -908 -784 -544 -1560 -3096 -7188 -7204 -14372 -28708 -57380 0
-460 -908 -1804 -1552 -1560 -1080 -2104 -6196 -14372 0
-460 -908 -1804 -1552 -3592 -7176 -14344 -57364 -49204 -98356 -196660 -196708 0
-460 -908 -1804 -3596 -3592 -3096 -6168 -4152 -12340 -28708 -57380 0
-908 -784 -544 -64 -1080 -3124 -7204 0
-908 -784 -544 -1056 -3096 -3124 -7204 -14372 -28708 0
-908 -1804 -1552 -1056 -1080 -2104 -6196 -14372 0
-908 -1804 -1552 -1056 -3096 -6168 -14356 -57380 -114724 -229412 -196708 0
-908 -1804 -3596 -3088 -3096 -2104 -4152 -12340 -28708 0
-908 -1804 -3596 -7180 -7176 -6168 -12312 -8248 -24628 -57380 -114724 0
-908 -1804 -3596 -7180 -114696 -98328 -65592 -131128 -131188 -131300 0
-1804 -1552 -1056 -64 -2104 -6196 -14372 0
-1804 -1552 -1056 -2080 -6168 -14356 -57380 -114724 -229412 -196708 0
-1804 -3596 -3088 -2080 -2104 -4152 -12340 -28708 0
-1804 -3596 -3088 -2080 -6168 -12312 -28692 -114724 -229412 -196708 -131300 0
-3596 -3088 -2080 -64 -4152 -12340 -28708 0
-3596 -3088 -2080 -4128 -4152 -12340 -28708 -57380 0
-7180 -6160 -4128 -64 -8248 -24628 -57380 0
-7180 -6160 -12304 -8224 -24600 -24628 -49204 -114724 -229412 0
-7180 -14348 -12304 -8224 -24600 -49176 -49204 -114724 -229412 -196708 0
-14348 -12304 -8224 -64 -16440 -49204 -114724 0
-14348 -28684 -57356 -49168 -49176 -32824 -65592 -196660 -196708 0
-28684 -24592 -16416 -64 -32824 -98356 -229412 0
-28684 -57356 -114700 -98320 -98328 -65592 -131128 -131188 -131300 0
-57356 -49168 -32800 -64 -65592 -196660 -196708 0
-57356 -49168 -98320 -65568 -65592 -196660 -131188 -131300 0
-114700 -98320 -65568 -64 -131128 -131188 -131300 0
-64 -120 -244 -468 -229388 -196624 -131120 0
-112 -232 -244 -468 -916 -1812 -229388 -196624 -131120 0
-112 -232 -484 -468 -916 -1812 -3604 -229388 -196624 -131120 0
-112 -232 -484 -7188 -14356 -28692 -57364 -229388 -196624 -131120 0
-112 -120 -244 -436 -916 -229388 -196624 -131152 0
-112 -232 -484 -436 -916 -1812 -3604 -229388 -196624 -131152 0
-208 -232 -484 -932 -820 -1812 -3604 -7188 -229388 -196624 -131152 0
-208 -456 -484 -932 -1828 -3620 -114708 -229396 -196636 -131104 -131152 0
-208 -456 -57380 -49204 -98356 -196660 -196636 -196624 -131152 0
-208 -456 -57380 -114724 -98356 -196660 -196636 -131104 -131152 0
-112 -232 -424 -932 -916 -1812 -3604 -7188 -229388 -196684 -131152 0
-208 -456 -424 -436 -820 -1588 -3604 -229388 -196684 -131152 0
-208 -232 -184 -312 -820 -1812 -229388 -196684 -131276 0
-208 -232 -424 -808 -1828 -57364 -114708 -229396 -196636 -196684 -131276 0
-208 -456 -904 -808 -1828 -3620 -3124 -7188 -14356 -28692 -229388 -196684 -131276 0
-460 -456 -424 -312 -568 -1588 -3604 -229388 -196684 -131276 0
-460 -456 -424 -808 -568 -1588 -3604 -7188 -229388 -196684 -131276 0
-460 -456 -904 -1800 -1576 -3620 -7204 -6196 -14356 -28692 -57364 -229388 -196684 -131276 0
-460 -1800 -3592 -3112 -2104 -6196 -12340 -28692 -229388 -196684 -131276 0
-460 -3592 -7176 -14344 -28680 -114724 -98356 -196660 -131132 -131164 -131276 0
-460 -14344 -28680 -24616 -16440 -49204 -98356 -229396 -229388 -196684 -131276 0
-460 -28680 -24616 -16440 -32824 -98356 -229396 -229388 -196684 -131276 0
-460 -28680 -24616 -49192 -32824 -98356 -229396 -196636 -196684 -131276 0
-112 -64 -184 -436 -916 -196684 -131152 0
-112 -176 -184 -436 -916 -1812 -196684 -131152 0
-112 -176 -424 -436 -916 -1812 -3604 -196684 -131152 0
-112 -176 -424 -932 -916 -1812 -3604 -7188 -196684 -131152 0
-112 -176 -424 -932 -14356 -28692 -57364 -114708 -196684 -131152 0
-112 -176 -424 -932 -114708 -229396 -196692 -131164 -131152 0
-208 -176 -184 -436 -820 -1812 -196684 -131152 0
-208 -176 -424 -932 -820 -1812 -3604 -7188 -196684 -131152 0
-208 -176 -424 -932 -1828 -57364 -114708 -229396 -196692 -196684 -131152 0
-208 -400 -904 -28708 -57380 -114724 -98356 -229396 -196692 -131164 -131152 0
-208 -176 -424 -808 -1828 -1812 -3604 -7188 -14356 -196684 -131276 0
-208 -176 -424 -808 -1828 -114708 -229396 -196692 -131164 -131276 0
-460 -400 -424 -312 -568 -1588 -3604 -196684 -131276 0
-460 -400 -904 -808 -568 -1588 -3124 -7188 -196684 -131276 0
-460 -400 -904 -1800 -1576 -3620 -3124 -6196 -14356 -28692 -196684 -131276 0
-460 -400 -904 -1800 -1576 -3620 -7204 -6196 -14356 -28692 -57364 -196684 -131276 0
-460 -400 -904 -1800 -1576 -3620 -7204 -14372 -114708 -229396 -196692 -131164 -131276 0
-460 -400 -904 -1800 -3592 -114724 -98356 -196660 -131188 -131164 -131276 0
-460 -908 -904 -808 -568 -1080 -3124 -7188 -196684 -131276 0
-460 -908 -904 -808 -1576 -1080 -3124 -7188 -14356 -196684 -131276 0
-460 -908 -1800 -1576 -1080 -2104 -6196 -14356 -196684 -131276 0
-460 -908 -3592 -3112 -2104 -4152 -12340 -28692 -196684 -131276 0
-460 -908 -28680 -24616 -16440 -32824 -98356 -229396 -196684 -131276 0
-460 -908 -28680 -24616 -49192 -32824 -98356 -229396 -196692 -196684 -131276 0
-460 -908 -28680 -57352 -49192 -32824 -98356 -196660 -196692 -196684 -131276 0
-208 -176 -64 -312 -820 -1812 -131276 0
-208 -176 -304 -808 -820 -1812 -3604 -7188 -131276 0
-208 -176 -304 -808 -1828 -1812 -3604 -7188 -14356 -131276 0
-208 -176 -304 -808 -1828 -114708 -229396 -196692 -131284 -131276 0
-208 -400 -304 -808 -1828 -1588 -3604 -7188 -14356 -131276 0
-460 -400 -304 -312 -568 -1588 -3604 -131276 0
-460 -400 -304 -808 -1576 -3620 -14356 -28692 -57364 -114708 -131276 0
-460 -400 -784 -1800 -1576 -1588 -3124 -6196 -14356 -131276 0
-460 -908 -784 -808 -568 -1080 -3124 -7188 -131276 0
-460 -908 -1804 -1800 -1576 -3112 -2104 -6196 -14356 -28692 -131276 0
-460 -908 -1804 -1800 -3592 -3112 -2104 -6196 -12340 -28692 -131276 0
-460 -908 -1804 -3592 -3112 -2104 -4152 -12340 -28692 -131276 0
-460 -908 -1804 -57352 -49192 -32824 -65592 -196660 -196692 -131276 0
-460 -908 -1804 -57352 -114696 -98344 -65592 -196660 -131188 -131284 -131276 0
-460 -908 -1804 -114696 -98344 -65592 -131128 -131188 -131284 -131276 0
-460 -400 -304 -64 -568 -1588 -3604 0
-460 -400 -304 -560 -1576 -1588 -3604 -7188 -14356 0
-460 -400 -784 -560 -568 -1588 -3124 -7188 0
-460 -400 -784 -560 -1576 -1588 -3124 -7188 -14356 0
-460 -400 -784 -560 -1576 -3620 -3124 -7188 -14356 -28692 0
-460 -908 -1804 -1552 -1576 -1080 -2104 -6196 -14356 0
-460 -908 -1804 -1552 -3592 -3112 -2104 -6196 -12340 -28692 0
-460 -908 -1804 -3596 -3592 -3112 -2104 -4152 -12340 -28692 0
-460 -908 -1804 -3596 -3592 -3112 -6184 -4152 -12340 -28692 -57364 0
-460 -908 -1804 -3596 -14344 -12328 -24616 -16440 -49204 -114708 -229396 0
-908 -784 -560 -64 -1080 -3124 -7188 0
-908 -784 -560 -1072 -3112 -7204 -114708 -229396 -196692 -131284 0
-908 -784 -1552 -1072 -1080 -3124 -6196 -14356 0
-908 -1804 -3596 -3088 -3112 -2104 -4152 -12340 -28692 0
-908 -1804 -3596 -7180 -7176 -6184 -12328 -8248 -24628 -57364 -114708 0
-908 -1804 -3596 -7180 -114696 -98344 -65592 -131128 -131188 -131284 0
-1804 -1552 -1072 -64 -2104 -6196 -14356 0
-1804 -1552 -1072 -2096 -6184 -6196 -14356 -28692 -57364 0
-1804 -1552 -1072 -2096 -6184 -14372 -57364 -114708 -229396 -196692 0
-1804 -1552 -3088 -2096 -6184 -14372 -28708 -57364 -114708 -229396 -196692 0
-1804 -3596 -7180 -6160 -6184 -4152 -8248 -24628 -57364 0
-1804 -3596 -7180 -14348 -57352 -49192 -98344 -65592 -196660 -196692 -131284 0
-3596 -3088 -2096 -64 -4152 -12340 -28692 0
-3596 -3088 -2096 -4144 -12328 -28708 -28692 -57364 -114708 -229396 0
-3596 -7180 -6160 -4144 -12328 -24616 -57380 -57364 -114708 -229396 -196692 0
-3596 -7180 -14348 -28684 -28680 -24616 -16440 -32824 -98356 -229396 0
-7180 -6160 -4144 -64 -8248 -24628 -57364 0
-7180 -6160 -4144 -8240 -8248 -24628 -57364 -114708 0
-7180 -6160 -4144 -8240 -24616 -24628 -57364 -114708 -229396 0
-7180 -6160 -4144 -8240 -24616 -57380 -57364 -114708 -229396 -196692 0
-7180 -6160 -12304 -8240 -24616 -24628 -49204 -114708 -229396 0
-14348 -12304 -8240 -64 -16440 -49204 -114708 0
-14348 -12304 -8240 -16432 -49192 -49204 -114708 -229396 -196692 0
-14348 -28684 -57356 -114700 -114696 -98344 -65592 -131128 -131188 -131284 0
-28684 -24592 -16432 -64 -32824 -98356 -229396 0
-57356 -49168 -32816 -64 -65592 -196660 -196692 0
-57356 -49168 -32816 -65584 -65592 -196660 -196692 -131284 0
-114700 -98320 -65584 -64 -131128 -131188 -131284 0
-64 -120 -232 -484 -229388 -196636 -131104 0
-96 -216 -232 -484 -932 -1828 -229388 -196636 -131104 0
-96 -216 -456 -484 -932 -1828 -3620 -229388 -196636 -131104 0
-96 -216 -456 -932 -1828 -3620 -7204 -229388 -196636 -131104 0
-96 -216 -456 -57380 -114724 -229412 -196652 -196636 -131104 0
-96 -120 -232 -424 -932 -229388 -196636 -131164 0
-96 -216 -456 -904 -932 -1828 -3620 -7204 -229388 -196636 -131164 0
-96 -216 -456 -904 -7204 -14372 -28708 -57380 -229388 -196636 -131164 0
-220 -216 -456 -424 -808 -1828 -3620 -229388 -196636 -131164 0
-220 -468 -456 -904 -1800 -3592 -114724 -229412 -196652 -131132 -131164 0
-220 -468 -7176 -14344 -28680 -57352 -114724 -229412 -196652 -131132 -131164 0
-96 -120 -184 -424 -932 -229388 -196684 -131164 0
-96 -216 -408 -904 -932 -1828 -3620 -7204 -229388 -196684 -131164 0
-220 -468 -408 -424 -808 -1576 -3620 -229388 -196684 -131164 0
-220 -468 -916 -904 -1800 -3592 -3112 -7204 -14372 -28708 -229388 -196684 -131164 0
-220 -216 -184 -312 -808 -1828 -229388 -196684 -131276 0
-220 -216 -408 -792 -1800 -114724 -229412 -196652 -131180 -131276 0
-220 -468 -408 -312 -808 -1576 -3620 -229388 -196684 -131276 0
-220 -468 -916 -792 -1800 -3592 -3112 -7204 -14372 -28708 -229388 -196684 -131276 0
-220 -468 -916 -792 -1800 -3592 -7176 -57380 -114724 -229412 -196652 -196684 -131276 0
-220 -468 -916 -1812 -14344 -28680 -24616 -49192 -114724 -229412 -229388 -196684 -131276 0
-460 -468 -408 -312 -568 -1576 -3620 -229388 -196684 -131276 0
-460 -468 -408 -792 -568 -1576 -3620 -7204 -229388 -196684 -131276 0
-460 -468 -916 -1812 -1560 -3592 -7176 -6184 -14372 -28708 -57380 -229388 -196684 -131276 0
-460 -1812 -1560 -1080 -2104 -6184 -14372 -229388 -196684 -131276 0
-460 -3604 -7188 -14356 -28692 -114696 -98344 -196648 -131120 -131180 -131276 0
-460 -14356 -28692 -57364 -114708 -114696 -98344 -196648 -131120 -131180 -131276 0
-460 -57364 -49176 -32824 -65592 -196648 -196652 -196684 -131276 0
-96 -64 -184 -424 -932 -196684 -131164 0
-96 -160 -408 -424 -932 -1828 -3620 -196684 -131164 0
-96 -160 -408 -904 -932 -1828 -3620 -7204 -196684 -131164 0
-96 -160 -408 -904 -1828 -3620 -7204 -14372 -196684 -131164 0
-96 -160 -408 -904 -57380 -114724 -229412 -196708 -196684 -131164 0
-220 -160 -184 -424 -808 -1828 -196684 -131164 0
-220 -160 -408 -424 -808 -1828 -3620 -196684 -131164 0
-220 -160 -408 -904 -808 -1828 -3620 -7204 -196684 -131164 0
-220 -160 -408 -904 -1800 -57380 -114724 -229412 -196708 -196684 -131164 0
-220 -412 -408 -904 -808 -1576 -3620 -7204 -196684 -131164 0
-220 -412 -408 -904 -1800 -1576 -3620 -7204 -14372 -196684 -131164 0
-220 -160 -184 -312 -808 -1828 -196684 -131276 0
-220 -160 -408 -792 -1800 -1828 -3620 -7204 -14372 -196684 -131276 0
-220 -412 -408 -312 -808 -1576 -3620 -196684 -131276 0
-220 -412 -916 -792 -808 -1576 -3112 -7204 -196684 -131276 0
-220 -412 -916 -1812 -7176 -14344 -28680 -24616 -57380 -114724 -229412 -196684 -131276 0
-220 -412 -916 -1812 -57352 -114696 -98344 -196648 -196708 -131180 -131276 0
-460 -412 -408 -312 -568 -1576 -3620 -196684 -131276 0
-460 -412 -916 -792 -568 -1576 -3112 -7204 -196684 -131276 0
-460 -412 -916 -1812 -1560 -3592 -7176 -14344 -114724 -229412 -196708 -131180 -131276 0
-460 -412 -916 -1812 -3604 -14344 -28680 -24616 -49192 -114724 -229412 -196684 -131276 0
-460 -908 -916 -792 -568 -1080 -3112 -7204 -196684 -131276 0
-460 -908 -916 -792 -1560 -1080 -3112 -7204 -14372 -196684 -131276 0
-460 -908 -916 -1812 -1560 -1080 -3112 -6184 -14372 -196684 -131276 0
-460 -908 -916 -1812 -3604 -7188 -114696 -98344 -196648 -131176 -131180 -131276 0
-460 -908 -1812 -1560 -1080 -2104 -6184 -14372 -196684 -131276 0
-460 -908 -114708 -98328 -65592 -131128 -131176 -131180 -131276 0
-220 -160 -64 -312 -808 -1828 -131276 0
-220 -160 -288 -312 -808 -1828 -3620 -131276 0
-220 -160 -288 -792 -808 -1828 -3620 -7204 -131276 0
-220 -160 -288 -792 -1800 -57380 -114724 -229412 -196708 -131276 0
-220 -160 -288 -792 -1800 -114724 -229412 -196708 -131300 -131276 0
-220 -412 -288 -312 -808 -1576 -3620 -131276 0
-220 -412 -288 -792 -1800 -1576 -3620 -7204 -14372 -131276 0
-220 -412 -288 -792 -1800 -3592 -114724 -229412 -196708 -131300 -131276 0
-220 -412 -796 -792 -1800 -1576 -3112 -7204 -14372 -131276 0
-220 -412 -796 -1812 -1800 -3592 -3112 -6184 -14372 -28708 -131276 0
-460 -412 -288 -312 -568 -1576 -3620 -131276 0
-460 -412 -288 -792 -1560 -3592 -3620 -7204 -14372 -28708 -131276 0
-460 -412 -288 -792 -1560 -3592 -14372 -28708 -57380 -114724 -131276 0
-460 -412 -288 -792 -1560 -3592 -57380 -114724 -229412 -196708 -131276 0
-460 -412 -288 -792 -1560 -3592 -114724 -229412 -196708 -131300 -131276 0
-460 -412 -796 -792 -568 -1576 -3112 -7204 -131276 0
-460 -908 -796 -792 -568 -1080 -3112 -7204 -131276 0
-460 -908 -796 -1812 -1560 -1080 -3112 -6184 -14372 -131276 0
-460 -908 -1804 -57364 -114708 -98328 -65592 -196648 -131176 -131300 -131276 0
-460 -412 -288 -64 -568 -1576 -3620 0
-460 -412 -288 -544 -568 -1576 -3620 -7204 0
-460 -412 -288 -544 -1560 -3592 -14372 -28708 -57380 -114724 0
-460 -412 -796 -544 -1560 -3592 -3112 -7204 -14372 -28708 0
-460 -908 -796 -544 -1560 -3096 -7176 -114724 -229412 -196708 -131300 0
-460 -908 -796 -1564 -3604 -3096 -7176 -14344 -12328 -28708 -57380 -114724 0
-460 -908 -1804 -1564 -1560 -1080 -2104 -6184 -14372 0
-460 -908 -1804 -1564 -3604 -3096 -2104 -6184 -12328 -28708 0
-460 -908 -1804 -3596 -3604 -3096 -2104 -4152 -12328 -28708 0
-460 -908 -1804 -3596 -3604 -3096 -6168 -4152 -12328 -28708 -57380 0
-460 -908 -1804 -3596 -57364 -49176 -98328 -65592 -196648 -196708 -131300 0
-908 -796 -544 -64 -1080 -3112 -7204 0
-908 -1804 -1564 -1056 -1080 -2104 -6184 -14372 0
-908 -1804 -1564 -1056 -3096 -6168 -14344 -57380 -114724 -229412 -196708 0
-908 -1804 -3596 -3100 -3096 -2104 -4152 -12328 -28708 0
-1804 -1564 -1056 -64 -2104 -6184 -14372 0
-1804 -3596 -3100 -2080 -6168 -12312 -28680 -114724 -229412 -196708 -131300 0
-1804 -3596 -3100 -6172 -14356 -12312 -12328 -24616 -49192 -114724 0
-1804 -3596 -3100 -6172 -14356 -28692 -28680 -24616 -49192 -98344 -229412 0
-1804 -3596 -7180 -14348 -28692 -57364 -49176 -32824 -98344 -196648 -196708 0
-3596 -3100 -2080 -64 -4152 -12328 -28708 0
-3596 -7180 -6172 -12316 -28692 -57364 -57352 -49192 -98344 -196648 -196708 0
-7180 -6172 -4128 -64 -8248 -24616 -57380 0
-7180 -6172 -4128 -8224 -24600 -24616 -57380 -114724 -229412 0
-14348 -12316 -8224 -64 -16440 -49192 -114724 0
-28684 -24604 -16416 -64 -32824 -98344 -229412 0
-28684 -24604 -16416 -32800 -98328 -98344 -229412 -196708 -131300 0
-28684 -24604 -49180 -32800 -32824 -98344 -196648 -196708 0
-28684 -57356 -49180 -32800 -98328 -65592 -196648 -196708 -131300 0
-57356 -49180 -32800 -64 -65592 -196648 -196708 0
-57356 -49180 -32800 -65568 -65592 -196648 -196708 -131300 0
-57356 -49180 -98332 -65568 -65592 -196648 -131176 -131300 0
-114700 -98332 -65568 -64 -131128 -131176 -131300 0
-64 -120 -232 -456 -229388 -196636 -131132 0
-124 -120 -232 -456 -904 -229388 -196636 -131132 0
-124 -244 -232 -456 -904 -1800 -229388 -196636 -131132 0
-124 -244 -484 -904 -1800 -3592 -7176 -229388 -196636 -131132 0
-124 -120 -232 -424 -904 -229388 -196636 -131164 0
-124 -244 -484 -424 -904 -1800 -3592 -229388 -196636 -131164 0
-124 -244 -484 -932 -904 -1800 -3592 -7176 -229388 -196636 -131164 0
-220 -244 -484 -424 -808 -1800 -3592 -229388 -196636 -131164 0
-220 -468 -28708 -57380 -49192 -98344 -229384 -196624 -196636 -131164 0
-220 -468 -57380 -49192 -98344 -196648 -196624 -196636 -131164 0
-220 -468 -57380 -114724 -98344 -196648 -196624 -131104 -131164 0
-124 -120 -184 -424 -904 -229388 -196684 -131164 0
-124 -244 -436 -932 -904 -1800 -3592 -7176 -229388 -196684 -131164 0
-124 -244 -436 -932 -3592 -7176 -14344 -28680 -229388 -196684 -131164 0
-220 -468 -916 -57380 -49192 -98344 -196648 -196624 -196684 -131164 0
-220 -244 -184 -312 -808 -1800 -229388 -196684 -131276 0
-220 -244 -436 -820 -1828 -114696 -229384 -196624 -131152 -131276 0
-220 -468 -436 -312 -808 -1576 -3592 -229388 -196684 -131276 0
-220 -468 -916 -820 -1828 -3620 -3112 -7176 -14344 -28680 -229388 -196684 -131276 0
-220 -468 -916 -820 -1828 -3620 -7204 -57352 -114696 -229384 -196624 -196684 -131276 0
-220 -468 -916 -1812 -1828 -3620 -7204 -14372 -57352 -114696 -229384 -196624 -196684 -131276 0
-220 -468 -916 -1812 -114724 -98344 -196648 -131120 -131152 -131276 0
-460 -468 -436 -312 -568 -1576 -3592 -229388 -196684 -131276 0
-460 -468 -436 -820 -568 -1576 -3592 -7176 -229388 -196684 -131276 0
-460 -468 -916 -820 -568 -1576 -3112 -7176 -229388 -196684 -131276 0
-460 -916 -820 -568 -1080 -3112 -7176 -229388 -196684 -131276 0
-460 -3604 -7188 -6196 -4152 -12328 -24616 -57352 -229388 -196684 -131276 0
-460 -3604 -7188 -14356 -28692 -114724 -98344 -196648 -131120 -131152 -131276 0
-460 -14356 -12340 -24628 -16440 -49192 -114696 -229384 -229388 -196684 -131276 0
-460 -14356 -28692 -24628 -16440 -49192 -98344 -229384 -229388 -196684 -131276 0
-460 -14356 -28692 -57364 -114708 -114724 -98344 -196648 -131120 -131152 -131276 0
-460 -28692 -24628 -49204 -32824 -98344 -229384 -196624 -196684 -131276 0
-460 -57364 -49204 -32824 -65592 -196648 -196624 -196684 -131276 0
-124 -64 -184 -424 -904 -196684 -131164 0
-124 -188 -184 -424 -904 -1800 -196684 -131164 0
-124 -188 -436 -424 -904 -1800 -3592 -196684 -131164 0
-124 -188 -436 -932 -904 -1800 -3592 -7176 -196684 -131164 0
-124 -188 -436 -932 -57352 -114696 -229384 -196680 -196684 -131164 0
-124 -188 -436 -932 -114696 -229384 -196680 -131152 -131164 0
-220 -188 -436 -424 -808 -1800 -3592 -196684 -131164 0
-220 -188 -436 -932 -808 -1800 -3592 -7176 -196684 -131164 0
-220 -188 -436 -932 -1828 -114696 -229384 -196680 -131152 -131164 0
-220 -412 -436 -932 -1828 -1576 -3592 -7176 -14344 -196684 -131164 0
-220 -188 -184 -312 -808 -1800 -196684 -131276 0
-220 -188 -436 -820 -808 -1800 -3592 -7176 -196684 -131276 0
-220 -188 -436 -820 -1828 -1800 -3592 -7176 -14344 -196684 -131276 0
-220 -188 -436 -820 -1828 -114696 -229384 -196680 -131152 -131276 0
-220 -412 -916 -820 -808 -1576 -3112 -7176 -196684 -131276 0
-220 -412 -916 -1812 -1828 -1576 -3112 -6184 -14344 -196684 -131276 0
-460 -412 -436 -312 -568 -1576 -3592 -196684 -131276 0
-460 -412 -916 -820 -568 -1576 -3112 -7176 -196684 -131276 0
-460 -412 -916 -1812 -1588 -3620 -7204 -14372 -114696 -229384 -196680 -131152 -131276 0
-460 -908 -916 -820 -1588 -1080 -3112 -7176 -14344 -196684 -131276 0
-460 -908 -916 -1812 -1588 -1080 -3112 -6184 -14344 -196684 -131276 0
-460 -908 -1812 -1588 -1080 -2104 -6184 -14344 -196684 -131276 0
-460 -908 -1812 -3604 -3124 -2104 -6184 -12328 -28680 -196684 -131276 0
-460 -908 -3604 -3124 -2104 -4152 -12328 -28680 -196684 -131276 0
-460 -908 -28692 -24628 -16440 -32824 -98344 -229384 -196684 -131276 0
-460 -908 -57364 -49204 -32824 -65592 -196648 -196680 -196684 -131276 0
-220 -188 -64 -312 -808 -1800 -131276 0
-220 -188 -316 -820 -808 -1800 -3592 -7176 -131276 0
-220 -188 -316 -820 -1828 -1800 -3592 -7176 -14344 -131276 0
-220 -188 -316 -820 -1828 -114696 -229384 -196680 -131272 -131276 0
-220 -412 -316 -312 -808 -1576 -3592 -131276 0
-220 -412 -316 -820 -1828 -1576 -3592 -7176 -14344 -131276 0
-220 -412 -316 -820 -1828 -3620 -114696 -229384 -196680 -131272 -131276 0
-220 -412 -796 -820 -1828 -1576 -3112 -7176 -14344 -131276 0
-460 -412 -316 -312 -568 -1576 -3592 -131276 0
-460 -412 -316 -820 -1588 -3620 -3592 -7176 -14344 -28680 -131276 0
-460 -412 -316 -820 -1588 -3620 -114696 -229384 -196680 -131272 -131276 0
-460 -908 -796 -820 -568 -1080 -3112 -7176 -131276 0
-460 -908 -796 -1812 -1588 -1080 -3112 -6184 -14344 -131276 0
-460 -908 -1804 -1812 -1588 -1080 -2104 -6184 -14344 -131276 0
-460 -908 -1804 -1812 -1588 -3124 -2104 -6184 -14344 -28680 -131276 0
-460 -908 -1804 -3604 -3124 -2104 -4152 -12328 -28680 -131276 0
-460 -412 -316 -64 -568 -1576 -3592 0
-460 -412 -316 -572 -568 -1576 -3592 -7176 0
-460 -412 -316 -572 -1588 -1576 -3592 -7176 -14344 0
-460 -412 -316 -572 -1588 -3620 -7176 -14344 -28680 -57352 0
-460 -412 -316 -572 -1588 -3620 -57352 -114696 -229384 -196680 0
-460 -412 -316 -572 -1588 -3620 -114696 -229384 -196680 -131272 0
-460 -908 -796 -572 -1588 -3124 -7204 -7176 -14344 -28680 -57352 0
-460 -908 -796 -572 -1588 -3124 -7204 -28680 -57352 -114696 -229384 0
-460 -908 -796 -1564 -3604 -7188 -28708 -57380 -49192 -98344 -229384 -196680 0
-460 -908 -796 -1564 -3604 -7188 -28708 -57380 -114724 -98344 -229384 -196680 -131272 0
-460 -908 -1804 -1564 -1588 -1080 -2104 -6184 -14344 0
-460 -908 -1804 -1564 -3604 -3124 -2104 -6184 -12328 -28680 0
-460 -908 -1804 -3596 -3604 -3124 -2104 -4152 -12328 -28680 0
-460 -908 -1804 -3596 -3604 -3124 -6196 -4152 -12328 -28680 -57352 0
-908 -796 -572 -64 -1080 -3112 -7176 0
-908 -796 -572 -1084 -3124 -3112 -7176 -14344 -28680 0
-908 -796 -1564 -1084 -1080 -3112 -6184 -14344 0
-908 -1804 -1564 -1084 -3124 -6196 -14372 -14344 -28680 -57352 -114696 0
-908 -1804 -3596 -7180 -7188 -6196 -12340 -8248 -24616 -57352 -114696 0
-908 -1804 -3596 -7180 -114708 -98356 -65592 -131128 -131176 -131272 0
-1804 -1564 -1084 -64 -2104 -6184 -14344 0
-1804 -1564 -3100 -2108 -6196 -6184 -12328 -28680 -57352 0
-1804 -3596 -7180 -6172 -6196 -4152 -8248 -24616 -57352 0
-3596 -3100 -2108 -64 -4152 -12328 -28680 0
-3596 -7180 -14348 -12316 -28692 -24628 -16440 -49192 -98344 -229384 0
-7180 -6172 -4156 -64 -8248 -24616 -57352 0
-7180 -6172 -4156 -8252 -8248 -24616 -57352 -114696 0
-7180 -14348 -12316 -8252 -24628 -49204 -114724 -114696 -229384 -196680 -131272 0
-14348 -12316 -8252 -64 -16440 -49192 -114696 0
-14348 -12316 -8252 -16444 -49204 -49192 -114696 -229384 -196680 0
-28684 -24604 -16444 -64 -32824 -98344 -229384 0
-28684 -24604 -16444 -32828 -32824 -98344 -229384 -196680 0
-57356 -49180 -32828 -64 -65592 -196648 -196680 0
-114700 -98332 -65596 -64 -131128 -131176 -131272 0
-64 -120 -216 -468 -229388 -196652 -131120 0
-112 -232 -216 -468 -916 -1812 -229388 -196652 -131120 0
-112 -232 -456 -468 -916 -1812 -3604 -229388 -196652 -131120 0
-112 -232 -456 -916 -1812 -3604 -7188 -229388 -196652 -131120 0
-112 -232 -456 -408 -916 -1812 -3604 -229388 -196652 -131180 0
-112 -232 -456 -904 -1812 -3604 -7188 -14356 -229388 -196652 -131180 0
-112 -232 -456 -904 -7188 -14356 -28692 -57364 -229388 -196652 -131180 0
-236 -232 -456 -904 -1800 -114708 -229396 -196636 -131132 -131180 0
-236 -484 -456 -904 -1800 -3592 -114708 -229396 -196636 -131132 -131180 0
-236 -484 -7176 -14344 -28680 -57352 -114708 -229396 -196636 -131132 -131180 0
-236 -484 -28680 -57352 -49176 -98328 -229396 -196636 -196652 -131180 0
-236 -484 -28680 -57352 -114696 -98328 -229396 -196636 -131132 -131180 0
-236 -484 -114696 -98328 -196632 -131104 -131132 -131180 0
-112 -232 -424 -904 -916 -1812 -3604 -7188 -229388 -196684 -131180 0
-236 -484 -424 -408 -792 -1560 -3604 -229388 -196684 -131180 0
-236 -484 -932 -57352 -49176 -98328 -196632 -196636 -196684 -131180 0
-236 -232 -184 -312 -792 -1812 -229388 -196684 -131276 0
-236 -232 -424 -808 -1800 -114708 -229396 -196636 -131164 -131276 0
-236 -484 -424 -312 -792 -1560 -3604 -229388 -196684 -131276 0
-236 -484 -932 -808 -1800 -3592 -3096 -7188 -14356 -28692 -229388 -196684 -131276 0
-236 -484 -932 -808 -1800 -3592 -7176 -57364 -114708 -229396 -196636 -196684 -131276 0
-460 -484 -424 -312 -568 -1560 -3604 -229388 -196684 -131276 0
-460 -484 -932 -1828 -1576 -3592 -7176 -6168 -14356 -28692 -57364 -229388 -196684 -131276 0
-460 -484 -932 -1828 -3620 -114696 -98328 -196632 -131104 -131164 -131276 0
-460 -3620 -7204 -14372 -28708 -114696 -98328 -196632 -131104 -131164 -131276 0
-460 -14372 -12328 -8248 -16440 -49176 -114708 -229388 -196684 -131276 0
-460 -14372 -28708 -57380 -114724 -114696 -98328 -196632 -131104 -131164 -131276 0
-460 -57380 -49192 -32824 -65592 -196632 -196636 -196684 -131276 0
-112 -64 -184 -408 -916 -196684 -131180 0
-112 -176 -424 -408 -916 -1812 -3604 -196684 -131180 0
-112 -176 -424 -904 -916 -1812 -3604 -7188 -196684 -131180 0
-112 -176 -424 -904 -3604 -7188 -14356 -28692 -196684 -131180 0
-112 -176 -424 -904 -114708 -229396 -196692 -131164 -131180 0
-236 -176 -424 -408 -792 -1812 -3604 -196684 -131180 0
-236 -176 -424 -904 -1800 -1812 -3604 -7188 -14356 -196684 -131180 0
-236 -176 -424 -904 -1800 -57364 -114708 -229396 -196692 -196684 -131180 0
-236 -176 -424 -904 -1800 -114708 -229396 -196692 -131164 -131180 0
-236 -176 -184 -312 -792 -1812 -196684 -131276 0
-236 -176 -424 -312 -792 -1812 -3604 -196684 -131276 0
-236 -176 -424 -808 -1800 -1812 -3604 -7188 -14356 -196684 -131276 0
-236 -176 -424 -808 -1800 -114708 -229396 -196692 -131164 -131276 0
-236 -428 -932 -808 -792 -1560 -3096 -7188 -196684 -131276 0
-236 -428 -932 -1828 -7176 -14344 -12312 -24600 -57364 -114708 -196684 -131276 0
-460 -428 -424 -312 -568 -1560 -3604 -196684 -131276 0
-460 -428 -424 -808 -1576 -1560 -3604 -7188 -14356 -196684 -131276 0
-460 -428 -932 -808 -568 -1560 -3096 -7188 -196684 -131276 0
-460 -428 -932 -1828 -1576 -1560 -3096 -6168 -14356 -196684 -131276 0
-460 -428 -932 -1828 -1576 -3592 -7176 -14344 -114708 -229396 -196692 -131164 -131276 0
-460 -908 -932 -808 -1576 -1080 -3096 -7188 -14356 -196684 -131276 0
-460 -908 -1828 -1576 -1080 -2104 -6168 -14356 -196684 -131276 0
-460 -908 -1828 -3620 -3112 -2104 -6168 -12312 -28692 -196684 -131276 0
-460 -908 -3620 -3112 -2104 -4152 -12312 -28692 -196684 -131276 0
-460 -908 -14372 -12328 -8248 -16440 -49176 -114708 -196684 -131276 0
-460 -908 -28708 -57380 -49192 -32824 -98328 -196632 -196692 -196684 -131276 0
-460 -908 -57380 -49192 -32824 -65592 -196632 -196692 -196684 -131276 0
-236 -176 -64 -312 -792 -1812 -131276 0
-236 -176 -304 -808 -792 -1812 -3604 -7188 -131276 0
-236 -176 -304 -808 -1800 -1812 -3604 -7188 -14356 -131276 0
-236 -176 -304 -808 -1800 -57364 -114708 -229396 -196692 -131276 0
-236 -428 -304 -808 -792 -1560 -3604 -7188 -131276 0
-236 -428 -304 -808 -1800 -1560 -3604 -7188 -14356 -131276 0
-236 -428 -812 -808 -792 -1560 -3096 -7188 -131276 0
-236 -428 -812 -808 -1800 -1560 -3096 -7188 -14356 -131276 0
-460 -428 -304 -808 -1576 -3592 -3604 -7188 -14356 -28692 -131276 0
-460 -428 -304 -808 -1576 -3592 -14356 -28692 -57364 -114708 -131276 0
-460 -428 -812 -808 -568 -1560 -3096 -7188 -131276 0
-460 -428 -812 -1828 -1576 -1560 -3096 -6168 -14356 -131276 0
-460 -908 -812 -808 -568 -1080 -3096 -7188 -131276 0
-460 -908 -812 -1828 -3620 -3112 -7176 -14344 -12312 -28692 -57364 -114708 -131276 0
-460 -908 -1804 -1828 -1576 -1080 -2104 -6168 -14356 -131276 0
-460 -908 -1804 -1828 -1576 -3112 -2104 -6168 -14356 -28692 -131276 0
-460 -428 -304 -64 -568 -1560 -3604 0
-460 -428 -304 -560 -1576 -3592 -114708 -229396 -196692 -131284 0
-460 -428 -812 -560 -1576 -3592 -3096 -7188 -14356 -28692 0
-460 -908 -812 -560 -1576 -3112 -7176 -28692 -57364 -114708 -229396 0
-460 -908 -1804 -1580 -1576 -1080 -2104 -6168 -14356 0
-460 -908 -1804 -1580 -3620 -7204 -14372 -57352 -114696 -98328 -196632 -196692 -131284 0
-908 -812 -560 -64 -1080 -3096 -7188 0
-908 -1804 -3596 -3116 -3112 -2104 -4152 -12312 -28692 0
-1804 -1580 -1072 -64 -2104 -6168 -14356 0
-1804 -1580 -1072 -2096 -6184 -14344 -57364 -114708 -229396 -196692 0
-1804 -3596 -3116 -2096 -2104 -4152 -12312 -28692 0
-1804 -3596 -7180 -6188 -6184 -4152 -8248 -24600 -57364 0
-1804 -3596 -7180 -14348 -57380 -49192 -98344 -65592 -196632 -196692 -131284 0
-3596 -3116 -2096 -64 -4152 -12312 -28692 0
-3596 -3116 -2096 -4144 -12328 -12312 -28692 -57364 -114708 0
-3596 -7180 -6188 -4144 -12328 -24616 -57352 -57364 -114708 -229396 -196692 0
-7180 -6188 -4144 -64 -8248 -24600 -57364 0
-14348 -12332 -8240 -64 -16440 -49176 -114708 0
-14348 -12332 -8240 -16432 -49192 -49176 -114708 -229396 -196692 0
-14348 -28684 -24620 -16432 -16440 -32824 -98328 -229396 0
-28684 -24620 -16432 -64 -32824 -98328 -229396 0
-28684 -24620 -16432 -32816 -32824 -98328 -229396 -196692 0
-57356 -49196 -32816 -64 -65592 -196632 -196692 0
-57356 -49196 -32816 -65584 -65592 -196632 -196692 -131284 0
-114700 -98348 -65584 -64 -131128 -131160 -131284 0
-64 -120 -216 -456 -229388 -196652 -131132 0
-124 -244 -216 -456 -904 -1800 -229388 -196652 -131132 0
-124 -244 -468 -456 -904 -1800 -3592 -229388 -196652 -131132 0
-124 -244 -468 -904 -1800 -3592 -7176 -229388 -196652 -131132 0
-124 -244 -468 -1800 -3592 -7176 -14344 -229388 -196652 -131132 0
-124 -244 -468 -3592 -7176 -14344 -28680 -229388 -196652 -131132 0
-124 -244 -468 -57352 -114696 -229384 -196624 -196652 -131132 0
-124 -244 -468 -916 -3592 -7176 -14344 -28680 -229388 -196652 -131180 0
-124 -244 -468 -916 -28680 -57352 -114696 -229384 -229388 -196652 -131180 0
-236 -244 -468 -408 -792 -1800 -3592 -229388 -196652 -131180 0
-236 -484 -468 -916 -1812 -3604 -114696 -229384 -196624 -131120 -131180 0
-236 -484 -7188 -14356 -28692 -57364 -114696 -229384 -196624 -131120 -131180 0
-124 -244 -436 -916 -57352 -114696 -229384 -196624 -196684 -131180 0
-236 -244 -184 -312 -792 -1800 -229388 -196684 -131276 0
-236 -484 -436 -312 -792 -1560 -3592 -229388 -196684 -131276 0
-236 -484 -932 -820 -1812 -1560 -3096 -7176 -14344 -229388 -196684 -131276 0
-236 -484 -932 -820 -1812 -3604 -3096 -7176 -14344 -28680 -229388 -196684 -131276 0
-236 -484 -932 -1828 -14356 -28692 -57364 -49176 -114696 -229384 -196624 -196684 -131276 0
-236 -484 -932 -1828 -28692 -57364 -49176 -98328 -229384 -196624 -196684 -131276 0
-460 -484 -436 -312 -568 -1560 -3592 -229388 -196684 -131276 0
-460 -484 -436 -820 -568 -1560 -3592 -7176 -229388 -196684 -131276 0
-460 -484 -932 -1828 -1588 -3604 -7188 -6168 -14344 -28680 -57352 -229388 -196684 -131276 0
-460 -484 -932 -1828 -3620 -114708 -98328 -196632 -131104 -131152 -131276 0
-460 -932 -1828 -1588 -3124 -7188 -14356 -57352 -114696 -229384 -196624 -196684 -131276 0
-460 -932 -1828 -3620 -7204 -114708 -98328 -196632 -131104 -131152 -131276 0
-460 -1828 -1588 -3124 -2104 -6168 -14344 -28680 -229388 -196684 -131276 0
-460 -3620 -3124 -2104 -4152 -12312 -28680 -229388 -196684 -131276 0
-460 -14372 -12340 -24628 -16440 -49176 -114696 -229384 -229388 -196684 -131276 0
-460 -14372 -12340 -24628 -49204 -49176 -114696 -229384 -196624 -196684 -131276 0
-460 -14372 -28708 -24628 -16440 -49176 -98328 -229384 -229388 -196684 -131276 0
-460 -57380 -49204 -32824 -65592 -196632 -196624 -196684 -131276 0
-460 -57380 -49204 -98356 -65592 -196632 -196624 -131152 -131276 0
-124 -64 -184 -408 -904 -196684 -131180 0
-124 -188 -436 -408 -904 -1800 -3592 -196684 -131180 0
-124 -188 -436 -916 -904 -1800 -3592 -7176 -196684 -131180 0
-124 -188 -436 -916 -57352 -114696 -229384 -196680 -196684 -131180 0
-124 -188 -436 -916 -114696 -229384 -196680 -131152 -131180 0
-236 -188 -184 -408 -792 -1800 -196684 -131180 0
-236 -188 -436 -408 -792 -1800 -3592 -196684 -131180 0
-236 -188 -436 -916 -792 -1800 -3592 -7176 -196684 -131180 0
-236 -188 -436 -916 -1812 -1800 -3592 -7176 -14344 -196684 -131180 0
-236 -188 -436 -916 -1812 -57352 -114696 -229384 -196680 -196684 -131180 0
-236 -188 -436 -916 -1812 -114696 -229384 -196680 -131152 -131180 0
-236 -428 -436 -916 -1812 -1560 -3592 -7176 -14344 -196684 -131180 0
-236 -428 -436 -916 -1812 -3604 -114696 -229384 -196680 -131152 -131180 0
-236 -188 -184 -312 -792 -1800 -196684 -131276 0
-236 -188 -436 -820 -1812 -1800 -3592 -7176 -14344 -196684 -131276 0
-236 -428 -932 -820 -792 -1560 -3096 -7176 -196684 -131276 0
-460 -428 -436 -312 -568 -1560 -3592 -196684 -131276 0
-460 -428 -932 -820 -568 -1560 -3096 -7176 -196684 -131276 0
-460 -428 -932 -1828 -1588 -3604 -7188 -14356 -114696 -229384 -196680 -131152 -131276 0
-460 -428 -932 -1828 -3620 -14356 -28692 -57364 -114708 -114696 -229384 -196680 -131152 -131276 0
-460 -428 -932 -1828 -3620 -28692 -57364 -114708 -98328 -229384 -196680 -131152 -131276 0
-460 -908 -932 -820 -568 -1080 -3096 -7176 -196684 -131276 0
-460 -908 -932 -820 -1588 -1080 -3096 -7176 -14344 -196684 -131276 0
-460 -908 -932 -1828 -1588 -1080 -3096 -6168 -14344 -196684 -131276 0
-460 -908 -1828 -1588 -1080 -2104 -6168 -14344 -196684 -131276 0
-460 -908 -1828 -3620 -3124 -2104 -6168 -12312 -28680 -196684 -131276 0
-460 -908 -28708 -57380 -49204 -32824 -98328 -196632 -196680 -196684 -131276 0
-460 -908 -114724 -98356 -65592 -131128 -131160 -131152 -131276 0
-236 -188 -64 -312 -792 -1800 -131276 0
-236 -188 -316 -820 -792 -1800 -3592 -7176 -131276 0
-236 -188 -316 -820 -1812 -1800 -3592 -7176 -14344 -131276 0
-236 -188 -316 -820 -1812 -7176 -14344 -28680 -57352 -131276 0
-236 -428 -316 -312 -792 -1560 -3592 -131276 0
-236 -428 -316 -820 -1812 -3604 -114696 -229384 -196680 -131272 -131276 0
-460 -428 -316 -820 -1588 -3604 -3592 -7176 -14344 -28680 -131276 0
-460 -428 -316 -820 -1588 -3604 -114696 -229384 -196680 -131272 -131276 0
-460 -908 -812 -820 -568 -1080 -3096 -7176 -131276 0
-460 -908 -1804 -1828 -1588 -1080 -2104 -6168 -14344 -131276 0
-460 -908 -1804 -57380 -114724 -98356 -65592 -196632 -131160 -131272 -131276 0
-460 -908 -1804 -114724 -98356 -65592 -131128 -131160 -131272 -131276 0
-460 -428 -316 -64 -568 -1560 -3592 0
-460 -428 -316 -572 -568 -1560 -3592 -7176 0
-460 -428 -316 -572 -1588 -3604 -3592 -7176 -14344 -28680 0
-460 -908 -812 -572 -568 -1080 -3096 -7176 0
-460 -908 -812 -572 -1588 -3124 -7188 -28680 -57352 -114696 -229384 0
-460 -908 -1804 -1580 -1588 -1080 -2104 -6168 -14344 0
-460 -908 -1804 -3596 -3620 -3124 -6196 -4152 -12312 -28680 -57352 0
-460 -908 -1804 -3596 -14372 -12340 -24628 -16440 -49176 -114696 -229384 0
-908 -812 -572 -64 -1080 -3096 -7176 0
-908 -812 -572 -1084 -3124 -7188 -7176 -14344 -28680 -57352 0
-908 -812 -572 -1084 -3124 -7188 -57352 -114696 -229384 -196680 0
-908 -1804 -1580 -1084 -3124 -6196 -14356 -57352 -114696 -229384 -196680 0
-908 -1804 -3596 -7180 -7204 -6196 -4152 -8248 -24600 -57352 0
-908 -1804 -3596 -7180 -7204 -14372 -28708 -24628 -57364 -114708 -98328 -229384 -196680 -131272 0
-1804 -1580 -1084 -64 -2104 -6168 -14344 0
-1804 -1580 -1084 -2108 -6196 -14356 -57352 -114696 -229384 -196680 0
-1804 -3596 -3116 -2108 -6196 -12340 -28692 -114696 -229384 -196680 -131272 0
-1804 -3596 -7180 -14348 -57380 -49204 -32824 -65592 -196632 -196680 0
-3596 -3116 -2108 -64 -4152 -12312 -28680 0
-3596 -3116 -2108 -4156 -12340 -12312 -28680 -57352 -114696 0
-3596 -7180 -6188 -4156 -12340 -24628 -57364 -57352 -114696 -229384 -196680 0
-7180 -6188 -4156 -64 -8248 -24600 -57352 0
-7180 -6188 -4156 -8252 -24628 -57364 -57352 -114696 -229384 -196680 0
-7180 -6188 -4156 -8252 -24628 -57364 -114696 -229384 -196680 -131272 0
-7180 -6188 -12332 -8252 -24628 -57364 -114708 -114696 -229384 -196680 -131272 0
-7180 -14348 -12332 -8252 -24628 -16440 -49176 -114696 -229384 0
-7180 -14348 -28684 -57356 -57380 -49204 -98356 -65592 -196632 -196680 -131272 0
-14348 -12332 -8252 -64 -16440 -49176 -114696 0
-14348 -12332 -8252 -16444 -49204 -49176 -114696 -229384 -196680 0
-14348 -12332 -8252 -16444 -49204 -114708 -114696 -229384 -196680 -131272 0
-28684 -24620 -16444 -64 -32824 -98328 -229384 0
-28684 -24620 -16444 -32828 -32824 -98328 -229384 -196680 0
-57356 -49196 -32828 -64 -65592 -196632 -196680 0
-57356 -49196 -98348 -65596 -65592 -196632 -131160 -131272 0
-114700 -98348 -65596 -64 -131128 -131160 -131272 0
-64 -112 -236 -484 -229396 -196632 -131104 0
-96 -208 -236 -484 -932 -1828 -229396 -196632 -131104 0
-96 -208 -460 -484 -932 -1828 -3620 -229396 -196632 -131104 0
-96 -208 -460 -7204 -14372 -28708 -57380 -229396 -196632 -131104 0
-96 -208 -460 -908 -28708 -57380 -114724 -229412 -229396 -196632 -131160 0
-96 -208 -460 -908 -114724 -229412 -196660 -131128 -131160 0
-216 -208 -460 -428 -812 -1828 -3620 -229396 -196632 -131160 0
-216 -456 -460 -908 -1804 -3596 -114724 -229412 -196660 -131128 -131160 0
-96 -112 -176 -428 -932 -229396 -196692 -131160 0
-96 -208 -176 -428 -932 -1828 -229396 -196692 -131160 0
-96 -208 -400 -908 -932 -1828 -3620 -7204 -229396 -196692 -131160 0
-96 -208 -400 -908 -3620 -7204 -14372 -28708 -229396 -196692 -131160 0
-96 -208 -400 -908 -57380 -114724 -229412 -196660 -196692 -131160 0
-96 -208 -400 -908 -114724 -229412 -196660 -131188 -131160 0
-216 -456 -400 -428 -812 -1580 -3620 -229396 -196692 -131160 0
-216 -456 -400 -908 -812 -1580 -3620 -7204 -229396 -196692 -131160 0
-216 -456 -904 -784 -812 -1580 -3116 -7204 -229396 -196692 -131284 0
-216 -456 -904 -784 -1804 -3596 -3116 -7204 -14372 -28708 -229396 -196692 -131284 0
-216 -456 -904 -784 -1804 -3596 -7180 -57380 -114724 -229412 -196660 -196692 -131284 0
-468 -456 -400 -304 -560 -1580 -3620 -229396 -196692 -131284 0
-468 -456 -400 -784 -560 -1580 -3620 -7204 -229396 -196692 -131284 0
-468 -456 -904 -1800 -3592 -114700 -98348 -196652 -131132 -131188 -131284 0
-468 -904 -784 -560 -1072 -3116 -7204 -229396 -196692 -131284 0
-468 -904 -1800 -1552 -3088 -7180 -14348 -57380 -114724 -229412 -196660 -196692 -131284 0
-468 -3592 -3088 -2096 -4144 -12332 -28708 -229396 -196692 -131284 0
-468 -3592 -7176 -14344 -28680 -114700 -98348 -196652 -131132 -131188 -131284 0
-468 -14344 -28680 -24592 -16432 -49196 -98348 -229412 -229396 -196692 -131284 0
-96 -64 -176 -428 -932 -196692 -131160 0
-96 -160 -400 -428 -932 -1828 -3620 -196692 -131160 0
-96 -160 -400 -908 -932 -1828 -3620 -7204 -196692 -131160 0
-96 -160 -400 -908 -114724 -229412 -196708 -131188 -131160 0
-216 -160 -176 -428 -812 -1828 -196692 -131160 0
-216 -160 -400 -908 -812 -1828 -3620 -7204 -196692 -131160 0
-216 -160 -400 -908 -1804 -1828 -3620 -7204 -14372 -196692 -131160 0
-216 -408 -400 -908 -1804 -1580 -3620 -7204 -14372 -196692 -131160 0
-216 -160 -176 -304 -812 -1828 -196692 -131284 0
-216 -160 -400 -784 -1804 -1828 -3620 -7204 -14372 -196692 -131284 0
-468 -408 -400 -304 -560 -1580 -3620 -196692 -131284 0
-468 -408 -400 -784 -1552 -3596 -114724 -229412 -196708 -131188 -131284 0
-468 -408 -904 -784 -560 -1580 -3116 -7204 -196692 -131284 0
-468 -408 -904 -1800 -1552 -3596 -7180 -14348 -57380 -114724 -229412 -196708 -196692 -131284 0
-468 -408 -904 -1800 -1552 -3596 -7180 -14348 -114724 -229412 -196708 -131188 -131284 0
-468 -408 -904 -1800 -3592 -28684 -57356 -114700 -98348 -229412 -196708 -131188 -131284 0
-468 -408 -904 -1800 -3592 -114700 -98348 -196652 -131180 -131188 -131284 0
-468 -916 -904 -784 -560 -1072 -3116 -7204 -196692 -131284 0
-468 -916 -904 -784 -1552 -1072 -3116 -7204 -14372 -196692 -131284 0
-468 -916 -904 -1800 -1552 -1072 -3116 -6188 -14372 -196692 -131284 0
-468 -916 -904 -1800 -1552 -3088 -7180 -14348 -114724 -229412 -196708 -131188 -131284 0
-468 -916 -1800 -1552 -1072 -2096 -6188 -14372 -196692 -131284 0
-468 -916 -3592 -3088 -6160 -12304 -28684 -114724 -229412 -196708 -131188 -131284 0
-468 -916 -114696 -98320 -65584 -131120 -131180 -131188 -131284 0
-216 -160 -64 -304 -812 -1828 -131284 0
-216 -160 -288 -784 -812 -1828 -3620 -7204 -131284 0
-216 -160 -288 -784 -1804 -1828 -3620 -7204 -14372 -131284 0
-216 -160 -288 -784 -1804 -114724 -229412 -196708 -131300 -131284 0
-216 -408 -288 -304 -812 -1580 -3620 -131284 0
-216 -408 -288 -784 -1804 -1580 -3620 -7204 -14372 -131284 0
-468 -408 -288 -304 -560 -1580 -3620 -131284 0
-468 -408 -288 -784 -560 -1580 -3620 -7204 -131284 0
-468 -408 -288 -784 -1552 -3596 -3620 -7204 -14372 -28708 -131284 0
-468 -408 -288 -784 -1552 -3596 -114724 -229412 -196708 -131300 -131284 0
-468 -408 -792 -784 -560 -1580 -3116 -7204 -131284 0
-468 -916 -792 -784 -560 -1072 -3116 -7204 -131284 0
-468 -916 -792 -1800 -3592 -3088 -7180 -14348 -28684 -114724 -229412 -196708 -131300 -131284 0
-468 -916 -1812 -1800 -1552 -1072 -2096 -6188 -14372 -131284 0
-468 -916 -1812 -3592 -3088 -2096 -4144 -12332 -28708 -131284 0
-468 -916 -1812 -57352 -114696 -98320 -65584 -196652 -131180 -131300 -131284 0
-468 -408 -288 -64 -560 -1580 -3620 0
-468 -408 -288 -544 -1552 -3596 -114724 -229412 -196708 -131300 0
-468 -916 -792 -544 -560 -1072 -3116 -7204 0
-468 -916 -792 -544 -1552 -3088 -7180 -114724 -229412 -196708 -131300 0
-468 -916 -1812 -1560 -1552 -1072 -2096 -6188 -14372 0
-468 -916 -1812 -1560 -3592 -3088 -2096 -6188 -12332 -28708 0
-468 -916 -1812 -3604 -3592 -3088 -6160 -4144 -12332 -28708 -57380 0
-916 -792 -544 -64 -1072 -3116 -7204 0
-916 -792 -544 -1056 -1072 -3116 -7204 -14372 0
-916 -792 -1560 -1056 -1072 -3116 -6188 -14372 0
-916 -1812 -1560 -1056 -1072 -2096 -6188 -14372 0
-1812 -1560 -1056 -64 -2096 -6188 -14372 0
-1812 -1560 -1056 -2080 -2096 -6188 -14372 -28708 0
-1812 -3604 -3096 -2080 -2096 -4144 -12332 -28708 0
-1812 -3604 -3096 -6168 -14344 -12304 -12332 -24620 -49196 -114724 0
-1812 -3604 -7188 -6168 -14344 -12304 -8240 -24620 -49196 -114724 0
-1812 -3604 -7188 -14356 -14344 -28680 -57352 -49168 -49196 -98348 -196652 -196708 0
-1812 -3604 -7188 -14356 -57352 -49168 -32816 -65584 -196652 -196708 0
-3604 -3096 -2080 -64 -4144 -12332 -28708 0
-7188 -6168 -4128 -64 -8240 -24620 -57380 0
-7188 -6168 -4128 -8224 -24592 -57356 -114724 -229412 -196708 -131300 0
-7188 -6168 -12312 -8224 -24592 -57356 -114700 -114724 -229412 -196708 -131300 0
-7188 -14356 -28692 -57364 -57352 -49168 -98320 -65584 -196652 -196708 -131300 0
-7188 -14356 -28692 -57364 -114696 -98320 -65584 -131120 -131180 -131300 0
-14356 -12312 -8224 -64 -16432 -49196 -114724 0
-14356 -12312 -24600 -16416 -49168 -114700 -98348 -229412 -196708 -131300 0
-14356 -12312 -24600 -49176 -49168 -114700 -98348 -196652 -196708 -131300 0
-14356 -28692 -24600 -16416 -16432 -32816 -98348 -229412 0
-14356 -28692 -57364 -49176 -114696 -98320 -65584 -196652 -131180 -131300 0
-28692 -24600 -16416 -64 -32816 -98348 -229412 0
-28692 -24600 -16416 -32800 -32816 -98348 -229412 -196708 0
-28692 -57364 -49176 -32800 -98320 -65584 -196652 -196708 -131300 0
-57364 -49176 -32800 -64 -65584 -196652 -196708 0
-57364 -49176 -32800 -65568 -65584 -196652 -196708 -131300 0
-114708 -98328 -65568 -64 -131120 -131180 -131300 0
-64 -112 -236 -460 -229396 -196632 -131128 0
-120 -232 -236 -460 -908 -1804 -229396 -196632 -131128 0
-120 -232 -236 -428 -908 -1804 -229396 -196632 -131160 0
-120 -232 -484 -932 -7180 -14348 -28684 -57356 -229396 -196632 -131160 0
-120 -232 -484 -932 -28684 -57356 -114700 -229388 -229396 -196632 -131160 0
-120 -112 -176 -428 -908 -229396 -196692 -131160 0
-120 -232 -424 -932 -908 -1804 -3596 -7180 -229396 -196692 -131160 0
-216 -456 -424 -428 -812 -1580 -3596 -229396 -196692 -131160 0
-216 -232 -176 -304 -812 -1804 -229396 -196692 -131284 0
-216 -456 -904 -808 -1828 -3620 -3116 -7180 -14348 -28684 -229396 -196692 -131284 0
-216 -456 -904 -808 -1828 -3620 -7204 -57356 -114700 -229388 -196636 -196692 -131284 0
-216 -456 -904 -1800 -3620 -7204 -6188 -12332 -28684 -57356 -229396 -196692 -131284 0
-468 -456 -424 -304 -560 -1580 -3596 -229396 -196692 -131284 0
-468 -456 -424 -808 -560 -1580 -3596 -7180 -229396 -196692 -131284 0
-468 -456 -904 -808 -560 -1580 -3116 -7180 -229396 -196692 -131284 0
-468 -904 -808 -560 -1072 -3116 -7180 -229396 -196692 -131284 0
-468 -904 -808 -1576 -1072 -3116 -7180 -14348 -229396 -196692 -131284 0
-468 -904 -1800 -3592 -3112 -7204 -14372 -28708 -114700 -229388 -196636 -131164 -131284 0
-468 -1800 -1576 -3112 -6184 -14372 -28684 -57356 -114700 -229388 -229396 -196692 -131284 0
-468 -3592 -7176 -6184 -4144 -12332 -24620 -57356 -229396 -196692 -131284 0
-468 -7176 -14344 -28680 -57352 -114724 -98348 -196652 -131132 -131164 -131284 0
-468 -14344 -12328 -24616 -16432 -49196 -114700 -229388 -229396 -196692 -131284 0
-468 -14344 -28680 -24616 -16432 -49196 -98348 -229388 -229396 -196692 -131284 0
-468 -14344 -28680 -57352 -114696 -114724 -98348 -196652 -131132 -131164 -131284 0
-468 -57352 -49192 -32816 -65584 -196652 -196636 -196692 -131284 0
-468 -114696 -98344 -65584 -131120 -131132 -131164 -131284 0
-120 -64 -176 -428 -908 -196692 -131160 0
-120 -184 -424 -428 -908 -1804 -3596 -196692 -131160 0
-120 -184 -424 -932 -908 -1804 -3596 -7180 -196692 -131160 0
-120 -184 -424 -932 -114700 -229388 -196684 -131164 -131160 0
-216 -184 -424 -428 -812 -1804 -3596 -196692 -131160 0
-216 -184 -424 -932 -812 -1804 -3596 -7180 -196692 -131160 0
-216 -184 -424 -932 -1828 -57356 -114700 -229388 -196684 -196692 -131160 0
-216 -408 -424 -932 -812 -1580 -3596 -7180 -196692 -131160 0
-216 -184 -424 -304 -812 -1804 -3596 -196692 -131284 0
-216 -184 -424 -808 -1828 -1804 -3596 -7180 -14348 -196692 -131284 0
-216 -184 -424 -808 -1828 -114700 -229388 -196684 -131164 -131284 0
-468 -408 -424 -304 -560 -1580 -3596 -196692 -131284 0
-468 -408 -904 -808 -560 -1580 -3116 -7180 -196692 -131284 0
-468 -408 -904 -1800 -1576 -3620 -7204 -14372 -114700 -229388 -196684 -131164 -131284 0
-468 -408 -904 -1800 -3592 -14372 -28708 -57380 -114724 -114700 -229388 -196684 -131164 -131284 0
-468 -408 -904 -1800 -3592 -28708 -57380 -114724 -98348 -229388 -196684 -131164 -131284 0
-468 -916 -904 -808 -560 -1072 -3116 -7180 -196692 -131284 0
-468 -916 -904 -808 -1576 -1072 -3116 -7180 -14348 -196692 -131284 0
-468 -916 -904 -1800 -1576 -1072 -3116 -6188 -14348 -196692 -131284 0
-468 -916 -1800 -1576 -1072 -2096 -6188 -14348 -196692 -131284 0
-468 -916 -7176 -14344 -28680 -24616 -57380 -114724 -98348 -229388 -196684 -131164 -131284 0
-468 -916 -28680 -57352 -49192 -32816 -98348 -196652 -196684 -196692 -131284 0
-468 -916 -57352 -49192 -32816 -65584 -196652 -196684 -196692 -131284 0
-216 -184 -64 -304 -812 -1804 -131284 0
-216 -184 -312 -304 -812 -1804 -3596 -131284 0
-216 -184 -312 -808 -812 -1804 -3596 -7180 -131284 0
-216 -408 -312 -808 -1828 -1580 -3596 -7180 -14348 -131284 0
-216 -408 -312 -808 -1828 -3620 -114700 -229388 -196684 -131276 -131284 0
-216 -408 -792 -808 -1828 -1580 -3116 -7180 -14348 -131284 0
-468 -408 -312 -304 -560 -1580 -3596 -131284 0
-468 -408 -312 -808 -560 -1580 -3596 -7180 -131284 0
-468 -408 -312 -808 -1576 -1580 -3596 -7180 -14348 -131284 0
-468 -408 -792 -808 -560 -1580 -3116 -7180 -131284 0
-468 -916 -792 -808 -560 -1072 -3116 -7180 -131284 0
-468 -916 -792 -1800 -1576 -1072 -3116 -6188 -14348 -131284 0
-468 -916 -1812 -1800 -1576 -1072 -2096 -6188 -14348 -131284 0
-468 -916 -1812 -3592 -3112 -2096 -4144 -12332 -28684 -131284 0
-468 -916 -1812 -14344 -12328 -8240 -16432 -49196 -114700 -131284 0
-468 -916 -1812 -28680 -24616 -49192 -32816 -98348 -229388 -196684 -131284 0
-468 -408 -312 -64 -560 -1580 -3596 0
-468 -408 -312 -568 -1576 -3620 -7180 -14348 -28684 -57356 0
-468 -408 -312 -568 -1576 -3620 -114700 -229388 -196684 -131276 0
-468 -408 -792 -568 -560 -1580 -3116 -7180 0
-468 -408 -792 -1560 -1576 -3620 -3116 -6188 -14348 -28684 0
-468 -916 -792 -568 -1576 -1072 -3116 -7180 -14348 0
-468 -916 -792 -1560 -3592 -3112 -3116 -6188 -12332 -28684 0
-468 -916 -1812 -1560 -1576 -1072 -2096 -6188 -14348 0
-468 -916 -1812 -3604 -3592 -3112 -2096 -4144 -12332 -28684 0
-468 -916 -1812 -3604 -3592 -3112 -6184 -4144 -12332 -28684 -57356 0
-916 -792 -568 -64 -1072 -3116 -7180 0
-916 -792 -1560 -1080 -1072 -3116 -6188 -14348 0
-916 -1812 -1560 -1080 -1072 -2096 -6188 -14348 0
-916 -1812 -1560 -1080 -3112 -6184 -14372 -57356 -114700 -229388 -196684 0
-916 -1812 -3604 -3096 -3112 -2096 -4144 -12332 -28684 0
-916 -1812 -3604 -3096 -7176 -6184 -4144 -12332 -24620 -57356 0
-916 -1812 -3604 -7188 -14344 -12328 -8240 -16432 -49196 -114700 0
-916 -1812 -3604 -7188 -28680 -24616 -16432 -32816 -98348 -229388 0
-1812 -1560 -1080 -64 -2096 -6188 -14348 0
-1812 -3604 -3096 -2104 -2096 -4144 -12332 -28684 0
-1812 -3604 -7188 -6168 -14344 -28680 -24616 -57380 -114724 -98348 -229388 -196684 -131276 0
-1812 -3604 -7188 -14356 -14344 -12328 -24616 -16432 -49196 -114700 -229388 0
-3604 -3096 -2104 -64 -4144 -12332 -28684 0
-3604 -3096 -2104 -4152 -4144 -12332 -28684 -57356 0
-3604 -7188 -6168 -4152 -12328 -24616 -57380 -57356 -114700 -229388 -196684 0
-3604 -7188 -14356 -28692 -28680 -24616 -49192 -32816 -98348 -229388 -196684 0
-7188 -6168 -4152 -64 -8240 -24620 -57356 0
-7188 -14356 -28692 -24600 -24616 -16432 -32816 -98348 -229388 0
-7188 -14356 -28692 -24600 -24616 -49192 -32816 -98348 -229388 -196684 0
-14356 -12312 -8248 -64 -16432 -49196 -114700 0
-14356 -28692 -24600 -16440 -16432 -32816 -98348 -229388 0
-14356 -28692 -24600 -16440 -49192 -32816 -98348 -229388 -196684 0
-14356 -28692 -57364 -49176 -49192 -32816 -65584 -196652 -196684 0
-28692 -24600 -16440 -64 -32816 -98348 -229388 0
-28692 -24600 -16440 -32824 -32816 -98348 -229388 -196684 0
-28692 -57364 -114708 -98328 -98344 -65584 -131120 -131180 -131276 0
-57364 -49176 -32824 -64 -65584 -196652 -196684 0
-114708 -98328 -65592 -64 -131120 -131180 -131276 0
-64 -112 -232 -484 -229396 -196636 -131104 0
-96 -208 -232 -484 -932 -1828 -229396 -196636 -131104 0
-96 -208 -456 -484 -932 -1828 -3620 -229396 -196636 -131104 0
-96 -208 -456 -932 -1828 -3620 -7204 -229396 -196636 -131104 0
-96 -208 -456 -1828 -3620 -7204 -14372 -229396 -196636 -131104 0
-96 -208 -456 -28708 -57380 -114724 -229412 -229396 -196636 -131104 0
-96 -208 -456 -57380 -114724 -229412 -196660 -196636 -131104 0
-96 -208 -456 -424 -932 -1828 -3620 -229396 -196636 -131164 0
-96 -208 -456 -904 -1828 -3620 -7204 -14372 -229396 -196636 -131164 0
-220 -460 -456 -904 -1800 -3592 -114724 -229412 -196660 -131132 -131164 0
-220 -460 -7176 -14344 -28680 -57352 -114724 -229412 -196660 -131132 -131164 0
-96 -208 -400 -904 -932 -1828 -3620 -7204 -229396 -196692 -131164 0
-96 -208 -400 -904 -57380 -114724 -229412 -196660 -196692 -131164 0
-220 -460 -400 -904 -1800 -1576 -3620 -7204 -14372 -229396 -196692 -131164 0
-220 -208 -176 -304 -808 -1828 -229396 -196692 -131284 0
-220 -460 -400 -304 -808 -1576 -3620 -229396 -196692 -131284 0
-220 -460 -908 -784 -1800 -3592 -3112 -7204 -14372 -28708 -229396 -196692 -131284 0
-220 -460 -908 -1804 -114696 -98344 -196648 -131128 -131188 -131284 0
-468 -460 -400 -304 -560 -1576 -3620 -229396 -196692 -131284 0
-468 -460 -400 -784 -560 -1576 -3620 -7204 -229396 -196692 -131284 0
-468 -460 -908 -1804 -1552 -3592 -7176 -14344 -57380 -114724 -229412 -196660 -196692 -131284 0
-468 -460 -908 -1804 -1552 -3592 -7176 -14344 -114724 -229412 -196660 -131188 -131284 0
-468 -460 -908 -1804 -3596 -114696 -98344 -196648 -131128 -131188 -131284 0
-468 -908 -784 -560 -1072 -3112 -7204 -229396 -196692 -131284 0
-468 -908 -1804 -1552 -1072 -3112 -6184 -14372 -229396 -196692 -131284 0
-468 -1804 -3596 -3088 -2096 -6184 -12328 -28708 -229396 -196692 -131284 0
-468 -1804 -3596 -7180 -14348 -57352 -49192 -98344 -196648 -196660 -196692 -131284 0
-468 -3596 -7180 -14348 -28684 -114696 -98344 -196648 -131128 -131188 -131284 0
-468 -7180 -6160 -4144 -8240 -24616 -57380 -229396 -196692 -131284 0
-468 -57356 -49168 -32816 -65584 -196648 -196660 -196692 -131284 0
-96 -64 -176 -424 -932 -196692 -131164 0
-96 -160 -176 -424 -932 -1828 -196692 -131164 0
-96 -160 -400 -424 -932 -1828 -3620 -196692 -131164 0
-96 -160 -400 -904 -932 -1828 -3620 -7204 -196692 -131164 0
-220 -160 -176 -424 -808 -1828 -196692 -131164 0
-220 -160 -400 -424 -808 -1828 -3620 -196692 -131164 0
-220 -160 -400 -904 -808 -1828 -3620 -7204 -196692 -131164 0
-220 -160 -400 -904 -1800 -7204 -14372 -28708 -57380 -196692 -131164 0
-220 -412 -400 -904 -808 -1576 -3620 -7204 -196692 -131164 0
-220 -412 -908 -904 -1800 -3592 -7176 -114724 -229412 -196708 -131188 -131164 0
-220 -160 -400 -304 -808 -1828 -3620 -196692 -131284 0
-220 -160 -400 -784 -1800 -1828 -3620 -7204 -14372 -196692 -131284 0
-220 -160 -400 -784 -1800 -114724 -229412 -196708 -131188 -131284 0
-220 -412 -908 -1804 -114696 -98344 -196648 -131176 -131188 -131284 0
-468 -412 -400 -304 -560 -1576 -3620 -196692 -131284 0
-468 -412 -400 -784 -560 -1576 -3620 -7204 -196692 -131284 0
-468 -412 -908 -784 -560 -1576 -3112 -7204 -196692 -131284 0
-468 -412 -908 -1804 -1552 -1576 -3112 -6184 -14372 -196692 -131284 0
-468 -412 -908 -1804 -1552 -3592 -7176 -14344 -114724 -229412 -196708 -131188 -131284 0
-468 -916 -908 -784 -560 -1072 -3112 -7204 -196692 -131284 0
-468 -916 -908 -784 -1552 -1072 -3112 -7204 -14372 -196692 -131284 0
-468 -916 -908 -1804 -1552 -1072 -3112 -6184 -14372 -196692 -131284 0
-468 -916 -1804 -1552 -1072 -2096 -6184 -14372 -196692 -131284 0
-468 -916 -7180 -6160 -12304 -24592 -57352 -114724 -229412 -196708 -131188 -131284 0
-468 -916 -57356 -49168 -32816 -65584 -196648 -196708 -196692 -131284 0
-468 -916 -57356 -49168 -98320 -65584 -196648 -196708 -131188 -131284 0
-220 -160 -64 -304 -808 -1828 -131284 0
-220 -160 -288 -784 -808 -1828 -3620 -7204 -131284 0
-220 -160 -288 -784 -1800 -1828 -3620 -7204 -14372 -131284 0
-220 -160 -288 -784 -1800 -57380 -114724 -229412 -196708 -131284 0
-220 -160 -288 -784 -1800 -114724 -229412 -196708 -131300 -131284 0
-220 -412 -288 -304 -808 -1576 -3620 -131284 0
-220 -412 -288 -784 -1800 -1576 -3620 -7204 -14372 -131284 0
-220 -412 -288 -784 -1800 -3592 -114724 -229412 -196708 -131300 -131284 0
-468 -916 -796 -784 -560 -1072 -3112 -7204 -131284 0
-468 -916 -796 -1804 -1552 -1072 -3112 -6184 -14372 -131284 0
-468 -916 -796 -1804 -3596 -3088 -7176 -14344 -28680 -114724 -229412 -196708 -131300 -131284 0
-468 -916 -1812 -1804 -1552 -3088 -2096 -6184 -14372 -28708 -131284 0
-468 -916 -1812 -57356 -114700 -98320 -65584 -196648 -131176 -131300 -131284 0
-468 -412 -288 -64 -560 -1576 -3620 0
-468 -412 -288 -544 -1552 -1576 -3620 -7204 -14372 0
-468 -412 -796 -544 -560 -1576 -3112 -7204 0
-468 -412 -796 -544 -1552 -3592 -3112 -7204 -14372 -28708 0
-468 -916 -1812 -1564 -1552 -1072 -2096 -6184 -14372 0
-916 -796 -544 -64 -1072 -3112 -7204 0
-916 -796 -544 -1056 -3088 -3112 -7204 -14372 -28708 0
-916 -796 -1564 -1056 -1072 -3112 -6184 -14372 0
-916 -796 -1564 -1056 -3088 -3112 -6184 -14372 -28708 0
-916 -1812 -1564 -1056 -1072 -2096 -6184 -14372 0
-916 -1812 -1564 -1056 -3088 -6160 -14344 -57380 -114724 -229412 -196708 0
-916 -1812 -3604 -3100 -3088 -2096 -4144 -12328 -28708 0
-1812 -1564 -1056 -64 -2096 -6184 -14372 0
-1812 -1564 -3100 -2080 -2096 -6184 -12328 -28708 0
-1812 -3604 -3100 -2080 -2096 -4144 -12328 -28708 0
-1812 -3604 -3100 -2080 -6160 -12304 -28680 -114724 -229412 -196708 -131300 0
-1812 -3604 -7188 -6172 -6160 -4144 -8240 -24616 -57380 0
-3604 -3100 -2080 -64 -4144 -12328 -28708 0
-3604 -3100 -2080 -4128 -12304 -28680 -114724 -229412 -196708 -131300 0
-3604 -3100 -6172 -4128 -12304 -28680 -24616 -57380 -114724 -229412 0
-3604 -7188 -14356 -12316 -12304 -8240 -16432 -49192 -114724 0
-3604 -7188 -14356 -12316 -28684 -24592 -49168 -114696 -98344 -229412 -196708 -131300 0
-3604 -7188 -14356 -28692 -114700 -98320 -65584 -131120 -131176 -131300 0
-7188 -6172 -4128 -64 -8240 -24616 -57380 0
-7188 -14356 -28692 -57364 -57356 -49168 -98320 -65584 -196648 -196708 -131300 0
-14356 -12316 -8224 -64 -16432 -49192 -114724 0
-28692 -24604 -16416 -64 -32816 -98344 -229412 0
-28692 -57364 -49180 -32800 -32816 -65584 -196648 -196708 0
-57364 -49180 -32800 -64 -65584 -196648 -196708 0
-114708 -98332 -65568 -64 -131120 -131176 -131300 0
-64 -112 -232 -456 -229396 -196636 -131132 0
-124 -236 -232 -456 -904 -1800 -229396 -196636 -131132 0
-124 -236 -484 -456 -904 -1800 -3592 -229396 -196636 -131132 0
-124 -236 -484 -904 -1800 -3592 -7176 -229396 -196636 -131132 0
-124 -236 -484 -7176 -14344 -28680 -57352 -229396 -196636 -131132 0
-124 -236 -232 -424 -904 -1800 -229396 -196636 -131164 0
-124 -236 -484 -932 -7176 -14344 -28680 -57352 -229396 -196636 -131164 0
-124 -236 -484 -932 -28680 -57352 -114696 -229384 -229396 -196636 -131164 0
-220 -236 -484 -424 -808 -1800 -3592 -229396 -196636 -131164 0
-220 -460 -484 -932 -808 -1576 -3592 -7176 -229396 -196636 -131164 0
-220 -460 -484 -932 -1828 -3620 -114696 -229384 -196632 -131104 -131164 0
-124 -236 -428 -932 -904 -1800 -3592 -7176 -229396 -196692 -131164 0
-124 -236 -428 -932 -3592 -7176 -14344 -28680 -229396 -196692 -131164 0
-220 -460 -428 -932 -1828 -1576 -3592 -7176 -14344 -229396 -196692 -131164 0
-220 -236 -176 -304 -808 -1800 -229396 -196692 -131284 0
-220 -460 -428 -304 -808 -1576 -3592 -229396 -196692 -131284 0
-220 -460 -908 -812 -1828 -3620 -3112 -7176 -14344 -28680 -229396 -196692 -131284 0
-220 -460 -908 -812 -1828 -3620 -7204 -57352 -114696 -229384 -196632 -196692 -131284 0
-468 -460 -428 -304 -560 -1576 -3592 -229396 -196692 -131284 0
-468 -460 -428 -812 -560 -1576 -3592 -7176 -229396 -196692 -131284 0
-468 -460 -908 -812 -560 -1576 -3112 -7176 -229396 -196692 -131284 0
-468 -460 -908 -812 -1580 -3620 -7204 -57352 -114696 -229384 -196632 -196692 -131284 0
-468 -3596 -7180 -14348 -28684 -114724 -98344 -196648 -131128 -131160 -131284 0
-468 -14348 -12332 -8240 -16432 -49192 -114696 -229396 -196692 -131284 0
-468 -14348 -12332 -24620 -16432 -49192 -114696 -229384 -229396 -196692 -131284 0
-468 -14348 -28684 -24620 -16432 -49192 -98344 -229384 -229396 -196692 -131284 0
-468 -57356 -49196 -32816 -65584 -196648 -196632 -196692 -131284 0
-468 -57356 -114700 -98348 -65584 -196648 -131128 -131160 -131284 0
-124 -64 -176 -424 -904 -196692 -131164 0
-124 -188 -176 -424 -904 -1800 -196692 -131164 0
-124 -188 -428 -424 -904 -1800 -3592 -196692 -131164 0
-124 -188 -428 -932 -904 -1800 -3592 -7176 -196692 -131164 0
-124 -188 -428 -932 -1800 -3592 -7176 -14344 -196692 -131164 0
-124 -188 -428 -932 -28680 -57352 -114696 -229384 -196692 -131164 0
-124 -188 -428 -932 -114696 -229384 -196680 -131160 -131164 0
-220 -188 -428 -424 -808 -1800 -3592 -196692 -131164 0
-220 -188 -428 -932 -808 -1800 -3592 -7176 -196692 -131164 0
-220 -412 -428 -932 -808 -1576 -3592 -7176 -196692 -131164 0
-220 -188 -428 -812 -808 -1800 -3592 -7176 -196692 -131284 0
-220 -188 -428 -812 -1828 -1800 -3592 -7176 -14344 -196692 -131284 0
-220 -412 -908 -812 -808 -1576 -3112 -7176 -196692 -131284 0
-220 -412 -908 -1804 -114724 -98344 -196648 -131176 -131160 -131284 0
-468 -412 -428 -304 -560 -1576 -3592 -196692 -131284 0
-468 -412 -908 -1804 -1580 -1576 -3112 -6184 -14344 -196692 -131284 0
-468 -412 -908 -1804 -1580 -3620 -7204 -14372 -114696 -229384 -196680 -131160 -131284 0
-468 -916 -908 -812 -560 -1072 -3112 -7176 -196692 -131284 0
-468 -916 -908 -812 -1580 -1072 -3112 -7176 -14344 -196692 -131284 0
-468 -916 -908 -1804 -1580 -1072 -3112 -6184 -14344 -196692 -131284 0
-468 -916 -1804 -1580 -1072 -2096 -6184 -14344 -196692 -131284 0
-220 -188 -64 -304 -808 -1800 -131284 0
-220 -188 -316 -304 -808 -1800 -3592 -131284 0
-220 -188 -316 -812 -808 -1800 -3592 -7176 -131284 0
-220 -188 -316 -812 -1828 -1800 -3592 -7176 -14344 -131284 0
-220 -412 -316 -304 -808 -1576 -3592 -131284 0
-220 -412 -316 -812 -1828 -1576 -3592 -7176 -14344 -131284 0
-220 -412 -316 -812 -1828 -3620 -57352 -114696 -229384 -196680 -131284 0
-220 -412 -316 -812 -1828 -3620 -114696 -229384 -196680 -131272 -131284 0
-468 -412 -316 -304 -560 -1576 -3592 -131284 0
-468 -412 -316 -812 -1580 -1576 -3592 -7176 -14344 -131284 0
-468 -412 -316 -812 -1580 -3620 -3592 -7176 -14344 -28680 -131284 0
-468 -412 -316 -812 -1580 -3620 -114696 -229384 -196680 -131272 -131284 0
-468 -412 -796 -1804 -1580 -1576 -3112 -6184 -14344 -131284 0
-468 -916 -796 -812 -560 -1072 -3112 -7176 -131284 0
-468 -916 -796 -1804 -1580 -1072 -3112 -6184 -14344 -131284 0
-468 -916 -796 -1804 -3596 -3116 -7204 -14372 -28708 -114696 -229384 -196680 -131272 -131284 0
-468 -916 -1812 -1804 -1580 -1072 -2096 -6184 -14344 -131284 0
-468 -916 -1812 -1804 -1580 -3116 -2096 -6184 -14344 -28680 -131284 0
-468 -916 -1812 -3596 -3116 -2096 -4144 -12328 -28680 -131284 0
-468 -916 -1812 -3596 -7180 -6188 -4144 -12328 -24616 -57352 -131284 0
-468 -916 -1812 -7180 -6188 -12332 -24620 -24616 -57352 -114696 -229384 -131284 0
-468 -916 -1812 -57356 -49196 -32816 -65584 -196648 -196680 -131284 0
-468 -916 -1812 -57356 -114700 -98348 -65584 -196648 -131176 -131272 -131284 0
-468 -412 -316 -64 -560 -1576 -3592 0
-468 -412 -316 -572 -560 -1576 -3592 -7176 0
-468 -412 -316 -572 -1580 -1576 -3592 -7176 -14344 0
-468 -412 -316 -572 -1580 -3620 -3592 -7176 -14344 -28680 0
-468 -412 -316 -572 -1580 -3620 -114696 -229384 -196680 -131272 0
-468 -916 -1812 -1564 -1580 -1072 -2096 -6184 -14344 0
-468 -916 -1812 -1564 -3596 -3116 -2096 -6184 -12328 -28680 0
-468 -916 -1812 -1564 -3596 -7180 -6188 -14372 -28708 -24616 -57352 -114696 -229384 0
-468 -916 -1812 -3604 -3596 -3116 -2096 -4144 -12328 -28680 0
-916 -796 -572 -64 -1072 -3112 -7176 0
-916 -796 -1564 -1084 -3116 -3112 -6184 -14344 -28680 0
-916 -796 -1564 -1084 -3116 -7204 -14372 -14344 -28680 -57352 -114696 0
-916 -1812 -1564 -1084 -1072 -2096 -6184 -14344 0
-916 -1812 -1564 -1084 -3116 -6188 -14372 -14344 -28680 -57352 -114696 0
-916 -1812 -3604 -3100 -3116 -2096 -4144 -12328 -28680 0
-1812 -1564 -1084 -64 -2096 -6184 -14344 0
-1812 -1564 -1084 -2108 -6188 -14372 -14344 -28680 -57352 -114696 0
-1812 -1564 -3100 -2108 -6188 -14372 -12328 -28680 -57352 -114696 0
-1812 -3604 -7188 -6172 -6188 -4144 -8240 -24616 -57352 0
-3604 -3100 -2108 -64 -4144 -12328 -28680 0
-3604 -3100 -2108 -4156 -12332 -12328 -28680 -57352 -114696 0
-3604 -7188 -6172 -4156 -12332 -24620 -57380 -57352 -114696 -229384 -196680 0
-7188 -6172 -4156 -64 -8240 -24616 -57352 0
-7188 -14356 -28692 -57364 -57356 -49196 -32816 -65584 -196648 -196680 0
-14356 -12316 -8252 -64 -16432 -49192 -114696 0
-14356 -12316 -8252 -16444 -49196 -114724 -114696 -229384 -196680 -131272 0
-14356 -28692 -24604 -16444 -16432 -32816 -98344 -229384 0
-28692 -24604 -16444 -64 -32816 -98344 -229384 0
-28692 -24604 -16444 -32828 -32816 -98344 -229384 -196680 0
-57364 -49180 -32828 -64 -65584 -196648 -196680 0
-114708 -98332 -65596 -64 -131120 -131176 -131272 0
-64 -112 -208 -460 -229396 -196660 -131128 0
-120 -232 -208 -460 -908 -1804 -229396 -196660 -131128 0
-120 -232 -456 -460 -908 -1804 -3596 -229396 -196660 -131128 0
-120 -232 -456 -908 -1804 -3596 -7180 -229396 -196660 -131128 0
-120 -232 -456 -7180 -14348 -28684 -57356 -229396 -196660 -131128 0
-120 -112 -208 -400 -908 -229396 -196660 -131188 0
-120 -232 -456 -400 -908 -1804 -3596 -229396 -196660 -131188 0
-120 -232 -456 -904 -1804 -3596 -7180 -14348 -229396 -196660 -131188 0
-120 -232 -456 -904 -7180 -14348 -28684 -57356 -229396 -196660 -131188 0
-120 -232 -456 -904 -28684 -57356 -114700 -229388 -229396 -196660 -131188 0
-244 -484 -456 -904 -1800 -3592 -114700 -229388 -196636 -131132 -131188 0
-244 -484 -114696 -98320 -196624 -131104 -131132 -131188 0
-120 -232 -424 -904 -908 -1804 -3596 -7180 -229396 -196692 -131188 0
-244 -232 -176 -304 -784 -1804 -229396 -196692 -131284 0
-244 -484 -424 -304 -784 -1552 -3596 -229396 -196692 -131284 0
-244 -484 -932 -808 -1800 -3592 -3088 -7180 -14348 -28684 -229396 -196692 -131284 0
-244 -484 -932 -1828 -114696 -98320 -196624 -131104 -131164 -131284 0
-468 -484 -424 -304 -560 -1552 -3596 -229396 -196692 -131284 0
-468 -484 -424 -808 -560 -1552 -3596 -7180 -229396 -196692 -131284 0
-468 -484 -424 -808 -1576 -3592 -114700 -229388 -196636 -131164 -131284 0
-468 -484 -932 -1828 -1576 -3592 -7176 -14344 -57356 -114700 -229388 -196636 -196692 -131284 0
-468 -484 -932 -1828 -3620 -28680 -57352 -49168 -98320 -229388 -196636 -196692 -131284 0
-468 -484 -932 -1828 -3620 -114696 -98320 -196624 -131104 -131164 -131284 0
-468 -932 -1828 -3620 -7204 -114696 -98320 -196624 -131104 -131164 -131284 0
-468 -14372 -28708 -57380 -114724 -114696 -98320 -196624 -131104 -131164 -131284 0
-468 -57380 -49192 -32816 -65584 -196624 -196636 -196692 -131284 0
-468 -57380 -49192 -98344 -65584 -196624 -196636 -131164 -131284 0
-468 -57380 -114724 -98344 -65584 -196624 -131104 -131164 -131284 0
-120 -64 -176 -400 -908 -196692 -131188 0
-120 -184 -424 -400 -908 -1804 -3596 -196692 -131188 0
-120 -184 -424 -904 -908 -1804 -3596 -7180 -196692 -131188 0
-120 -184 -424 -904 -1804 -3596 -7180 -14348 -196692 -131188 0
-120 -184 -424 -904 -57356 -114700 -229388 -196684 -196692 -131188 0
-120 -184 -424 -904 -114700 -229388 -196684 -131164 -131188 0
-244 -184 -176 -400 -784 -1804 -196692 -131188 0
-244 -184 -424 -904 -784 -1804 -3596 -7180 -196692 -131188 0
-244 -184 -424 -904 -1800 -57356 -114700 -229388 -196684 -196692 -131188 0
-244 -436 -932 -114696 -98320 -196624 -131152 -131164 -131188 0
-244 -184 -424 -808 -1800 -1804 -3596 -7180 -14348 -196692 -131284 0
-244 -184 -424 -808 -1800 -28684 -57356 -114700 -229388 -196692 -131284 0
-244 -436 -932 -1828 -7176 -14344 -12304 -24592 -57356 -114700 -196692 -131284 0
-244 -436 -932 -1828 -114696 -98320 -196624 -131152 -131164 -131284 0
-468 -436 -424 -304 -560 -1552 -3596 -196692 -131284 0
-468 -436 -932 -1828 -1576 -3592 -7176 -6160 -14348 -28684 -57356 -196692 -131284 0
-468 -436 -932 -1828 -1576 -3592 -7176 -14344 -114700 -229388 -196684 -131164 -131284 0
-468 -436 -932 -1828 -3620 -14344 -28680 -57352 -49168 -114700 -229388 -196684 -196692 -131284 0
-468 -916 -932 -808 -560 -1072 -3088 -7180 -196692 -131284 0
-468 -916 -932 -808 -1576 -1072 -3088 -7180 -14348 -196692 -131284 0
-468 -916 -932 -1828 -1576 -1072 -3088 -6160 -14348 -196692 -131284 0
-468 -916 -1828 -1576 -1072 -2096 -6160 -14348 -196692 -131284 0
-468 -916 -1828 -3620 -3112 -2096 -6160 -12304 -28684 -196692 -131284 0
-468 -916 -1828 -3620 -7204 -14372 -28680 -57352 -114696 -98320 -229388 -196684 -131164 -131284 0
-468 -916 -57380 -49192 -32816 -65584 -196624 -196684 -196692 -131284 0
-468 -916 -57380 -49192 -98344 -65584 -196624 -196684 -131164 -131284 0
-244 -184 -64 -304 -784 -1804 -131284 0
-244 -184 -312 -304 -784 -1804 -3596 -131284 0
-244 -184 -312 -808 -1800 -1804 -3596 -7180 -14348 -131284 0
-244 -184 -312 -808 -1800 -28684 -57356 -114700 -229388 -131284 0
-244 -184 -312 -808 -1800 -57356 -114700 -229388 -196684 -131284 0
-244 -184 -312 -808 -1800 -114700 -229388 -196684 -131276 -131284 0
-244 -436 -312 -808 -784 -1552 -3596 -7180 -131284 0
-244 -436 -312 -808 -1800 -3592 -114700 -229388 -196684 -131276 -131284 0
-244 -436 -820 -808 -1800 -3592 -3088 -7180 -14348 -28684 -131284 0
-468 -436 -312 -808 -560 -1552 -3596 -7180 -131284 0
-468 -436 -312 -808 -1576 -3592 -3596 -7180 -14348 -28684 -131284 0
-468 -436 -312 -808 -1576 -3592 -114700 -229388 -196684 -131276 -131284 0
-468 -916 -820 -808 -560 -1072 -3088 -7180 -131284 0
-468 -916 -820 -1828 -3620 -3112 -7176 -14344 -28680 -114700 -229388 -196684 -131276 -131284 0
-468 -916 -1812 -1828 -1576 -1072 -2096 -6160 -14348 -131284 0
-468 -916 -1812 -1828 -1576 -3112 -2096 -6160 -14348 -28684 -131284 0
-468 -916 -1812 -28708 -24616 -49192 -32816 -98320 -229388 -196684 -131284 0
-468 -916 -1812 -57380 -49192 -32816 -65584 -196624 -196684 -131284 0
-468 -916 -1812 -57380 -114724 -98344 -65584 -196624 -131152 -131276 -131284 0
-468 -436 -312 -64 -560 -1552 -3596 0
-468 -436 -312 -568 -560 -1552 -3596 -7180 0
-468 -436 -312 -568 -1576 -3592 -3596 -7180 -14348 -28684 0
-468 -436 -312 -568 -1576 -3592 -114700 -229388 -196684 -131276 0
-468 -436 -820 -568 -560 -1552 -3088 -7180 0
-468 -916 -820 -568 -560 -1072 -3088 -7180 0
-468 -916 -820 -568 -1576 -1072 -3088 -7180 -14348 0
-468 -916 -1812 -1588 -1576 -1072 -2096 -6160 -14348 0
-468 -916 -1812 -3604 -3620 -3112 -6184 -4144 -12304 -28684 -57356 0
-468 -916 -1812 -3604 -14372 -12328 -24616 -16432 -49168 -114700 -229388 0
-916 -820 -568 -64 -1072 -3088 -7180 0
-916 -820 -568 -1080 -3112 -7176 -7180 -14348 -28684 -57356 0
-916 -1812 -1588 -1080 -1072 -2096 -6160 -14348 0
-916 -1812 -1588 -1080 -3112 -6184 -14344 -57356 -114700 -229388 -196684 0
-916 -1812 -3604 -3124 -3112 -2096 -4144 -12304 -28684 0
-916 -1812 -3604 -7188 -7204 -6184 -12328 -8240 -24592 -57356 -114700 0
-916 -1812 -3604 -7188 -28708 -24616 -49192 -32816 -98320 -229388 -196684 0
-1812 -1588 -1080 -64 -2096 -6160 -14348 0
-1812 -3604 -7188 -14356 -14372 -12328 -8240 -16432 -49168 -114700 0
-1812 -3604 -7188 -14356 -14372 -12328 -24616 -16432 -49168 -114700 -229388 0
-1812 -3604 -7188 -14356 -14372 -28708 -24616 -16432 -49168 -98320 -229388 0
-3604 -3124 -2104 -64 -4144 -12304 -28684 0
-3604 -7188 -14356 -12340 -12328 -8240 -16432 -49168 -114700 0
-7188 -6196 -4152 -64 -8240 -24592 -57356 0
-7188 -14356 -12340 -24628 -24616 -16432 -49168 -98320 -229388 0
-7188 -14356 -28692 -24628 -24616 -16432 -32816 -98320 -229388 0
-7188 -14356 -28692 -24628 -24616 -49192 -98344 -98320 -229388 -196684 -131276 0
-7188 -14356 -28692 -57364 -57380 -49192 -32816 -65584 -196624 -196684 0
-14356 -12340 -8248 -64 -16432 -49168 -114700 0
-14356 -12340 -24628 -16440 -16432 -49168 -98320 -229388 0
-14356 -28692 -24628 -16440 -16432 -32816 -98320 -229388 0
-14356 -28692 -57364 -49204 -49192 -32816 -65584 -196624 -196684 0
-28692 -24628 -16440 -64 -32816 -98320 -229388 0
-57364 -49204 -32824 -64 -65584 -196624 -196684 0
-57364 -49204 -98356 -65592 -65584 -196624 -131152 -131276 0
-114708 -98356 -65592 -64 -131120 -131152 -131276 0
-64 -112 -208 -456 -229396 -196660 -131132 0
-124 -236 -208 -456 -904 -1800 -229396 -196660 -131132 0
-124 -236 -460 -456 -904 -1800 -3592 -229396 -196660 -131132 0
-124 -236 -460 -1800 -3592 -7176 -14344 -229396 -196660 -131132 0
-124 -236 -460 -908 -114696 -229384 -196632 -131128 -131188 0
-244 -236 -460 -400 -784 -1800 -3592 -229396 -196660 -131188 0
-244 -484 -460 -400 -784 -1552 -3592 -229396 -196660 -131188 0
-244 -484 -460 -908 -1804 -3596 -114696 -229384 -196632 -131128 -131188 0
-244 -484 -114700 -98320 -196624 -131104 -131128 -131188 0
-124 -236 -428 -908 -904 -1800 -3592 -7176 -229396 -196692 -131188 0
-124 -236 -428 -908 -57352 -114696 -229384 -196632 -196692 -131188 0
-244 -236 -428 -812 -784 -1800 -3592 -7176 -229396 -196692 -131284 0
-244 -484 -428 -304 -784 -1552 -3592 -229396 -196692 -131284 0
-244 -484 -932 -812 -1804 -3596 -3088 -7176 -14344 -28680 -229396 -196692 -131284 0
-244 -484 -932 -812 -1804 -3596 -7180 -57352 -114696 -229384 -196632 -196692 -131284 0
-244 -484 -932 -1828 -1804 -3596 -7180 -14348 -57352 -114696 -229384 -196632 -196692 -131284 0
-468 -484 -428 -304 -560 -1552 -3592 -229396 -196692 -131284 0
-468 -484 -428 -812 -560 -1552 -3592 -7176 -229396 -196692 -131284 0
-468 -484 -428 -812 -1580 -3596 -114696 -229384 -196632 -131160 -131284 0
-468 -484 -932 -812 -560 -1552 -3088 -7176 -229396 -196692 -131284 0
-468 -484 -932 -1828 -3620 -3596 -7180 -14348 -28684 -114696 -229384 -196632 -131160 -131284 0
-468 -932 -1828 -1580 -3116 -7180 -14348 -57352 -114696 -229384 -196632 -196692 -131284 0
-468 -932 -1828 -3620 -3116 -7180 -14348 -28684 -114696 -229384 -196632 -131160 -131284 0
-468 -932 -1828 -3620 -7204 -114700 -98320 -196624 -131104 -131160 -131284 0
-468 -3620 -7204 -14372 -28708 -114700 -98320 -196624 -131104 -131160 -131284 0
-468 -14372 -28708 -24620 -16432 -49168 -98320 -229384 -229396 -196692 -131284 0
-468 -14372 -28708 -57380 -114724 -114700 -98320 -196624 -131104 -131160 -131284 0
-468 -57380 -49196 -32816 -65584 -196624 -196632 -196692 -131284 0
-468 -57380 -114724 -98348 -65584 -196624 -131104 -131160 -131284 0
-468 -114724 -98348 -65584 -131120 -131104 -131160 -131284 0
-124 -64 -176 -400 -904 -196692 -131188 0
-124 -188 -428 -400 -904 -1800 -3592 -196692 -131188 0
-124 -188 -428 -908 -904 -1800 -3592 -7176 -196692 -131188 0
-124 -188 -428 -908 -1800 -3592 -7176 -14344 -196692 -131188 0
-124 -188 -428 -908 -114696 -229384 -196680 -131160 -131188 0
-244 -188 -176 -400 -784 -1800 -196692 -131188 0
-244 -188 -428 -908 -784 -1800 -3592 -7176 -196692 -131188 0
-244 -188 -428 -908 -1804 -1800 -3592 -7176 -14344 -196692 -131188 0
-244 -188 -428 -908 -1804 -57352 -114696 -229384 -196680 -196692 -131188 0
-244 -188 -176 -304 -784 -1800 -196692 -131284 0
-244 -188 -428 -812 -1804 -1800 -3592 -7176 -14344 -196692 -131284 0
-244 -436 -428 -304 -784 -1552 -3592 -196692 -131284 0
-244 -436 -932 -1828 -3596 -3088 -6160 -12304 -28680 -196692 -131284 0
-468 -436 -428 -304 -560 -1552 -3592 -196692 -131284 0
-468 -436 -932 -812 -560 -1552 -3088 -7176 -196692 -131284 0
-468 -436 -932 -1828 -1580 -3596 -7180 -14348 -114696 -229384 -196680 -131160 -131284 0
-468 -436 -932 -1828 -3620 -28684 -57356 -114700 -98320 -229384 -196680 -131160 -131284 0
-468 -916 -932 -812 -560 -1072 -3088 -7176 -196692 -131284 0
-468 -916 -932 -812 -1580 -1072 -3088 -7176 -14344 -196692 -131284 0
-468 -916 -932 -1828 -3620 -3116 -7180 -14348 -12304 -28680 -57352 -114696 -196692 -131284 0
-468 -916 -932 -1828 -3620 -3116 -7180 -14348 -28684 -114696 -229384 -196680 -131160 -131284 0
-468 -916 -1828 -1580 -1072 -2096 -6160 -14344 -196692 -131284 0
-468 -916 -57380 -49196 -32816 -65584 -196624 -196680 -196692 -131284 0
-468 -916 -114724 -98348 -65584 -131120 -131152 -131160 -131284 0
-244 -188 -64 -304 -784 -1800 -131284 0
-244 -188 -316 -812 -784 -1800 -3592 -7176 -131284 0
-244 -188 -316 -812 -1804 -1800 -3592 -7176 -14344 -131284 0
-244 -436 -316 -812 -784 -1552 -3592 -7176 -131284 0
-244 -436 -316 -812 -1804 -1552 -3592 -7176 -14344 -131284 0
-244 -436 -316 -812 -1804 -3596 -3592 -7176 -14344 -28680 -131284 0
-244 -436 -316 -812 -1804 -3596 -114696 -229384 -196680 -131272 -131284 0
-244 -436 -820 -812 -1804 -1552 -3088 -7176 -14344 -131284 0
-468 -436 -316 -812 -1580 -1552 -3592 -7176 -14344 -131284 0
-468 -436 -316 -812 -1580 -3596 -3592 -7176 -14344 -28680 -131284 0
-468 -916 -820 -812 -560 -1072 -3088 -7176 -131284 0
-468 -916 -820 -1828 -1580 -1072 -3088 -6160 -14344 -131284 0
-468 -916 -820 -1828 -3620 -7204 -57356 -114700 -98320 -196624 -196680 -131272 -131284 0
-468 -916 -1812 -1828 -1580 -3116 -2096 -6160 -14344 -28680 -131284 0
-468 -916 -1812 -57380 -114724 -98348 -65584 -196624 -131152 -131272 -131284 0
-468 -436 -316 -64 -560 -1552 -3592 0
-468 -436 -820 -572 -560 -1552 -3088 -7176 0
-468 -436 -820 -572 -1580 -3596 -3088 -7176 -14344 -28680 0
-468 -436 -820 -572 -1580 -3596 -7180 -7176 -14344 -28680 -57352 0
-468 -916 -820 -572 -560 -1072 -3088 -7176 0
-468 -916 -820 -572 -1580 -3116 -7180 -7176 -14344 -28680 -57352 0
-468 -916 -820 -1588 -3620 -3116 -3088 -6160 -12304 -28680 0
-468 -916 -1812 -1588 -1580 -1072 -2096 -6160 -14344 0
-468 -916 -1812 -3604 -3620 -3116 -2096 -4144 -12304 -28680 0
-468 -916 -1812 -3604 -3620 -3116 -6188 -4144 -12304 -28680 -57352 0
-468 -916 -1812 -3604 -14372 -28708 -24620 -16432 -49168 -98320 -229384 0
-916 -820 -572 -64 -1072 -3088 -7176 0
-916 -820 -572 -1084 -1072 -3088 -7176 -14344 0
-916 -820 -572 -1084 -3116 -3088 -7176 -14344 -28680 0
-916 -820 -572 -1084 -3116 -7180 -7176 -14344 -28680 -57352 0
-916 -820 -572 -1084 -3116 -7180 -114696 -229384 -196680 -131272 0
-916 -820 -1588 -1084 -3116 -7180 -6160 -14344 -28680 -57352 0
-916 -1812 -1588 -1084 -1072 -2096 -6160 -14344 0
-916 -1812 -1588 -1084 -3116 -6188 -14348 -57352 -114696 -229384 -196680 0
-916 -1812 -3604 -7188 -7204 -6188 -12332 -8240 -24592 -57352 -114696 0
-1812 -1588 -1084 -64 -2096 -6160 -14344 0
-1812 -3604 -3124 -2108 -2096 -4144 -12304 -28680 0
-1812 -3604 -7188 -6196 -14372 -28708 -24620 -57356 -114700 -98320 -229384 -196680 -131272 0
-3604 -3124 -2108 -64 -4144 -12304 -28680 0
-3604 -3124 -2108 -4156 -12332 -12304 -28680 -57352 -114696 0
-3604 -7188 -14356 -12340 -12332 -8240 -16432 -49168 -114696 0
-7188 -6196 -4156 -64 -8240 -24592 -57352 0
-7188 -6196 -12340 -8252 -24620 -57356 -114700 -114696 -229384 -196680 -131272 0
-14356 -12340 -8252 -64 -16432 -49168 -114696 0
-14356 -28692 -57364 -49204 -49196 -32816 -65584 -196624 -196680 0
-14356 -28692 -57364 -49204 -114724 -98348 -65584 -196624 -131152 -131272 0
-28692 -24628 -16444 -64 -32816 -98320 -229384 0
-57364 -49204 -32828 -64 -65584 -196624 -196680 0
-57364 -49204 -98356 -65596 -65584 -196624 -131152 -131272 0
-114708 -98356 -65596 -64 -131120 -131152 -131272 0
-64 -96 -220 -468 -229412 -196648 -131120 0
-112 -208 -220 -468 -916 -1812 -229412 -196648 -131120 0
-112 -208 -460 -57364 -114708 -229396 -196660 -196648 -131120 0
-112 -208 -460 -412 -916 -1812 -3604 -229412 -196648 -131176 0
-232 -456 -114700 -98332 -196636 -131132 -131128 -131176 0
-112 -208 -400 -908 -916 -1812 -3604 -7188 -229412 -196708 -131176 0
-112 -208 -400 -908 -57364 -114708 -229396 -196660 -196708 -131176 0
-112 -208 -400 -908 -114708 -229396 -196660 -131188 -131176 0
-232 -208 -160 -412 -796 -1812 -229412 -196708 -131176 0
-232 -208 -160 -288 -796 -1812 -229412 -196708 -131300 0
-232 -208 -400 -784 -1804 -57364 -114708 -229396 -196660 -196708 -131300 0
-232 -456 -400 -288 -796 -1564 -3604 -229412 -196708 -131300 0
-232 -456 -904 -784 -1804 -3596 -3100 -7188 -14356 -28692 -229412 -196708 -131300 0
-232 -456 -904 -784 -1804 -3596 -7180 -57364 -114708 -229396 -196660 -196708 -131300 0
-232 -456 -904 -1800 -114700 -98332 -196636 -131132 -131188 -131300 0
-484 -456 -400 -784 -544 -1564 -3604 -7188 -229412 -196708 -131300 0
-484 -456 -904 -1800 -1552 -1564 -3100 -6172 -14356 -229412 -196708 -131300 0
-484 -456 -904 -1800 -1552 -3596 -7180 -14348 -57364 -114708 -229396 -196660 -196708 -131300 0
-484 -904 -1800 -1552 -3088 -7180 -14348 -57364 -114708 -229396 -196660 -196708 -131300 0
-484 -904 -1800 -1552 -3088 -7180 -14348 -114708 -229396 -196660 -131188 -131300 0
-484 -1800 -1552 -1056 -2080 -6172 -14356 -229412 -196708 -131300 0
-484 -1800 -3592 -7176 -14344 -14348 -12316 -24604 -49180 -114708 -229412 -196708 -131300 0
-484 -3592 -7176 -14344 -28680 -114700 -98332 -196636 -131132 -131188 -131300 0
-484 -14344 -28680 -24592 -16416 -49180 -98332 -229396 -229412 -196708 -131300 0
-484 -28680 -24592 -49168 -32800 -98332 -229396 -196660 -196708 -131300 0
-484 -57352 -49168 -32800 -65568 -196636 -196660 -196708 -131300 0
-112 -64 -160 -412 -916 -196708 -131176 0
-112 -176 -400 -412 -916 -1812 -3604 -196708 -131176 0
-112 -176 -400 -908 -916 -1812 -3604 -7188 -196708 -131176 0
-112 -176 -400 -908 -1812 -3604 -7188 -14356 -196708 -131176 0
-112 -176 -400 -908 -3604 -7188 -14356 -28692 -196708 -131176 0
-112 -176 -400 -908 -57364 -114708 -229396 -196692 -196708 -131176 0
-232 -176 -160 -412 -796 -1812 -196708 -131176 0
-232 -176 -400 -908 -796 -1812 -3604 -7188 -196708 -131176 0
-232 -176 -400 -908 -1804 -1812 -3604 -7188 -14356 -196708 -131176 0
-232 -176 -160 -288 -796 -1812 -196708 -131300 0
-232 -176 -400 -784 -1804 -1812 -3604 -7188 -14356 -196708 -131300 0
-232 -424 -904 -784 -796 -1564 -3100 -7188 -196708 -131300 0
-232 -424 -904 -1800 -1804 -3596 -7180 -6172 -14356 -28692 -57364 -196708 -131300 0
-232 -424 -904 -1800 -114700 -98332 -196636 -131164 -131188 -131300 0
-484 -424 -400 -288 -544 -1564 -3604 -196708 -131300 0
-484 -424 -904 -784 -544 -1564 -3100 -7188 -196708 -131300 0
-484 -424 -904 -1800 -1552 -1564 -3100 -6172 -14356 -196708 -131300 0
-484 -424 -904 -1800 -1552 -3596 -7180 -14348 -114708 -229396 -196692 -131188 -131300 0
-484 -932 -904 -784 -544 -1056 -3100 -7188 -196708 -131300 0
-484 -932 -904 -784 -1552 -1056 -3100 -7188 -14356 -196708 -131300 0
-484 -932 -1800 -1552 -1056 -2080 -6172 -14356 -196708 -131300 0
-484 -932 -57352 -49168 -32800 -65568 -196636 -196692 -196708 -131300 0
-484 -932 -114696 -98320 -65568 -131104 -131164 -131188 -131300 0
-232 -176 -64 -288 -796 -1812 -131300 0
-232 -176 -304 -288 -796 -1812 -3604 -131300 0
-232 -176 -304 -784 -796 -1812 -3604 -7188 -131300 0
-232 -176 -304 -784 -1804 -1812 -3604 -7188 -14356 -131300 0
-232 -176 -304 -784 -1804 -114708 -229396 -196692 -131284 -131300 0
-232 -424 -304 -288 -796 -1564 -3604 -131300 0
-232 -424 -304 -784 -1804 -1564 -3604 -7188 -14356 -131300 0
-232 -424 -304 -784 -1804 -3596 -114708 -229396 -196692 -131284 -131300 0
-232 -424 -808 -784 -796 -1564 -3100 -7188 -131300 0
-484 -424 -304 -784 -1552 -3596 -14356 -28692 -57364 -114708 -131300 0
-484 -424 -304 -784 -1552 -3596 -57364 -114708 -229396 -196692 -131300 0
-484 -424 -304 -784 -1552 -3596 -114708 -229396 -196692 -131284 -131300 0
-484 -932 -808 -784 -544 -1056 -3100 -7188 -131300 0
-484 -932 -808 -1800 -3592 -3088 -3100 -6172 -12316 -28692 -131300 0
-484 -932 -808 -1800 -3592 -7176 -28684 -57356 -114700 -98332 -229396 -196692 -131284 -131300 0
-484 -932 -1828 -1800 -1552 -1056 -2080 -6172 -14356 -131300 0
-484 -932 -1828 -1800 -1552 -3088 -2080 -6172 -14356 -28692 -131300 0
-484 -932 -1828 -57352 -114696 -98320 -65568 -196636 -131164 -131284 -131300 0
-484 -932 -1828 -114696 -98320 -65568 -131104 -131164 -131284 -131300 0
-484 -424 -304 -64 -544 -1564 -3604 0
-484 -424 -304 -560 -544 -1564 -3604 -7188 0
-484 -424 -304 -560 -1552 -3596 -14356 -28692 -57364 -114708 0
-484 -424 -304 -560 -1552 -3596 -57364 -114708 -229396 -196692 0
-484 -424 -808 -560 -544 -1564 -3100 -7188 0
-484 -932 -1828 -1576 -1552 -1056 -2080 -6172 -14356 0
-484 -932 -1828 -1576 -1552 -3088 -2080 -6172 -14356 -28692 0
-484 -932 -1828 -3620 -14344 -12304 -8224 -16416 -49180 -114708 0
-484 -932 -1828 -3620 -57352 -49168 -32800 -65568 -196636 -196692 0
-484 -932 -1828 -3620 -57352 -49168 -98320 -65568 -196636 -196692 -131284 0
-484 -932 -1828 -3620 -114696 -98320 -65568 -131104 -131164 -131284 0
-932 -808 -560 -64 -1056 -3100 -7188 0
-932 -1828 -1576 -1072 -1056 -2080 -6172 -14356 0
-932 -1828 -1576 -1072 -3088 -6160 -14348 -57364 -114708 -229396 -196692 0
-932 -1828 -3620 -7204 -7176 -6160 -12304 -8224 -24604 -57364 -114708 0
-932 -1828 -3620 -7204 -28680 -24592 -49168 -32800 -98332 -229396 -196692 0
-932 -1828 -3620 -7204 -57352 -49168 -98320 -65568 -196636 -196692 -131284 0
-1828 -1576 -1072 -64 -2080 -6172 -14356 0
-1828 -1576 -1072 -2096 -2080 -6172 -14356 -28692 0
-1828 -3620 -3112 -2096 -2080 -4128 -12316 -28692 0
-1828 -3620 -7204 -6184 -14344 -28680 -24592 -57356 -114700 -98332 -229396 -196692 -131284 0
-1828 -3620 -7204 -14372 -14344 -12304 -8224 -16416 -49180 -114708 0
-1828 -3620 -7204 -14372 -57352 -114696 -98320 -65568 -196636 -131164 -131284 0
-3620 -3112 -2096 -64 -4128 -12316 -28692 0
-3620 -3112 -6184 -4144 -12304 -12316 -24604 -57364 -114708 0
-3620 -3112 -6184 -4144 -12304 -28684 -57356 -114708 -229396 -196692 -131284 0
-3620 -7204 -6184 -4144 -12304 -24592 -57356 -57364 -114708 -229396 -196692 0
-3620 -7204 -14372 -28708 -57352 -49168 -32800 -65568 -196636 -196692 0
-7204 -6184 -4144 -64 -8224 -24604 -57364 0
-7204 -6184 -4144 -8240 -8224 -24604 -57364 -114708 0
-7204 -6184 -4144 -8240 -24592 -57356 -57364 -114708 -229396 -196692 0
-7204 -6184 -4144 -8240 -24592 -57356 -114708 -229396 -196692 -131284 0
-7204 -14372 -12328 -24616 -57352 -49168 -49180 -98332 -196636 -196692 0
-14372 -12328 -8240 -64 -16416 -49180 -114708 0
-14372 -12328 -8240 -16432 -49168 -49180 -114708 -229396 -196692 0
-14372 -12328 -8240 -16432 -49168 -114700 -114708 -229396 -196692 -131284 0
-14372 -12328 -24616 -16432 -16416 -49180 -98332 -229396 0
-14372 -28708 -24616 -16432 -16416 -32800 -98332 -229396 0
-28708 -24616 -16432 -64 -32800 -98332 -229396 0
-57380 -49192 -32816 -64 -65568 -196636 -196692 0
-114724 -98344 -65584 -64 -131104 -131164 -131284 0
-64 -96 -220 -460 -229412 -196648 -131128 0
-120 -96 -220 -460 -908 -229412 -196648 -131128 0
-120 -216 -220 -460 -908 -1804 -229412 -196648 -131128 0
-120 -216 -468 -460 -908 -1804 -3596 -229412 -196648 -131128 0
-120 -216 -468 -908 -1804 -3596 -7180 -229412 -196648 -131128 0
-120 -216 -220 -412 -908 -1804 -229412 -196648 -131176 0
-120 -216 -468 -412 -908 -1804 -3596 -229412 -196648 -131176 0
-120 -216 -468 -916 -908 -1804 -3596 -7180 -229412 -196648 -131176 0
-120 -216 -468 -916 -7180 -14348 -28684 -57356 -229412 -196648 -131176 0
-120 -216 -468 -916 -28684 -57356 -114700 -229388 -229412 -196648 -131176 0
-120 -216 -468 -916 -114700 -229388 -196652 -131120 -131176 0
-232 -216 -468 -412 -796 -1804 -3596 -229412 -196648 -131176 0
-120 -96 -160 -412 -908 -229412 -196708 -131176 0
-120 -216 -408 -916 -908 -1804 -3596 -7180 -229412 -196708 -131176 0
-232 -456 -904 -1812 -1564 -3100 -6172 -14348 -229412 -196708 -131176 0
-232 -456 -904 -114708 -98332 -196636 -131132 -131180 -131176 0
-232 -216 -160 -288 -796 -1804 -229412 -196708 -131300 0
-232 -456 -408 -288 -796 -1564 -3596 -229412 -196708 -131300 0
-232 -456 -904 -792 -1812 -3604 -3100 -7180 -14348 -28684 -229412 -196708 -131300 0
-232 -456 -904 -1800 -1812 -1564 -3100 -6172 -14348 -229412 -196708 -131300 0
-232 -456 -904 -1800 -1812 -3604 -3100 -6172 -14348 -28684 -229412 -196708 -131300 0
-484 -456 -408 -288 -544 -1564 -3596 -229412 -196708 -131300 0
-484 -456 -408 -792 -544 -1564 -3596 -7180 -229412 -196708 -131300 0
-484 -456 -408 -792 -1560 -1564 -3596 -7180 -14348 -229412 -196708 -131300 0
-484 -904 -792 -544 -1056 -3100 -7180 -229412 -196708 -131300 0
-484 -1800 -3592 -3096 -6168 -14356 -28692 -114700 -229388 -196652 -131180 -131300 0
-484 -3592 -7176 -6168 -4128 -12316 -24604 -57356 -229412 -196708 -131300 0
-484 -14344 -28680 -24600 -16416 -49180 -98332 -229388 -229412 -196708 -131300 0
-484 -28680 -24600 -49176 -32800 -98332 -229388 -196652 -196708 -131300 0
-484 -57352 -49176 -32800 -65568 -196636 -196652 -196708 -131300 0
-120 -64 -160 -412 -908 -196708 -131176 0
-120 -184 -160 -412 -908 -1804 -196708 -131176 0
-120 -184 -408 -412 -908 -1804 -3596 -196708 -131176 0
-120 -184 -408 -916 -908 -1804 -3596 -7180 -196708 -131176 0
-120 -184 -408 -916 -114700 -229388 -196684 -131180 -131176 0
-232 -184 -160 -412 -796 -1804 -196708 -131176 0
-232 -184 -408 -916 -796 -1804 -3596 -7180 -196708 -131176 0
-232 -424 -408 -916 -1812 -1564 -3596 -7180 -14348 -196708 -131176 0
-232 -424 -904 -28692 -57364 -114708 -98332 -229388 -196684 -131180 -131176 0
-232 -184 -408 -792 -1812 -1804 -3596 -7180 -14348 -196708 -131300 0
-232 -424 -904 -792 -796 -1564 -3100 -7180 -196708 -131300 0
-232 -424 -904 -1800 -1812 -3604 -7188 -6172 -14348 -28684 -57356 -196708 -131300 0
-232 -424 -904 -1800 -114708 -98332 -196636 -131164 -131180 -131300 0
-484 -424 -408 -288 -544 -1564 -3596 -196708 -131300 0
-484 -424 -904 -1800 -1560 -1564 -3100 -6172 -14348 -196708 -131300 0
-484 -424 -904 -1800 -3592 -3604 -7188 -6172 -12316 -28684 -57356 -196708 -131300 0
-484 -424 -904 -1800 -3592 -7188 -6172 -12316 -24604 -57356 -196708 -131300 0
-484 -424 -904 -1800 -3592 -28692 -57364 -114708 -98332 -229388 -196684 -131180 -131300 0
-484 -932 -904 -792 -544 -1056 -3100 -7180 -196708 -131300 0
-484 -932 -904 -792 -1560 -1056 -3100 -7180 -14348 -196708 -131300 0
-484 -932 -904 -792 -1560 -3096 -7188 -114700 -229388 -196684 -131180 -131300 0
-484 -932 -1800 -1560 -1056 -2080 -6172 -14348 -196708 -131300 0
-484 -932 -3592 -3096 -2080 -4128 -12316 -28684 -196708 -131300 0
-484 -932 -14344 -12312 -24600 -16416 -49180 -114700 -229388 -196708 -131300 0
-484 -932 -14344 -28680 -24600 -16416 -49180 -98332 -229388 -196708 -131300 0
-484 -932 -28680 -24600 -16416 -32800 -98332 -229388 -196708 -131300 0
-484 -932 -28680 -57352 -49176 -32800 -98332 -196636 -196684 -196708 -131300 0
-232 -184 -64 -288 -796 -1804 -131300 0
-232 -184 -312 -792 -796 -1804 -3596 -7180 -131300 0
-232 -184 -312 -792 -1812 -1804 -3596 -7180 -14348 -131300 0
-232 -184 -312 -792 -1812 -114700 -229388 -196684 -131276 -131300 0
-232 -424 -312 -288 -796 -1564 -3596 -131300 0
-232 -424 -312 -792 -1812 -1564 -3596 -7180 -14348 -131300 0
-232 -424 -312 -792 -1812 -3604 -114700 -229388 -196684 -131276 -131300 0
-232 -424 -808 -792 -1812 -1564 -3100 -7180 -14348 -131300 0
-484 -424 -312 -792 -1560 -3604 -3596 -7180 -14348 -28684 -131300 0
-484 -424 -312 -792 -1560 -3604 -14348 -28684 -57356 -114700 -131300 0
-484 -932 -808 -792 -544 -1056 -3100 -7180 -131300 0
-484 -932 -808 -1800 -1560 -1056 -3100 -6172 -14348 -131300 0
-484 -932 -808 -1800 -3592 -7176 -57364 -114708 -98332 -196636 -196684 -131276 -131300 0
-484 -932 -1828 -3592 -3096 -2080 -4128 -12316 -28684 -131300 0
-484 -932 -1828 -57352 -49176 -32800 -65568 -196636 -196684 -131300 0
-484 -424 -312 -64 -544 -1564 -3596 0
-484 -424 -312 -568 -544 -1564 -3596 -7180 0
-484 -424 -312 -568 -1560 -1564 -3596 -7180 -14348 0
-484 -424 -808 -568 -1560 -3604 -3100 -7180 -14348 -28684 0
-484 -932 -808 -568 -544 -1056 -3100 -7180 0
-484 -932 -808 -568 -1560 -3096 -3100 -7180 -14348 -28684 0
-484 -932 -1828 -1576 -1560 -1056 -2080 -6172 -14348 0
-484 -932 -1828 -3620 -7176 -6168 -4128 -8224 -24604 -57356 0
-484 -932 -1828 -3620 -14344 -12312 -24600 -16416 -49180 -114700 -229388 0
-932 -808 -568 -64 -1056 -3100 -7180 0
-932 -1828 -1576 -1080 -1056 -2080 -6172 -14348 0
-932 -1828 -3620 -3112 -3096 -2080 -4128 -12316 -28684 0
-932 -1828 -3620 -7204 -7176 -6168 -12312 -8224 -24604 -57356 -114700 0
-1828 -1576 -1080 -64 -2080 -6172 -14348 0
-1828 -1576 -1080 -2104 -6168 -14356 -57356 -114700 -229388 -196684 0
-1828 -3620 -3112 -2104 -6168 -12312 -28692 -114700 -229388 -196684 -131276 0
-3620 -3112 -2104 -64 -4128 -12316 -28684 0
-3620 -3112 -2104 -4152 -12312 -28692 -114700 -229388 -196684 -131276 0
-7204 -6184 -4152 -64 -8224 -24604 -57356 0
-7204 -6184 -4152 -8248 -24600 -57364 -114700 -229388 -196684 -131276 0
-7204 -14372 -12328 -8248 -8224 -16416 -49180 -114700 0
-7204 -14372 -28708 -24616 -24600 -16416 -32800 -98332 -229388 0
-14372 -12328 -8248 -64 -16416 -49180 -114700 0
-28708 -24616 -16440 -64 -32800 -98332 -229388 0
-28708 -57380 -114724 -98344 -98328 -65568 -131104 -131164 -131276 0
-57380 -49192 -32824 -64 -65568 -196636 -196684 0
-57380 -49192 -32824 -65592 -65568 -196636 -196684 -131276 0
-114724 -98344 -65592 -64 -131104 -131164 -131276 0
-64 -96 -216 -468 -229412 -196652 -131120 0
-112 -208 -216 -468 -916 -1812 -229412 -196652 -131120 0
-112 -208 -456 -468 -916 -1812 -3604 -229412 -196652 -131120 0
-112 -208 -456 -408 -916 -1812 -3604 -229412 -196652 -131180 0
-112 -208 -456 -904 -916 -1812 -3604 -7188 -229412 -196652 -131180 0
-236 -208 -456 -408 -792 -1812 -3604 -229412 -196652 -131180 0
-236 -460 -456 -904 -792 -1560 -3604 -7188 -229412 -196652 -131180 0
-236 -460 -456 -904 -1800 -3592 -114708 -229396 -196660 -131132 -131180 0
-236 -460 -114696 -98328 -196632 -131128 -131132 -131180 0
-112 -208 -400 -904 -916 -1812 -3604 -7188 -229412 -196708 -131180 0
-236 -460 -400 -408 -792 -1560 -3604 -229412 -196708 -131180 0
-236 -208 -160 -288 -792 -1812 -229412 -196708 -131300 0
-236 -460 -908 -784 -792 -1560 -3096 -7188 -229412 -196708 -131300 0
-236 -460 -908 -784 -1800 -3592 -3096 -7188 -14356 -28692 -229412 -196708 -131300 0
-236 -460 -908 -784 -1800 -3592 -7176 -57364 -114708 -229396 -196660 -196708 -131300 0
-236 -460 -908 -1804 -1800 -3592 -3096 -6168 -14356 -28692 -229412 -196708 -131300 0
-236 -460 -908 -1804 -3592 -7176 -6168 -12312 -28692 -57364 -229412 -196708 -131300 0
-484 -460 -400 -288 -544 -1560 -3604 -229412 -196708 -131300 0
-484 -460 -400 -784 -544 -1560 -3604 -7188 -229412 -196708 -131300 0
-484 -460 -908 -1804 -3596 -114696 -98328 -196632 -131128 -131188 -131300 0
-484 -908 -784 -544 -1056 -3096 -7188 -229412 -196708 -131300 0
-484 -908 -784 -1552 -1056 -3096 -7188 -14356 -229412 -196708 -131300 0
-484 -908 -1804 -1552 -3088 -7176 -14344 -114708 -229396 -196660 -131188 -131300 0
-484 -3596 -7180 -6160 -4128 -12312 -24600 -57364 -229412 -196708 -131300 0
-484 -3596 -7180 -6160 -12304 -28680 -57352 -57364 -114708 -229396 -196660 -196708 -131300 0
-484 -3596 -7180 -14348 -12304 -28680 -57352 -49176 -114708 -229396 -196660 -196708 -131300 0
-484 -3596 -7180 -14348 -28684 -114696 -98328 -196632 -131128 -131188 -131300 0
-484 -14348 -28684 -57356 -114700 -114696 -98328 -196632 -131128 -131188 -131300 0
-484 -57356 -49168 -32800 -65568 -196632 -196660 -196708 -131300 0
-112 -64 -160 -408 -916 -196708 -131180 0
-112 -176 -160 -408 -916 -1812 -196708 -131180 0
-112 -176 -400 -408 -916 -1812 -3604 -196708 -131180 0
-112 -176 -400 -904 -916 -1812 -3604 -7188 -196708 -131180 0
-236 -176 -160 -408 -792 -1812 -196708 -131180 0
-236 -176 -400 -904 -792 -1812 -3604 -7188 -196708 -131180 0
-236 -428 -400 -904 -792 -1560 -3604 -7188 -196708 -131180 0
-236 -176 -160 -288 -792 -1812 -196708 -131300 0
-236 -176 -400 -288 -792 -1812 -3604 -196708 -131300 0
-236 -176 -400 -784 -1800 -1812 -3604 -7188 -14356 -196708 -131300 0
-236 -176 -400 -784 -1800 -114708 -229396 -196692 -131188 -131300 0
-236 -428 -908 -784 -792 -1560 -3096 -7188 -196708 -131300 0
-236 -428 -908 -1804 -114696 -98328 -196632 -131160 -131188 -131300 0
-484 -428 -400 -288 -544 -1560 -3604 -196708 -131300 0
-484 -428 -908 -784 -544 -1560 -3096 -7188 -196708 -131300 0
-484 -428 -908 -1804 -1552 -1560 -3096 -6168 -14356 -196708 -131300 0
-484 -428 -908 -1804 -1552 -3592 -7176 -6168 -14356 -28692 -57364 -196708 -131300 0
-484 -428 -908 -1804 -1552 -3592 -7176 -14344 -114708 -229396 -196692 -131188 -131300 0
-484 -932 -908 -784 -1552 -1056 -3096 -7188 -14356 -196708 -131300 0
-484 -932 -908 -1804 -3596 -7180 -7176 -14344 -12312 -24600 -57364 -114708 -196708 -131300 0
-484 -932 -908 -1804 -3596 -7180 -7176 -14344 -28680 -24600 -57364 -114708 -229396 -196708 -131300 0
-484 -932 -1804 -1552 -1056 -2080 -6168 -14356 -196708 -131300 0
-484 -932 -7180 -14348 -12304 -8224 -24600 -49176 -114708 -196708 -131300 0
-484 -932 -14348 -12304 -8224 -16416 -49176 -114708 -196708 -131300 0
-484 -932 -57356 -49168 -98320 -65568 -196632 -196692 -131188 -131300 0
-484 -932 -114700 -98320 -65568 -131104 -131160 -131188 -131300 0
-236 -176 -64 -288 -792 -1812 -131300 0
-236 -176 -304 -288 -792 -1812 -3604 -131300 0
-236 -176 -304 -784 -792 -1812 -3604 -7188 -131300 0
-236 -176 -304 -784 -1800 -1812 -3604 -7188 -14356 -131300 0
-236 -176 -304 -784 -1800 -114708 -229396 -196692 -131284 -131300 0
-236 -428 -304 -288 -792 -1560 -3604 -131300 0
-236 -428 -304 -784 -1800 -1560 -3604 -7188 -14356 -131300 0
-236 -428 -304 -784 -1800 -3592 -114708 -229396 -196692 -131284 -131300 0
-236 -428 -812 -784 -1800 -1560 -3096 -7188 -14356 -131300 0
-484 -428 -304 -288 -544 -1560 -3604 -131300 0
-484 -428 -304 -784 -544 -1560 -3604 -7188 -131300 0
-484 -428 -304 -784 -1552 -1560 -3604 -7188 -14356 -131300 0
-484 -428 -304 -784 -1552 -3592 -3604 -7188 -14356 -28692 -131300 0
-484 -932 -812 -784 -544 -1056 -3096 -7188 -131300 0
-484 -932 -812 -1804 -1552 -1056 -3096 -6168 -14356 -131300 0
-484 -932 -1828 -1804 -1552 -1056 -2080 -6168 -14356 -131300 0
-484 -932 -1828 -1804 -1552 -3088 -2080 -6168 -14356 -28692 -131300 0
-484 -932 -1828 -3596 -3088 -2080 -4128 -12312 -28692 -131300 0
-484 -932 -1828 -57356 -49168 -32800 -65568 -196632 -196692 -131300 0
-484 -428 -304 -64 -544 -1560 -3604 0
-484 -428 -304 -560 -1552 -1560 -3604 -7188 -14356 0
-484 -428 -812 -1580 -3596 -57352 -114696 -98328 -196632 -196692 -131284 0
-484 -932 -812 -560 -1552 -1056 -3096 -7188 -14356 0
-484 -932 -1828 -3620 -3596 -3088 -2080 -4128 -12312 -28692 0
-484 -932 -1828 -3620 -3596 -3088 -6160 -4128 -12312 -28692 -57364 0
-484 -932 -1828 -3620 -7180 -6160 -4128 -8224 -24600 -57364 0
-484 -932 -1828 -3620 -14348 -12304 -8224 -16416 -49176 -114708 0
-484 -932 -1828 -3620 -57356 -49168 -32800 -65568 -196632 -196692 0
-484 -932 -1828 -3620 -57356 -49168 -98320 -65568 -196632 -196692 -131284 0
-932 -812 -560 -64 -1056 -3096 -7188 0
-932 -812 -560 -1072 -3088 -7176 -114708 -229396 -196692 -131284 0
-932 -812 -1580 -1072 -1056 -3096 -6168 -14356 0
-932 -1828 -1580 -1072 -1056 -2080 -6168 -14356 0
-932 -1828 -3620 -3116 -3088 -2080 -4128 -12312 -28692 0
-932 -1828 -3620 -7204 -114700 -98320 -65568 -131104 -131160 -131284 0
-1828 -1580 -1072 -64 -2080 -6168 -14356 0
-1828 -1580 -1072 -2096 -6160 -6168 -14356 -28692 -57364 0
-1828 -1580 -3116 -2096 -6160 -14344 -12312 -28692 -57364 -114708 0
-1828 -3620 -3116 -2096 -6160 -12304 -28680 -28692 -57364 -114708 -229396 0
-1828 -3620 -3116 -2096 -6160 -12304 -28680 -57364 -114708 -229396 -196692 0
-1828 -3620 -7204 -14372 -14348 -12304 -24592 -16416 -49176 -114708 -229396 0
-1828 -3620 -7204 -14372 -28684 -24592 -49168 -32800 -98328 -229396 -196692 0
-1828 -3620 -7204 -14372 -57356 -49168 -32800 -65568 -196632 -196692 0
-1828 -3620 -7204 -14372 -57356 -49168 -98320 -65568 -196632 -196692 -131284 0
-3620 -3116 -2096 -64 -4128 -12312 -28692 0
-3620 -3116 -2096 -4144 -12304 -12312 -28692 -57364 -114708 0
-7204 -6188 -4144 -64 -8224 -24600 -57364 0
-7204 -6188 -4144 -8240 -8224 -24600 -57364 -114708 0
-14372 -12332 -8240 -64 -16416 -49176 -114708 0
-14372 -12332 -8240 -16432 -49168 -49176 -114708 -229396 -196692 0
-28708 -24620 -16432 -64 -32800 -98328 -229396 0
-28708 -24620 -16432 -32816 -98320 -98328 -229396 -196692 -131284 0
-57380 -49196 -32816 -64 -65568 -196632 -196692 0
-114724 -98348 -65584 -64 -131104 -131160 -131284 0
-64 -96 -216 -456 -229412 -196652 -131132 0
-124 -96 -216 -456 -904 -229412 -196652 -131132 0
-124 -220 -216 -456 -904 -1800 -229412 -196652 -131132 0
-124 -220 -468 -456 -904 -1800 -3592 -229412 -196652 -131132 0
-124 -220 -468 -904 -1800 -3592 -7176 -229412 -196652 -131132 0
-124 -220 -468 -408 -904 -1800 -3592 -229412 -196652 -131180 0
-124 -220 -468 -916 -904 -1800 -3592 -7176 -229412 -196652 -131180 0
-236 -220 -468 -408 -792 -1800 -3592 -229412 -196652 -131180 0
-236 -460 -468 -916 -792 -1560 -3592 -7176 -229412 -196652 -131180 0
-236 -460 -468 -916 -1812 -3604 -114696 -229384 -196648 -131120 -131180 0
-124 -220 -160 -408 -904 -1800 -229412 -196708 -131180 0
-124 -220 -412 -916 -904 -1800 -3592 -7176 -229412 -196708 -131180 0
-124 -220 -412 -916 -57352 -114696 -229384 -196648 -196708 -131180 0
-236 -220 -160 -408 -792 -1800 -229412 -196708 -131180 0
-236 -460 -908 -916 -1812 -3604 -3096 -7176 -14344 -28680 -229412 -196708 -131180 0
-236 -220 -160 -288 -792 -1800 -229412 -196708 -131300 0
-236 -460 -412 -288 -792 -1560 -3592 -229412 -196708 -131300 0
-236 -460 -908 -796 -1812 -3604 -3096 -7176 -14344 -28680 -229412 -196708 -131300 0
-236 -460 -908 -796 -1812 -3604 -7188 -7176 -14344 -28680 -57352 -229412 -196708 -131300 0
-236 -460 -908 -796 -1812 -3604 -7188 -57352 -114696 -229384 -196648 -196708 -131300 0
-236 -460 -908 -1804 -1812 -3604 -7188 -6168 -14344 -28680 -57352 -229412 -196708 -131300 0
-236 -460 -908 -1804 -14356 -28692 -57364 -49176 -114696 -229384 -196648 -196708 -131300 0
-236 -460 -908 -1804 -114708 -98328 -196632 -131128 -131176 -131300 0
-484 -460 -412 -288 -544 -1560 -3592 -229412 -196708 -131300 0
-484 -460 -412 -796 -544 -1560 -3592 -7176 -229412 -196708 -131300 0
-484 -460 -908 -796 -1564 -3604 -7188 -57352 -114696 -229384 -196648 -196708 -131300 0
-484 -460 -908 -1804 -1564 -3604 -7188 -14356 -57352 -114696 -229384 -196648 -196708 -131300 0
-484 -908 -796 -544 -1056 -3096 -7176 -229412 -196708 -131300 0
-484 -908 -1804 -3596 -7180 -114708 -98328 -196632 -131128 -131176 -131300 0
-484 -3596 -7180 -14348 -12316 -28692 -57364 -49176 -114696 -229384 -196648 -196708 -131300 0
-484 -3596 -7180 -14348 -28684 -114708 -98328 -196632 -131128 -131176 -131300 0
-484 -14348 -28684 -24604 -49180 -114708 -98328 -229384 -196648 -131176 -131300 0
-484 -28684 -24604 -49180 -32800 -98328 -229384 -196648 -196708 -131300 0
-484 -57356 -49180 -32800 -65568 -196632 -196648 -196708 -131300 0
-124 -64 -160 -408 -904 -196708 -131180 0
-124 -188 -412 -408 -904 -1800 -3592 -196708 -131180 0
-124 -188 -412 -916 -904 -1800 -3592 -7176 -196708 -131180 0
-124 -188 -412 -916 -114696 -229384 -196680 -131176 -131180 0
-236 -188 -160 -408 -792 -1800 -196708 -131180 0
-236 -188 -412 -408 -792 -1800 -3592 -196708 -131180 0
-236 -188 -412 -916 -792 -1800 -3592 -7176 -196708 -131180 0
-236 -428 -412 -916 -792 -1560 -3592 -7176 -196708 -131180 0
-236 -428 -412 -916 -1812 -1560 -3592 -7176 -14344 -196708 -131180 0
-236 -188 -160 -288 -792 -1800 -196708 -131300 0
-236 -188 -412 -288 -792 -1800 -3592 -196708 -131300 0
-236 -188 -412 -796 -1812 -1800 -3592 -7176 -14344 -196708 -131300 0
-236 -188 -412 -796 -1812 -7176 -14344 -28680 -57352 -196708 -131300 0
-236 -428 -908 -796 -792 -1560 -3096 -7176 -196708 -131300 0
-484 -428 -412 -288 -544 -1560 -3592 -196708 -131300 0
-484 -428 -908 -796 -544 -1560 -3096 -7176 -196708 -131300 0
-484 -428 -908 -1804 -1564 -3604 -7188 -6168 -14344 -28680 -57352 -196708 -131300 0
-484 -428 -908 -1804 -1564 -3604 -7188 -14356 -114696 -229384 -196680 -131176 -131300 0
-484 -932 -908 -796 -544 -1056 -3096 -7176 -196708 -131300 0
-484 -932 -908 -796 -1564 -1056 -3096 -7176 -14344 -196708 -131300 0
-484 -932 -908 -1804 -1564 -1056 -3096 -6168 -14344 -196708 -131300 0
-484 -932 -908 -1804 -1564 -3100 -7188 -14356 -114696 -229384 -196680 -131176 -131300 0
-484 -932 -908 -1804 -3596 -3100 -7188 -14356 -12312 -28680 -57352 -114696 -196708 -131300 0
-484 -932 -1804 -1564 -1056 -2080 -6168 -14344 -196708 -131300 0
-484 -932 -1804 -1564 -3100 -2080 -6168 -14344 -28680 -196708 -131300 0
-484 -932 -3596 -3100 -2080 -4128 -12312 -28680 -196708 -131300 0
-484 -932 -3596 -3100 -6172 -4128 -12312 -28680 -57352 -196708 -131300 0
-484 -932 -3596 -7180 -6172 -12316 -28692 -57364 -114696 -229384 -196680 -131176 -131300 0
-484 -932 -3596 -7180 -14348 -28684 -114708 -98328 -196632 -131160 -131176 -131300 0
-484 -932 -7180 -14348 -12316 -8224 -24600 -49176 -114696 -196708 -131300 0
-484 -932 -28684 -24604 -16416 -32800 -98328 -229384 -196708 -131300 0
-236 -188 -64 -288 -792 -1800 -131300 0
-236 -188 -316 -288 -792 -1800 -3592 -131300 0
-236 -188 -316 -796 -792 -1800 -3592 -7176 -131300 0
-236 -188 -316 -796 -1812 -1800 -3592 -7176 -14344 -131300 0
-236 -428 -316 -288 -792 -1560 -3592 -131300 0
-236 -428 -316 -796 -1812 -1560 -3592 -7176 -14344 -131300 0
-236 -428 -316 -796 -1812 -3604 -114696 -229384 -196680 -131272 -131300 0
-484 -428 -316 -288 -544 -1560 -3592 -131300 0
-484 -428 -316 -796 -544 -1560 -3592 -7176 -131300 0
-484 -428 -316 -796 -1564 -3604 -3592 -7176 -14344 -28680 -131300 0
-484 -428 -812 -796 -544 -1560 -3096 -7176 -131300 0
-484 -932 -812 -796 -544 -1056 -3096 -7176 -131300 0
-484 -932 -812 -1804 -1564 -1056 -3096 -6168 -14344 -131300 0
-484 -932 -1828 -1804 -1564 -1056 -2080 -6168 -14344 -131300 0
-484 -932 -1828 -1804 -1564 -3100 -2080 -6168 -14344 -28680 -131300 0
-484 -932 -1828 -1804 -3596 -7180 -6172 -14356 -28692 -57364 -114696 -229384 -196680 -131272 -131300 0
-484 -932 -1828 -7180 -6172 -4128 -8224 -24600 -57352 -131300 0
-484 -932 -1828 -7180 -14348 -12316 -8224 -24600 -49176 -114696 -131300 0
-484 -932 -1828 -14348 -12316 -24604 -16416 -49176 -114696 -229384 -131300 0
-484 -932 -1828 -57356 -114700 -98332 -65568 -196632 -131160 -131272 -131300 0
-484 -428 -316 -64 -544 -1560 -3592 0
-484 -428 -316 -572 -1564 -1560 -3592 -7176 -14344 0
-484 -428 -812 -572 -544 -1560 -3096 -7176 0
-484 -428 -812 -572 -1564 -3604 -3096 -7176 -14344 -28680 0
-484 -932 -812 -572 -544 -1056 -3096 -7176 0
-484 -932 -812 -572 -1564 -3100 -7188 -7176 -14344 -28680 -57352 0
-484 -932 -812 -572 -1564 -3100 -7188 -28680 -57352 -114696 -229384 0
-484 -932 -812 -1580 -3596 -3100 -3096 -6168 -12312 -28680 0
-484 -932 -1828 -1580 -1564 -1056 -2080 -6168 -14344 0
-484 -932 -1828 -3620 -3596 -3100 -6172 -4128 -12312 -28680 -57352 0
-484 -932 -1828 -3620 -14348 -12316 -24604 -16416 -49176 -114696 -229384 0
-932 -812 -572 -64 -1056 -3096 -7176 0
-932 -812 -1580 -1084 -1056 -3096 -6168 -14344 0
-932 -1828 -1580 -1084 -3100 -6172 -14356 -57352 -114696 -229384 -196680 0
-932 -1828 -3620 -3116 -3100 -2080 -4128 -12312 -28680 0
-932 -1828 -3620 -3116 -7180 -14348 -12316 -28692 -57364 -49176 -114696 -229384 -196680 0
-1828 -1580 -1084 -64 -2080 -6168 -14344 0
-1828 -3620 -3116 -2108 -2080 -4128 -12312 -28680 0
-1828 -3620 -3116 -2108 -6172 -12316 -28692 -114696 -229384 -196680 -131272 0
-1828 -3620 -7204 -14372 -14348 -12316 -8224 -16416 -49176 -114696 0
-1828 -3620 -7204 -14372 -57356 -49180 -98332 -65568 -196632 -196680 -131272 0
-3620 -3116 -2108 -64 -4128 -12312 -28680 0
-7204 -6188 -4156 -64 -8224 -24600 -57352 0
-7204 -6188 -4156 -8252 -8224 -24600 -57352 -114696 0
-7204 -14372 -12332 -8252 -24604 -16416 -49176 -114696 -229384 0
-14372 -12332 -8252 -64 -16416 -49176 -114696 0
-14372 -12332 -8252 -16444 -16416 -49176 -114696 -229384 0
-28708 -24620 -16444 -64 -32800 -98328 -229384 0
-28708 -24620 -16444 -32828 -32800 -98328 -229384 -196680 0
-28708 -24620 -16444 -32828 -98332 -98328 -229384 -196680 -131272 0
-28708 -24620 -49196 -32828 -32800 -98328 -196632 -196680 0
-57380 -49196 -32828 -64 -65568 -196632 -196680 0
-114724 -98348 -65596 -64 -131104 -131160 -131272 0
-64 -96 -208 -460 -229412 -196660 -131128 0
-120 -216 -208 -460 -908 -1804 -229412 -196660 -131128 0
-120 -216 -456 -908 -1804 -3596 -7180 -229412 -196660 -131128 0
-120 -216 -456 -400 -908 -1804 -3596 -229412 -196660 -131188 0
-120 -216 -456 -904 -7180 -14348 -28684 -57356 -229412 -196660 -131188 0
-244 -216 -208 -400 -784 -1804 -229412 -196660 -131188 0
-244 -468 -28680 -57352 -49168 -98320 -229388 -196652 -196660 -131188 0
-244 -468 -114696 -98320 -196624 -131120 -131132 -131188 0
-120 -216 -160 -400 -908 -1804 -229412 -196708 -131188 0
-120 -216 -408 -904 -908 -1804 -3596 -7180 -229412 -196708 -131188 0
-244 -216 -160 -400 -784 -1804 -229412 -196708 -131188 0
-244 -468 -408 -400 -784 -1552 -3596 -229412 -196708 -131188 0
-244 -468 -408 -904 -784 -1552 -3596 -7180 -229412 -196708 -131188 0
-244 -468 -408 -904 -1800 -1552 -3596 -7180 -14348 -229412 -196708 -131188 0
-244 -468 -916 -904 -1800 -3592 -3088 -7180 -14348 -28684 -229412 -196708 -131188 0
-244 -216 -160 -288 -784 -1804 -229412 -196708 -131300 0
-244 -216 -408 -792 -1800 -114700 -229388 -196652 -131180 -131300 0
-244 -468 -408 -288 -784 -1552 -3596 -229412 -196708 -131300 0
-244 -468 -916 -1812 -3592 -7176 -14344 -12304 -28684 -57356 -114700 -229412 -196708 -131300 0
-244 -468 -916 -1812 -114696 -98320 -196624 -131120 -131180 -131300 0
-484 -468 -408 -288 -544 -1552 -3596 -229412 -196708 -131300 0
-484 -468 -408 -792 -544 -1552 -3596 -7180 -229412 -196708 -131300 0
-484 -468 -916 -792 -544 -1552 -3088 -7180 -229412 -196708 -131300 0
-484 -468 -916 -1812 -1560 -3592 -7176 -14344 -114700 -229388 -196652 -131180 -131300 0
-484 -916 -792 -544 -1056 -3088 -7180 -229412 -196708 -131300 0
-484 -916 -1812 -3604 -7188 -7176 -6160 -12304 -24592 -57356 -229412 -196708 -131300 0
-484 -3604 -7188 -6168 -4128 -12304 -24592 -57356 -229412 -196708 -131300 0
-484 -28692 -57364 -114708 -98328 -98320 -196624 -131120 -131180 -131300 0
-484 -114708 -98328 -65568 -131104 -131120 -131180 -131300 0
-120 -64 -160 -400 -908 -196708 -131188 0
-120 -184 -408 -400 -908 -1804 -3596 -196708 -131188 0
-120 -184 -408 -904 -908 -1804 -3596 -7180 -196708 -131188 0
-120 -184 -408 -904 -1804 -3596 -7180 -14348 -196708 -131188 0
-244 -184 -160 -400 -784 -1804 -196708 -131188 0
-244 -184 -408 -904 -784 -1804 -3596 -7180 -196708 -131188 0
-244 -184 -408 -904 -1800 -1804 -3596 -7180 -14348 -196708 -131188 0
-244 -436 -408 -904 -1800 -1552 -3596 -7180 -14348 -196708 -131188 0
-244 -436 -916 -904 -1800 -1552 -3088 -7180 -14348 -196708 -131188 0
-244 -184 -160 -288 -784 -1804 -196708 -131300 0
-244 -184 -408 -792 -784 -1804 -3596 -7180 -196708 -131300 0
-244 -184 -408 -792 -1800 -1804 -3596 -7180 -14348 -196708 -131300 0
-244 -436 -916 -792 -784 -1552 -3088 -7180 -196708 -131300 0
-244 -436 -916 -1812 -1800 -3592 -7176 -6160 -14348 -28684 -57356 -196708 -131300 0
-244 -436 -916 -1812 -3592 -7176 -6160 -12304 -28684 -57356 -196708 -131300 0
-484 -436 -408 -288 -544 -1552 -3596 -196708 -131300 0
-484 -436 -916 -792 -544 -1552 -3088 -7180 -196708 -131300 0
-484 -436 -916 -1812 -1560 -1552 -3088 -6160 -14348 -196708 -131300 0
-484 -436 -916 -1812 -1560 -3592 -7176 -14344 -114700 -229388 -196684 -131180 -131300 0
-484 -436 -916 -1812 -3604 -28680 -57352 -114696 -98320 -229388 -196684 -131180 -131300 0
-484 -932 -916 -792 -544 -1056 -3088 -7180 -196708 -131300 0
-484 -932 -916 -792 -1560 -1056 -3088 -7180 -14348 -196708 -131300 0
-484 -932 -1812 -1560 -1056 -2080 -6160 -14348 -196708 -131300 0
-484 -932 -1812 -1560 -3096 -2080 -6160 -14348 -28684 -196708 -131300 0
-484 -932 -3604 -7188 -14356 -12312 -28680 -57352 -49168 -114700 -229388 -196684 -196708 -131300 0
-484 -932 -7188 -14356 -12312 -8224 -24592 -49168 -114700 -196708 -131300 0
-484 -932 -14356 -12312 -24600 -16416 -49168 -114700 -229388 -196708 -131300 0
-484 -932 -28692 -57364 -49176 -32800 -98320 -196624 -196684 -196708 -131300 0
-244 -184 -64 -288 -784 -1804 -131300 0
-244 -184 -312 -792 -784 -1804 -3596 -7180 -131300 0
-244 -184 -312 -792 -1800 -114700 -229388 -196684 -131276 -131300 0
-244 -436 -312 -288 -784 -1552 -3596 -131300 0
-244 -436 -312 -792 -784 -1552 -3596 -7180 -131300 0
-244 -436 -312 -792 -1800 -1552 -3596 -7180 -14348 -131300 0
-244 -436 -820 -792 -1800 -1552 -3088 -7180 -14348 -131300 0
-484 -436 -312 -288 -544 -1552 -3596 -131300 0
-484 -436 -312 -792 -1560 -3592 -3596 -7180 -14348 -28684 -131300 0
-484 -436 -820 -1812 -3604 -3592 -7176 -14344 -12304 -28684 -57356 -114700 -131300 0
-484 -932 -820 -792 -544 -1056 -3088 -7180 -131300 0
-484 -932 -820 -1812 -3604 -3096 -7176 -14344 -28680 -114700 -229388 -196684 -131276 -131300 0
-484 -932 -820 -1812 -3604 -7188 -7176 -14344 -28680 -24592 -57356 -114700 -229388 -131300 0
-484 -932 -1828 -1812 -1560 -1056 -2080 -6160 -14348 -131300 0
-484 -932 -1828 -1812 -3604 -3096 -2080 -6160 -12304 -28684 -131300 0
-484 -932 -1828 -3604 -3096 -2080 -4128 -12304 -28684 -131300 0
-484 -932 -1828 -14356 -28692 -24600 -16416 -49168 -98320 -229388 -131300 0
-484 -932 -1828 -57364 -49176 -32800 -65568 -196624 -196684 -131300 0
-484 -932 -1828 -57364 -114708 -98328 -65568 -196624 -131152 -131276 -131300 0
-484 -436 -312 -64 -544 -1552 -3596 0
-484 -436 -820 -568 -1560 -1552 -3088 -7180 -14348 0
-484 -436 -820 -568 -1560 -3592 -3088 -7180 -14348 -28684 0
-484 -932 -820 -568 -544 -1056 -3088 -7180 0
-484 -932 -820 -568 -1560 -3096 -7176 -7180 -14348 -28684 -57356 0
-484 -932 -820 -1588 -3604 -3096 -3088 -6160 -12304 -28684 0
-484 -932 -1828 -1588 -1560 -1056 -2080 -6160 -14348 0
-484 -932 -1828 -3620 -3604 -3096 -6168 -4128 -12304 -28684 -57356 0
-484 -932 -1828 -3620 -28692 -24600 -49176 -32800 -98320 -229388 -196684 0
-484 -932 -1828 -3620 -57364 -49176 -98328 -65568 -196624 -196684 -131276 0
-932 -820 -568 -64 -1056 -3088 -7180 0
-932 -820 -568 -1080 -3096 -3088 -7180 -14348 -28684 0
-932 -1828 -1588 -3124 -7188 -14356 -57352 -114696 -98320 -196624 -196684 -131276 0
-932 -1828 -3620 -3124 -3096 -2080 -4128 -12304 -28684 0
-932 -1828 -3620 -3124 -7188 -14356 -12312 -28680 -57352 -49168 -114700 -229388 -196684 0
-932 -1828 -3620 -7204 -7188 -6168 -12312 -8224 -24592 -57356 -114700 0
-932 -1828 -3620 -7204 -114708 -98328 -65568 -131104 -131152 -131276 0
-1828 -1588 -1080 -64 -2080 -6160 -14348 0
-3620 -3124 -2104 -64 -4128 -12304 -28684 0
-7204 -6196 -4152 -64 -8224 -24592 -57356 0
-7204 -6196 -4152 -8248 -24600 -57352 -57356 -114700 -229388 -196684 0
-7204 -14372 -12340 -24628 -24600 -16416 -49168 -98320 -229388 0
-7204 -14372 -28708 -24628 -57364 -49176 -32800 -98320 -196624 -196684 0
-14372 -12340 -8248 -64 -16416 -49168 -114700 0
-14372 -12340 -8248 -16440 -49176 -49168 -114700 -229388 -196684 0
-14372 -12340 -24628 -16440 -16416 -49168 -98320 -229388 0
-14372 -28708 -57380 -49204 -49176 -32800 -65568 -196624 -196684 0
-28708 -24628 -16440 -64 -32800 -98320 -229388 0
-57380 -49204 -32824 -64 -65568 -196624 -196684 0
-57380 -49204 -32824 -65592 -65568 -196624 -196684 -131276 0
-57380 -49204 -98356 -65592 -65568 -196624 -131152 -131276 0
-114724 -98356 -65592 -64 -131104 -131152 -131276 0
-64 -96 -208 -456 -229412 -196660 -131132 0
-124 -96 -208 -456 -904 -229412 -196660 -131132 0
-124 -220 -208 -456 -904 -1800 -229412 -196660 -131132 0
-124 -220 -460 -456 -904 -1800 -3592 -229412 -196660 -131132 0
-124 -220 -460 -1800 -3592 -7176 -14344 -229412 -196660 -131132 0
-124 -220 -460 -7176 -14344 -28680 -57352 -229412 -196660 -131132 0
-124 -96 -208 -400 -904 -229412 -196660 -131188 0
-124 -220 -460 -400 -904 -1800 -3592 -229412 -196660 -131188 0
-124 -220 -460 -908 -28680 -57352 -114696 -229384 -229412 -196660 -131188 0
-124 -220 -460 -908 -114696 -229384 -196648 -131128 -131188 0
-244 -220 -460 -400 -784 -1800 -3592 -229412 -196660 -131188 0
-244 -220 -460 -908 -784 -1800 -3592 -7176 -229412 -196660 -131188 0
-244 -468 -460 -908 -1804 -3596 -114696 -229384 -196648 -131128 -131188 0
-244 -468 -28684 -57356 -114700 -98320 -229384 -196648 -131128 -131188 0
-244 -468 -57356 -114700 -98320 -196624 -196648 -131128 -131188 0
-124 -96 -160 -400 -904 -229412 -196708 -131188 0
-124 -220 -160 -400 -904 -1800 -229412 -196708 -131188 0
-124 -220 -412 -400 -904 -1800 -3592 -229412 -196708 -131188 0
-124 -220 -412 -908 -904 -1800 -3592 -7176 -229412 -196708 -131188 0
-124 -220 -412 -908 -57352 -114696 -229384 -196648 -196708 -131188 0
-124 -220 -412 -908 -114696 -229384 -196648 -131176 -131188 0
-244 -220 -160 -400 -784 -1800 -229412 -196708 -131188 0
-244 -468 -412 -908 -1804 -3596 -114696 -229384 -196648 -131176 -131188 0
-244 -468 -916 -908 -784 -1552 -3088 -7176 -229412 -196708 -131188 0
-244 -468 -916 -1804 -3596 -7180 -6160 -14344 -28680 -57352 -229412 -196708 -131188 0
-244 -468 -412 -288 -784 -1552 -3592 -229412 -196708 -131300 0
-244 -468 -916 -796 -784 -1552 -3088 -7176 -229412 -196708 -131300 0
-244 -468 -916 -796 -1804 -3596 -3088 -7176 -14344 -28680 -229412 -196708 -131300 0
-244 -468 -916 -1812 -14348 -28684 -57356 -49168 -114696 -229384 -196648 -196708 -131300 0
-484 -468 -412 -796 -544 -1552 -3592 -7176 -229412 -196708 -131300 0
-484 -468 -412 -796 -1564 -1552 -3592 -7176 -14344 -229412 -196708 -131300 0
-484 -468 -916 -796 -544 -1552 -3088 -7176 -229412 -196708 -131300 0
-484 -468 -916 -1812 -3604 -114700 -98320 -196624 -131120 -131176 -131300 0
-484 -7188 -6172 -4128 -8224 -24592 -57352 -229412 -196708 -131300 0
-484 -28692 -24604 -49180 -32800 -98320 -229384 -196648 -196708 -131300 0
-484 -28692 -57364 -49180 -32800 -98320 -196624 -196648 -196708 -131300 0
-484 -57364 -49180 -32800 -65568 -196624 -196648 -196708 -131300 0
-124 -64 -160 -400 -904 -196708 -131188 0
-124 -188 -160 -400 -904 -1800 -196708 -131188 0
-124 -188 -412 -400 -904 -1800 -3592 -196708 -131188 0
-124 -188 -412 -908 -904 -1800 -3592 -7176 -196708 -131188 0
-124 -188 -412 -908 -114696 -229384 -196680 -131176 -131188 0
-244 -188 -160 -400 -784 -1800 -196708 -131188 0
-244 -188 -412 -908 -784 -1800 -3592 -7176 -196708 -131188 0
-244 -436 -412 -908 -784 -1552 -3592 -7176 -196708 -131188 0
-244 -188 -160 -288 -784 -1800 -196708 -131300 0
-244 -188 -412 -796 -1804 -1800 -3592 -7176 -14344 -196708 -131300 0
-244 -188 -412 -796 -1804 -114696 -229384 -196680 -131176 -131300 0
-244 -436 -412 -288 -784 -1552 -3592 -196708 -131300 0
-244 -436 -916 -1812 -57356 -49168 -98320 -196624 -196680 -196708 -131300 0
-484 -436 -412 -288 -544 -1552 -3592 -196708 -131300 0
-484 -436 -916 -796 -544 -1552 -3088 -7176 -196708 -131300 0
-484 -436 -916 -1812 -1564 -3596 -7180 -6160 -14344 -28680 -57352 -196708 -131300 0
-484 -436 -916 -1812 -1564 -3596 -7180 -14348 -114696 -229384 -196680 -131176 -131300 0
-484 -932 -916 -796 -544 -1056 -3088 -7176 -196708 -131300 0
-484 -932 -916 -796 -1564 -1056 -3088 -7176 -14344 -196708 -131300 0
-484 -932 -916 -1812 -3604 -7188 -114700 -98320 -196624 -131152 -131176 -131300 0
-484 -932 -1812 -1564 -1056 -2080 -6160 -14344 -196708 -131300 0
-484 -932 -3604 -3100 -2080 -4128 -12304 -28680 -196708 -131300 0
-484 -932 -14356 -12316 -8224 -16416 -49168 -114696 -196708 -131300 0
-484 -932 -14356 -12316 -24604 -49180 -114700 -114696 -229384 -196680 -131176 -131300 0
-484 -932 -28692 -24604 -16416 -32800 -98320 -229384 -196708 -131300 0
-484 -932 -57364 -114708 -98332 -65568 -196624 -131152 -131176 -131300 0
-244 -188 -64 -288 -784 -1800 -131300 0
-244 -188 -316 -796 -784 -1800 -3592 -7176 -131300 0
-244 -188 -316 -796 -1804 -114696 -229384 -196680 -131272 -131300 0
-244 -436 -316 -288 -784 -1552 -3592 -131300 0
-244 -436 -316 -796 -1804 -3596 -114696 -229384 -196680 -131272 -131300 0
-244 -436 -820 -796 -1804 -1552 -3088 -7176 -14344 -131300 0
-484 -436 -316 -796 -1564 -3596 -3592 -7176 -14344 -28680 -131300 0
-484 -932 -820 -796 -544 -1056 -3088 -7176 -131300 0
-484 -932 -820 -1812 -3604 -3100 -7180 -14348 -12304 -28680 -57352 -114696 -131300 0
-484 -932 -1828 -1812 -1564 -3100 -2080 -6160 -14344 -28680 -131300 0
-484 -932 -1828 -1812 -3604 -3100 -2080 -6160 -12304 -28680 -131300 0
-484 -932 -1828 -3604 -3100 -2080 -4128 -12304 -28680 -131300 0
-484 -932 -1828 -28692 -24604 -16416 -32800 -98320 -229384 -131300 0
-484 -932 -1828 -57364 -49180 -32800 -65568 -196624 -196680 -131300 0
-484 -932 -1828 -57364 -114708 -98332 -65568 -196624 -131152 -131272 -131300 0
-484 -436 -316 -64 -544 -1552 -3592 0
-484 -436 -316 -572 -1564 -3596 -7176 -14344 -28680 -57352 0
-484 -436 -820 -572 -1564 -3596 -7180 -14344 -28680 -57352 -114696 0
-484 -932 -820 -572 -1564 -3100 -7180 -7176 -14344 -28680 -57352 0
-484 -932 -1828 -1588 -1564 -1056 -2080 -6160 -14344 0
-484 -932 -1828 -1588 -3604 -3100 -2080 -6160 -12304 -28680 0
-484 -932 -1828 -1588 -3604 -7188 -14356 -57356 -49168 -98320 -196624 -196680 0
-484 -932 -1828 -3620 -3604 -3100 -2080 -4128 -12304 -28680 0
-484 -932 -1828 -3620 -3604 -3100 -6172 -4128 -12304 -28680 -57352 0
-484 -932 -1828 -3620 -14356 -12316 -24604 -16416 -49168 -114696 -229384 0
-932 -820 -572 -64 -1056 -3088 -7176 0
-932 -820 -572 -1084 -3100 -3088 -7176 -14344 -28680 0
-932 -820 -572 -1084 -3100 -7180 -7176 -14344 -28680 -57352 0
-932 -820 -1588 -1084 -1056 -3088 -6160 -14344 0
-932 -1828 -1588 -1084 -1056 -2080 -6160 -14344 0
-1828 -1588 -1084 -64 -2080 -6160 -14344 0
-1828 -3620 -7204 -6196 -6172 -4128 -8224 -24592 -57352 0
-1828 -3620 -7204 -14372 -57364 -114708 -98332 -65568 -196624 -131152 -131272 0
-3620 -3124 -2108 -64 -4128 -12304 -28680 0
-3620 -3124 -2108 -4156 -12316 -28684 -114696 -229384 -196680 -131272 0
-3620 -7204 -14372 -12340 -12316 -8224 -16416 -49168 -114696 0
-3620 -7204 -14372 -28708 -57364 -49180 -32800 -65568 -196624 -196680 0
-3620 -7204 -14372 -28708 -114708 -98332 -65568 -131104 -131152 -131272 0
-7204 -6196 -4156 -64 -8224 -24592 -57352 0
-7204 -6196 -4156 -8252 -24604 -57356 -57352 -114696 -229384 -196680 0
-7204 -14372 -28708 -24628 -57364 -49180 -32800 -98320 -196624 -196680 0
-14372 -12340 -8252 -64 -16416 -49168 -114696 0
-14372 -12340 -8252 -16444 -49180 -49168 -114696 -229384 -196680 0
-14372 -12340 -24628 -16444 -16416 -49168 -98320 -229384 0
-14372 -12340 -24628 -16444 -49180 -49168 -98320 -229384 -196680 0
-14372 -28708 -24628 -16444 -16416 -32800 -98320 -229384 0
-28708 -24628 -16444 -64 -32800 -98320 -229384 0
-28708 -24628 -16444 -32828 -32800 -98320 -229384 -196680 0
-57380 -49204 -32828 -64 -65568 -196624 -196680 0
-57380 -49204 -98356 -65596 -65568 -196624 -131152 -131272 0
-114724 -98356 -65596 -64 -131104 -131152 -131272 0
