p cnf 1032256 11649
-6 0
-10 0
-18 0
-34 0
-514 0
-1026 0
-2050 0
-15 0
-23 0
-39 0
-263 0
-519 0
-1031 0
-2055 0
-27 0
-43 0
-139 0
-267 0
-523 0
-1035 0
-2059 0
-51 0
-147 0
-275 0
-531 0
-1043 0
-2067 0
-163 0
-291 0
-547 0
-1059 0
-2083 0
-387 0
-771 0
-1283 0
-2307 0
-1539 0
-3075 0
-32 0
-48 0
-144 0
-272 0
-528 0
-1040 0
-2064 0
-56 0
-280 0
-536 0
-1048 0
-2072 0
-168 0
-296 0
-552 0
-1064 0
-2088 0
-328 0
-392 0
-648 0
-1160 0
-776 0
-1288 0
-2312 0
-1544 0
-2568 0
-3080 0
-60 0
-92 0
-156 0
-284 0
-540 0
-1052 0
-2076 0
-172 0
-300 0
-556 0
-1068 0
-2092 0
-332 0
-396 0
-652 0
-780 0
-1292 0
-2316 0
-1548 0
-2572 0
-3084 0
-180 0
-308 0
-564 0
-1076 0
-2100 0
-404 0
-660 0
-788 0
-1300 0
-2324 0
-1556 0
-2580 0
-3092 0
-356 0
-420 0
-676 0
-1188 0
-804 0
-1316 0
-2340 0
-1572 0
-2596 0
-3108 0
-452 0
-900 0
-1412 0
-2436 0
-1796 0
-2820 0
-3332 0
-3588 0
-14 5 0
-1286 262 1030 6 -5 0
-2310 262 2054 6 -5 0
-1542 518 1030 6 -5 0
-2566 518 2054 6 -5 0
-3078 1030 2054 6 -5 0
-14 9 0
-1162 138 1034 10 -9 0
-1290 266 1034 10 -9 0
-2314 266 2058 10 -9 0
-1546 522 1034 10 -9 0
-2570 522 2058 10 -9 0
-3082 1034 2058 10 -9 0
-22 17 0
-1170 146 1042 18 -17 0
-786 274 530 18 -17 0
-1298 274 1042 18 -17 0
-2322 274 2066 18 -17 0
-1554 530 1042 18 -17 0
-2578 530 2066 18 -17 0
-3090 1042 2066 18 -17 0
-38 33 0
-1186 162 1058 34 -33 0
-1314 290 1058 34 -33 0
-2594 546 2082 34 -33 0
-3106 1058 2082 34 -33 0
-526 518 522 514 -513 0
-578 513 0
-1038 1030 1034 1026 -1025 0
-1046 1030 1042 1026 -1025 0
-1062 1030 1058 1026 -1025 0
-1066 1034 1058 1026 -1025 0
-1154 1025 0
-2062 2054 2058 2050 -2049 0
-2086 2054 2082 2050 -2049 0
-2074 2058 2066 2050 -2049 0
-2090 2058 2082 2050 -2049 0
-2098 2066 2082 2050 -2049 0
-2306 2049 0
-31 14 0
-14 270 0
-783 271 527 15 -14 0
-1295 271 1039 15 -14 0
-2319 271 2063 15 -14 0
-14 526 0
-1551 527 1039 15 -14 0
-2575 527 2063 15 -14 0
-14 1038 0
-3087 1039 2063 15 -14 0
-14 2062 0
-31 22 0
-663 151 535 23 -22 0
-22 278 0
-791 279 535 23 -22 0
-1303 279 1047 23 -22 0
-2327 279 2071 23 -22 0
-22 534 0
-1559 535 1047 23 -22 0
-2583 535 2071 23 -22 0
-22 1046 0
-3095 1047 2071 23 -22 0
-22 2070 0
-47 38 0
-423 167 295 39 -38 0
-38 294 0
-807 295 551 39 -38 0
-1319 295 1063 39 -38 0
-2343 295 2087 39 -38 0
-1575 551 1063 39 -38 0
-2599 551 2087 39 -38 0
-38 1062 0
-3111 1063 2087 39 -38 0
-38 2086 0
-271 262 0
-335 271 327 263 -262 0
-399 271 391 263 -262 0
-279 262 0
-327 262 0
-839 327 775 263 -262 0
-391 262 0
-903 391 775 263 -262 0
-1415 391 1287 263 -262 0
-2823 775 2311 263 -262 0
-1287 262 0
-3335 1287 2311 263 -262 0
-527 518 0
-543 527 535 519 -518 0
-559 527 551 519 -518 0
-783 527 775 519 -518 0
-1551 527 1543 519 -518 0
-535 518 0
-567 535 551 519 -518 0
-1559 535 1543 519 -518 0
-2583 535 2567 519 -518 0
-807 551 775 519 -518 0
-1575 551 1543 519 -518 0
-647 518 0
-1671 647 1543 519 -518 0
-1799 775 1543 519 -518 0
-2823 775 2567 519 -518 0
-1543 518 0
-2567 518 0
-1039 1030 0
-1055 1039 1047 1031 -1030 0
-1071 1039 1063 1031 -1030 0
-1551 1039 1543 1031 -1030 0
-3087 1039 3079 1031 -1030 0
-1047 1030 0
-1079 1047 1063 1031 -1030 0
-1303 1047 1287 1031 -1030 0
-1559 1047 1543 1031 -1030 0
-3095 1047 3079 1031 -1030 0
-1063 1030 0
-1319 1063 1287 1031 -1030 0
-1575 1063 1543 1031 -1030 0
-3111 1063 3079 1031 -1030 0
-1159 1030 0
-1671 1159 1543 1031 -1030 0
-1287 1030 0
-3335 1287 3079 1031 -1030 0
-1543 1030 0
-3591 1543 3079 1031 -1030 0
-3079 1030 0
-2063 2054 0
-2079 2063 2071 2055 -2054 0
-2095 2063 2087 2055 -2054 0
-2575 2063 2567 2055 -2054 0
-3087 2063 3079 2055 -2054 0
-2071 2054 0
-2103 2071 2087 2055 -2054 0
-2583 2071 2567 2055 -2054 0
-3095 2071 3079 2055 -2054 0
-2087 2054 0
-2599 2087 2567 2055 -2054 0
-3111 2087 3079 2055 -2054 0
-2311 2054 0
-2567 2054 0
-3591 2567 3079 2055 -2054 0
-3079 2054 0
-31 26 0
-603 91 539 27 -26 0
-795 283 539 27 -26 0
-1307 283 1051 27 -26 0
-2331 283 2075 27 -26 0
-26 538 0
-1563 539 1051 27 -26 0
-2587 539 2075 27 -26 0
-26 1050 0
-3099 1051 2075 27 -26 0
-26 2074 0
-47 42 0
-427 171 299 43 -42 0
-683 171 555 43 -42 0
-42 298 0
-811 299 555 43 -42 0
-1323 299 1067 43 -42 0
-2347 299 2091 43 -42 0
-42 554 0
-1579 555 1067 43 -42 0
-2603 555 2091 43 -42 0
-42 1066 0
-3115 1067 2091 43 -42 0
-42 2090 0
-171 138 0
-907 395 651 139 -138 0
-1419 395 1163 139 -138 0
-271 266 0
-287 271 283 267 -266 0
-283 266 0
-315 283 299 267 -266 0
-795 283 779 267 -266 0
-299 266 0
-427 299 395 267 -266 0
-811 299 779 267 -266 0
-843 331 779 267 -266 0
-395 266 0
-907 395 779 267 -266 0
-1419 395 1291 267 -266 0
-2443 395 2315 267 -266 0
-779 266 0
-1803 779 1291 267 -266 0
-2827 779 2315 267 -266 0
-3339 1291 2315 267 -266 0
-2315 266 0
-527 522 0
-559 527 555 523 -522 0
-1551 527 1547 523 -522 0
-539 522 0
-795 539 779 523 -522 0
-1563 539 1547 523 -522 0
-555 522 0
-811 555 779 523 -522 0
-1579 555 1547 523 -522 0
-651 522 0
-1675 651 1547 523 -522 0
-1803 779 1547 523 -522 0
-2827 779 2571 523 -522 0
-1547 522 0
-3595 1547 2571 523 -522 0
-2571 522 0
-1039 1034 0
-1055 1039 1051 1035 -1034 0
-1071 1039 1067 1035 -1034 0
-1295 1039 1291 1035 -1034 0
-1551 1039 1547 1035 -1034 0
-3087 1039 3083 1035 -1034 0
-1051 1034 0
-1083 1051 1067 1035 -1034 0
-1563 1051 1547 1035 -1034 0
-3099 1051 3083 1035 -1034 0
-1067 1034 0
-1323 1067 1291 1035 -1034 0
-1579 1067 1547 1035 -1034 0
-3115 1067 3083 1035 -1034 0
-1163 1034 0
-1291 1034 0
-1803 1291 1547 1035 -1034 0
-3339 1291 3083 1035 -1034 0
-1547 1034 0
-3595 1547 3083 1035 -1034 0
-3083 1034 0
-2063 2058 0
-2079 2063 2075 2059 -2058 0
-2095 2063 2091 2059 -2058 0
-3087 2063 3083 2059 -2058 0
-2075 2058 0
-2107 2075 2091 2059 -2058 0
-3099 2075 3083 2059 -2058 0
-2091 2058 0
-2603 2091 2571 2059 -2058 0
-3115 2091 3083 2059 -2058 0
-2315 2058 0
-3339 2315 3083 2059 -2058 0
-2571 2058 0
-3595 2571 3083 2059 -2058 0
-3083 2058 0
-55 50 0
-691 179 563 51 -50 0
-50 306 0
-819 307 563 51 -50 0
-1331 307 1075 51 -50 0
-2355 307 2099 51 -50 0
-50 562 0
-1587 563 1075 51 -50 0
-2611 563 2099 51 -50 0
-50 1074 0
-3123 1075 2099 51 -50 0
-50 2098 0
-1427 403 1171 147 -146 0
-283 274 0
-411 283 403 275 -274 0
-307 274 0
-1331 307 1299 275 -274 0
-915 403 787 275 -274 0
-1427 403 1299 275 -274 0
-1811 787 1299 275 -274 0
-2835 787 2323 275 -274 0
-3347 1299 2323 275 -274 0
-2323 274 0
-535 530 0
-543 535 539 531 -530 0
-791 535 787 531 -530 0
-539 530 0
-571 539 563 531 -530 0
-795 539 787 531 -530 0
-563 530 0
-691 563 659 531 -530 0
-819 563 787 531 -530 0
-1587 563 1555 531 -530 0
-659 530 0
-1683 659 1555 531 -530 0
-787 530 0
-1811 787 1555 531 -530 0
-2835 787 2579 531 -530 0
-1555 530 0
-3603 1555 2579 531 -530 0
-2579 530 0
-1047 1042 0
-1055 1047 1051 1043 -1042 0
-1079 1047 1075 1043 -1042 0
-1303 1047 1299 1043 -1042 0
-1559 1047 1555 1043 -1042 0
-3095 1047 3091 1043 -1042 0
-1051 1042 0
-1083 1051 1075 1043 -1042 0
-1563 1051 1555 1043 -1042 0
-3099 1051 3091 1043 -1042 0
-1075 1042 0
-3123 1075 3091 1043 -1042 0
-1171 1042 0
-1299 1042 0
-3347 1299 3091 1043 -1042 0
-1555 1042 0
-3603 1555 3091 1043 -1042 0
-3091 1042 0
-2071 2066 0
-2079 2071 2075 2067 -2066 0
-2103 2071 2099 2067 -2066 0
-2583 2071 2579 2067 -2066 0
-3095 2071 3091 2067 -2066 0
-2075 2066 0
-2107 2075 2099 2067 -2066 0
-2587 2075 2579 2067 -2066 0
-3099 2075 3091 2067 -2066 0
-2099 2066 0
-3123 2099 3091 2067 -2066 0
-2323 2066 0
-3347 2323 3091 2067 -2066 0
-2579 2066 0
-3603 2579 3091 2067 -2066 0
-3091 2066 0
-1443 419 1187 163 -162 0
-295 290 0
-299 290 0
-427 299 419 291 -290 0
-307 290 0
-819 307 803 291 -290 0
-867 355 803 291 -290 0
-1443 419 1315 291 -290 0
-551 546 0
-559 551 555 547 -546 0
-555 546 0
-571 555 563 547 -546 0
-811 555 803 547 -546 0
-1579 555 1571 547 -546 0
-563 546 0
-691 563 675 547 -546 0
-819 563 803 547 -546 0
-1587 563 1571 547 -546 0
-675 546 0
-1699 675 1571 547 -546 0
-803 546 0
-1827 803 1571 547 -546 0
-2851 803 2595 547 -546 0
-1571 546 0
-3619 1571 2595 547 -546 0
-2595 546 0
-1063 1058 0
-1071 1063 1067 1059 -1058 0
-1079 1063 1075 1059 -1058 0
-1319 1063 1315 1059 -1058 0
-1575 1063 1571 1059 -1058 0
-3111 1063 3107 1059 -1058 0
-1067 1058 0
-1083 1067 1075 1059 -1058 0
-1323 1067 1315 1059 -1058 0
-1579 1067 1571 1059 -1058 0
-3115 1067 3107 1059 -1058 0
-1075 1058 0
-1587 1075 1571 1059 -1058 0
-3123 1075 3107 1059 -1058 0
-1187 1058 0
-1699 1187 1571 1059 -1058 0
-1315 1058 0
-1827 1315 1571 1059 -1058 0
-3363 1315 3107 1059 -1058 0
-1571 1058 0
-3619 1571 3107 1059 -1058 0
-3107 1058 0
-2087 2082 0
-2095 2087 2091 2083 -2082 0
-2103 2087 2099 2083 -2082 0
-2599 2087 2595 2083 -2082 0
-3111 2087 3107 2083 -2082 0
-2091 2082 0
-2107 2091 2099 2083 -2082 0
-3115 2091 3107 2083 -2082 0
-2099 2082 0
-2611 2099 2595 2083 -2082 0
-3123 2099 3107 2083 -2082 0
-2339 2082 0
-3363 2339 3107 2083 -2082 0
-2595 2082 0
-3619 2595 3107 2083 -2082 0
-3107 2082 0
-707 578 0
-399 391 395 387 -386 0
-407 391 403 387 -386 0
-423 391 419 387 -386 0
-411 395 403 387 -386 0
-427 395 419 387 -386 0
-386 402 0
-435 403 419 387 -386 0
-2451 403 2435 387 -386 0
-451 386 0
-1154 1162 0
-1154 1170 0
-1154 1186 0
-1411 1154 0
-783 775 779 771 -770 0
-791 775 787 771 -770 0
-807 775 803 771 -770 0
-770 778 0
-795 779 787 771 -770 0
-811 779 803 771 -770 0
-770 786 0
-819 787 803 771 -770 0
-770 802 0
-835 770 0
-1282 1286 0
-1295 1287 1291 1283 -1282 0
-1282 1290 0
-1282 1298 0
-1282 1314 0
-1411 1282 0
-2306 2310 0
-2306 2314 0
-2306 2322 0
-2451 2323 2435 2307 -2306 0
-2819 2306 0
-1538 1542 0
-1551 1543 1547 1539 -1538 0
-1559 1543 1555 1539 -1538 0
-1575 1543 1571 1539 -1538 0
-1538 1546 0
-1563 1547 1555 1539 -1538 0
-1579 1547 1571 1539 -1538 0
-1538 1554 0
-1587 1555 1571 1539 -1538 0
-1667 1538 0
-2562 2566 0
-2562 2570 0
-2562 2578 0
-2562 2594 0
-2819 2562 0
-3074 3078 0
-3087 3079 3083 3075 -3074 0
-3095 3079 3091 3075 -3074 0
-3111 3079 3107 3075 -3074 0
-3074 3082 0
-3099 3083 3091 3075 -3074 0
-3115 3083 3107 3075 -3074 0
-3074 3090 0
-3123 3091 3107 3075 -3074 0
-3074 3106 0
-3331 3074 0
-64 31 0
-31 159 0
-416 160 288 32 -31 0
-672 160 544 32 -31 0
-1184 160 1056 32 -31 0
-31 287 0
-800 288 544 32 -31 0
-1312 288 1056 32 -31 0
-2336 288 2080 32 -31 0
-31 543 0
-1568 544 1056 32 -31 0
-2592 544 2080 32 -31 0
-31 1055 0
-3104 1056 2080 32 -31 0
-31 2079 0
-64 47 0
-47 175 0
-688 176 560 48 -47 0
-1200 176 1072 48 -47 0
-47 303 0
-816 304 560 48 -47 0
-1328 304 1072 48 -47 0
-2352 304 2096 48 -47 0
-47 559 0
-1584 560 1072 48 -47 0
-2608 560 2096 48 -47 0
-47 1071 0
-3120 1072 2096 48 -47 0
-47 2095 0
-160 143 0
-912 400 656 144 -143 0
-288 271 0
-320 288 304 272 -271 0
-800 288 784 272 -271 0
-1312 288 1296 272 -271 0
-304 271 0
-432 304 400 272 -271 0
-816 304 784 272 -271 0
-271 335 0
-336 271 0
-464 336 400 272 -271 0
-848 336 784 272 -271 0
-271 399 0
-400 271 0
-912 400 784 272 -271 0
-1423 399 1295 271 -270 0
-1424 400 1296 272 -271 0
-2448 400 2320 272 -271 0
-271 783 0
-784 271 0
-1807 783 1295 271 -270 0
-1808 784 1296 272 -271 0
-2832 784 2320 272 -271 0
-271 1295 0
-1296 271 0
-2320 271 0
-544 527 0
-576 544 560 528 -527 0
-672 544 656 528 -527 0
-800 544 784 528 -527 0
-1568 544 1552 528 -527 0
-2592 544 2576 528 -527 0
-560 527 0
-688 560 656 528 -527 0
-816 560 784 528 -527 0
-1584 560 1552 528 -527 0
-2608 560 2576 528 -527 0
-527 655 0
-656 527 0
-912 656 784 528 -527 0
-1680 656 1552 528 -527 0
-527 783 0
-784 527 0
-1808 784 1552 528 -527 0
-2832 784 2576 528 -527 0
-527 1551 0
-1552 527 0
-3599 1551 2575 527 -526 0
-3600 1552 2576 528 -527 0
-527 2575 0
-2576 527 0
-1056 1039 0
-1088 1056 1072 1040 -1039 0
-1312 1056 1296 1040 -1039 0
-1568 1056 1552 1040 -1039 0
-3104 1056 3088 1040 -1039 0
-1072 1039 0
-1328 1072 1296 1040 -1039 0
-1584 1072 1552 1040 -1039 0
-3120 1072 3088 1040 -1039 0
-1039 1295 0
-1296 1039 0
-1807 1295 1551 1039 -1038 0
-1808 1296 1552 1040 -1039 0
-3344 1296 3088 1040 -1039 0
-1039 1551 0
-1552 1039 0
-3600 1552 3088 1040 -1039 0
-1039 3087 0
-3088 1039 0
-2080 2063 0
-2112 2080 2096 2064 -2063 0
-2336 2080 2320 2064 -2063 0
-2592 2080 2576 2064 -2063 0
-3104 2080 3088 2064 -2063 0
-2096 2063 0
-2608 2096 2576 2064 -2063 0
-3120 2096 3088 2064 -2063 0
-2063 2319 0
-2320 2063 0
-2831 2319 2575 2063 -2062 0
-3344 2320 3088 2064 -2063 0
-2576 2063 0
-3600 2576 3088 2064 -2063 0
-2063 3087 0
-3088 2063 0
-64 55 0
-55 311 0
-824 312 568 56 -55 0
-1336 312 1080 56 -55 0
-2360 312 2104 56 -55 0
-55 567 0
-1592 568 1080 56 -55 0
-2616 568 2104 56 -55 0
-55 1079 0
-3128 1080 2104 56 -55 0
-55 2103 0
-288 279 0
-320 288 312 280 -279 0
-416 288 408 280 -279 0
-800 288 792 280 -279 0
-1312 288 1304 280 -279 0
-312 279 0
-440 312 408 280 -279 0
-824 312 792 280 -279 0
-1336 312 1304 280 -279 0
-344 279 0
-856 344 792 280 -279 0
-279 407 0
-408 279 0
-920 408 792 280 -279 0
-279 791 0
-792 279 0
-279 1303 0
-1304 279 0
-3351 1303 2327 279 -278 0
-544 535 0
-576 544 568 536 -535 0
-800 544 792 536 -535 0
-1568 544 1560 536 -535 0
-2592 544 2584 536 -535 0
-568 535 0
-696 568 664 536 -535 0
-824 568 792 536 -535 0
-1592 568 1560 536 -535 0
-2616 568 2584 536 -535 0
-920 664 792 536 -535 0
-535 791 0
-792 535 0
-1816 792 1560 536 -535 0
-2840 792 2584 536 -535 0
-535 1559 0
-1560 535 0
-3607 1559 2583 535 -534 0
-3608 1560 2584 536 -535 0
-535 2583 0
-2584 535 0
-1056 1047 0
-1088 1056 1080 1048 -1047 0
-1312 1056 1304 1048 -1047 0
-1568 1056 1560 1048 -1047 0
-3104 1056 3096 1048 -1047 0
-1080 1047 0
-1336 1080 1304 1048 -1047 0
-1592 1080 1560 1048 -1047 0
-3128 1080 3096 1048 -1047 0
-1047 1303 0
-1304 1047 0
-1816 1304 1560 1048 -1047 0
-3352 1304 3096 1048 -1047 0
-1047 1559 0
-1560 1047 0
-3608 1560 3096 1048 -1047 0
-1047 3095 0
-3096 1047 0
-2080 2071 0
-2112 2080 2104 2072 -2071 0
-2592 2080 2584 2072 -2071 0
-3104 2080 3096 2072 -2071 0
-2104 2071 0
-2616 2104 2584 2072 -2071 0
-3128 2104 3096 2072 -2071 0
-2071 2583 0
-2584 2071 0
-3607 2583 3095 2071 -2070 0
-3608 2584 3096 2072 -2071 0
-2071 3095 0
-3096 2071 0
-440 184 424 168 -167 0
-304 295 0
-320 304 312 296 -295 0
-816 304 808 296 -295 0
-1328 304 1320 296 -295 0
-312 295 0
-824 312 808 296 -295 0
-1336 312 1320 296 -295 0
-872 360 808 296 -295 0
-295 423 0
-424 295 0
-936 424 808 296 -295 0
-1448 424 1320 296 -295 0
-295 807 0
-1831 807 1319 295 -294 0
-1832 808 1320 296 -295 0
-2855 807 2343 295 -294 0
-2856 808 2344 296 -295 0
-295 1319 0
-1320 295 0
-3367 1319 2343 295 -294 0
-560 551 0
-576 560 568 552 -551 0
-816 560 808 552 -551 0
-1584 560 1576 552 -551 0
-568 551 0
-824 568 808 552 -551 0
-1592 568 1576 552 -551 0
-2616 568 2600 552 -551 0
-936 680 808 552 -551 0
-1704 680 1576 552 -551 0
-551 807 0
-808 551 0
-1832 808 1576 552 -551 0
-2856 808 2600 552 -551 0
-551 1575 0
-1576 551 0
-3624 1576 2600 552 -551 0
-551 2599 0
-2600 551 0
-1072 1063 0
-1088 1072 1080 1064 -1063 0
-1328 1072 1320 1064 -1063 0
-1584 1072 1576 1064 -1063 0
-3120 1072 3112 1064 -1063 0
-1080 1063 0
-1336 1080 1320 1064 -1063 0
-1592 1080 1576 1064 -1063 0
-3128 1080 3112 1064 -1063 0
-1063 1319 0
-1320 1063 0
-1832 1320 1576 1064 -1063 0
-3368 1320 3112 1064 -1063 0
-1063 1575 0
-1576 1063 0
-3623 1575 3111 1063 -1062 0
-3624 1576 3112 1064 -1063 0
-1063 3111 0
-3112 1063 0
-2096 2087 0
-2112 2096 2104 2088 -2087 0
-2352 2096 2344 2088 -2087 0
-2608 2096 2600 2088 -2087 0
-3120 2096 3112 2088 -2087 0
-2104 2087 0
-2616 2104 2600 2088 -2087 0
-3128 2104 3112 2088 -2087 0
-2087 2343 0
-2344 2087 0
-2855 2343 2599 2087 -2086 0
-2087 2599 0
-2600 2087 0
-3624 2600 3112 2088 -2087 0
-2087 3111 0
-3112 2087 0
-712 199 0
-336 327 0
-464 336 456 328 -327 0
-472 344 456 328 -327 0
-456 327 0
-968 456 840 328 -327 0
-400 391 0
-416 400 408 392 -391 0
-432 400 424 392 -391 0
-464 400 456 392 -391 0
-912 400 904 392 -391 0
-1424 400 1416 392 -391 0
-408 391 0
-440 408 424 392 -391 0
-472 408 456 392 -391 0
-920 408 904 392 -391 0
-424 391 0
-488 424 456 392 -391 0
-936 424 904 392 -391 0
-456 391 0
-968 456 904 392 -391 0
-1480 456 1416 392 -391 0
-904 391 0
-2952 904 2440 392 -391 0
-1416 391 0
-647 663 0
-920 664 904 648 -647 0
-968 712 904 648 -647 0
-904 647 0
-1928 904 1672 648 -647 0
-1672 647 0
-1416 1159 0
-1928 1416 1672 1160 -1159 0
-1672 1159 0
-775 783 0
-784 775 0
-800 784 792 776 -775 0
-816 784 808 776 -775 0
-912 784 904 776 -775 0
-1808 784 1800 776 -775 0
-775 791 0
-792 775 0
-824 792 808 776 -775 0
-920 792 904 776 -775 0
-1816 792 1800 776 -775 0
-775 807 0
-808 775 0
-936 808 904 776 -775 0
-1832 808 1800 776 -775 0
-840 775 0
-968 840 904 776 -775 0
-904 775 0
-1928 904 1800 776 -775 0
-2952 904 2824 776 -775 0
-1800 775 0
-3848 1800 2824 776 -775 0
-2824 775 0
-1287 1295 0
-1296 1287 0
-1328 1296 1320 1288 -1287 0
-3344 1296 3336 1288 -1287 0
-1287 1303 0
-1304 1287 0
-1336 1304 1320 1288 -1287 0
-1816 1304 1800 1288 -1287 0
-1287 1319 0
-1832 1320 1800 1288 -1287 0
-1416 1287 0
-1928 1416 1800 1288 -1287 0
-1800 1287 0
-3848 1800 3336 1288 -1287 0
-3336 1287 0
-2832 2320 2824 2312 -2311 0
-2360 2328 2344 2312 -2311 0
-2824 2311 0
-3336 2311 0
-1543 1551 0
-1552 1543 0
-1567 1551 1559 1543 -1542 0
-1568 1552 1560 1544 -1543 0
-1583 1551 1575 1543 -1542 0
-1584 1552 1576 1544 -1543 0
-1808 1552 1800 1544 -1543 0
-3600 1552 3592 1544 -1543 0
-1543 1559 0
-1560 1543 0
-1592 1560 1576 1544 -1543 0
-1816 1560 1800 1544 -1543 0
-3608 1560 3592 1544 -1543 0
-1543 1575 0
-1576 1543 0
-1832 1576 1800 1544 -1543 0
-3624 1576 3592 1544 -1543 0
-1672 1543 0
-1928 1672 1800 1544 -1543 0
-1800 1543 0
-3848 1800 3592 1544 -1543 0
-3592 1543 0
-2567 2575 0
-2576 2567 0
-2592 2576 2584 2568 -2567 0
-2832 2576 2824 2568 -2567 0
-2567 2583 0
-2584 2567 0
-2616 2584 2600 2568 -2567 0
-3608 2584 3592 2568 -2567 0
-2567 2599 0
-2600 2567 0
-2856 2600 2824 2568 -2567 0
-3624 2600 3592 2568 -2567 0
-3848 2824 3592 2568 -2567 0
-3592 2567 0
-3079 3087 0
-3088 3079 0
-3103 3087 3095 3079 -3078 0
-3104 3088 3096 3080 -3079 0
-3119 3087 3111 3079 -3078 0
-3120 3088 3112 3080 -3079 0
-3600 3088 3592 3080 -3079 0
-3079 3095 0
-3096 3079 0
-3128 3096 3112 3080 -3079 0
-3608 3096 3592 3080 -3079 0
-3079 3111 0
-3112 3079 0
-3624 3112 3592 3080 -3079 0
-3336 3079 0
-3848 3336 3592 3080 -3079 0
-3592 3079 0
-64 59 0
-59 187 0
-444 188 316 60 -59 0
-700 188 572 60 -59 0
-1212 188 1084 60 -59 0
-59 315 0
-828 316 572 60 -59 0
-1340 316 1084 60 -59 0
-2364 316 2108 60 -59 0
-59 571 0
-1596 572 1084 60 -59 0
-2620 572 2108 60 -59 0
-59 1083 0
-3132 1084 2108 60 -59 0
-59 2107 0
-860 348 604 92 -91 0
-188 155 0
-924 412 668 156 -155 0
-288 283 0
-320 288 316 284 -283 0
-416 288 412 284 -283 0
-800 288 796 284 -283 0
-1312 288 1308 284 -283 0
-316 283 0
-444 316 412 284 -283 0
-828 316 796 284 -283 0
-1340 316 1308 284 -283 0
-283 347 0
-860 348 796 284 -283 0
-283 411 0
-412 283 0
-924 412 796 284 -283 0
-796 283 0
-1820 796 1308 284 -283 0
-1308 283 0
-544 539 0
-576 544 572 540 -539 0
-672 544 668 540 -539 0
-800 544 796 540 -539 0
-1568 544 1564 540 -539 0
-2592 544 2588 540 -539 0
-572 539 0
-700 572 668 540 -539 0
-828 572 796 540 -539 0
-1596 572 1564 540 -539 0
-2620 572 2588 540 -539 0
-604 539 0
-539 667 0
-668 539 0
-539 795 0
-796 539 0
-1820 796 1564 540 -539 0
-2844 796 2588 540 -539 0
-539 1563 0
-1564 539 0
-3611 1563 2587 539 -538 0
-3612 1564 2588 540 -539 0
-539 2587 0
-2588 539 0
-1056 1051 0
-1088 1056 1084 1052 -1051 0
-1568 1056 1564 1052 -1051 0
-3104 1056 3100 1052 -1051 0
-1084 1051 0
-1340 1084 1308 1052 -1051 0
-1596 1084 1564 1052 -1051 0
-3132 1084 3100 1052 -1051 0
-1051 1307 0
-1308 1051 0
-1820 1308 1564 1052 -1051 0
-3356 1308 3100 1052 -1051 0
-1051 1563 0
-1564 1051 0
-3612 1564 3100 1052 -1051 0
-1051 3099 0
-3100 1051 0
-2080 2075 0
-2112 2080 2108 2076 -2075 0
-3104 2080 3100 2076 -2075 0
-2108 2075 0
-3132 2108 3100 2076 -2075 0
-2332 2075 0
-2844 2332 2588 2076 -2075 0
-3356 2332 3100 2076 -2075 0
-2075 2587 0
-2588 2075 0
-3611 2587 3099 2075 -2074 0
-3612 2588 3100 2076 -2075 0
-2075 3099 0
-3100 2075 0
-171 427 0
-940 428 684 172 -171 0
-684 171 0
-304 299 0
-320 304 316 300 -299 0
-432 304 428 300 -299 0
-816 304 812 300 -299 0
-1328 304 1324 300 -299 0
-316 299 0
-444 316 428 300 -299 0
-828 316 812 300 -299 0
-1340 316 1324 300 -299 0
-299 427 0
-428 299 0
-940 428 812 300 -299 0
-1452 428 1324 300 -299 0
-299 811 0
-812 299 0
-1836 812 1324 300 -299 0
-2859 811 2347 299 -298 0
-2860 812 2348 300 -299 0
-299 1323 0
-1324 299 0
-3372 1324 2348 300 -299 0
-2348 299 0
-560 555 0
-576 560 572 556 -555 0
-688 560 684 556 -555 0
-816 560 812 556 -555 0
-1584 560 1580 556 -555 0
-2608 560 2604 556 -555 0
-572 555 0
-700 572 684 556 -555 0
-828 572 812 556 -555 0
-1596 572 1580 556 -555 0
-2620 572 2604 556 -555 0
-684 555 0
-940 684 812 556 -555 0
-1708 684 1580 556 -555 0
-555 811 0
-812 555 0
-1835 811 1579 555 -554 0
-1836 812 1580 556 -555 0
-2860 812 2604 556 -555 0
-555 1579 0
-1580 555 0
-3628 1580 2604 556 -555 0
-555 2603 0
-2604 555 0
-1072 1067 0
-1088 1072 1084 1068 -1067 0
-1328 1072 1324 1068 -1067 0
-1584 1072 1580 1068 -1067 0
-3120 1072 3116 1068 -1067 0
-1084 1067 0
-1340 1084 1324 1068 -1067 0
-1596 1084 1580 1068 -1067 0
-3132 1084 3116 1068 -1067 0
-1196 1067 0
-1067 1323 0
-1324 1067 0
-1836 1324 1580 1068 -1067 0
-3372 1324 3116 1068 -1067 0
-1067 1579 0
-1580 1067 0
-3628 1580 3116 1068 -1067 0
-1067 3115 0
-3116 1067 0
-2096 2091 0
-2112 2096 2108 2092 -2091 0
-2608 2096 2604 2092 -2091 0
-3120 2096 3116 2092 -2091 0
-2108 2091 0
-2620 2108 2604 2092 -2091 0
-3132 2108 3116 2092 -2091 0
-2348 2091 0
-3371 2347 3115 2091 -2090 0
-3372 2348 3116 2092 -2091 0
-2091 2603 0
-2604 2091 0
-3627 2603 3115 2091 -2090 0
-3628 2604 3116 2092 -2091 0
-2091 3115 0
-3116 2091 0
-331 335 0
-336 331 0
-331 347 0
-460 331 0
-972 460 844 332 -331 0
-395 399 0
-400 395 0
-416 400 412 396 -395 0
-432 400 428 396 -395 0
-464 400 460 396 -395 0
-912 400 908 396 -395 0
-395 411 0
-412 395 0
-444 412 428 396 -395 0
-476 412 460 396 -395 0
-924 412 908 396 -395 0
-395 427 0
-428 395 0
-492 428 460 396 -395 0
-940 428 908 396 -395 0
-460 395 0
-972 460 908 396 -395 0
-1484 460 1420 396 -395 0
-908 395 0
-1932 908 1420 396 -395 0
-1420 395 0
-2444 395 0
-656 651 0
-912 656 908 652 -651 0
-908 651 0
-1932 908 1676 652 -651 0
-1676 651 0
-1676 1163 0
-779 783 0
-784 779 0
-800 784 796 780 -779 0
-815 783 811 779 -778 0
-816 784 812 780 -779 0
-912 784 908 780 -779 0
-1808 784 1804 780 -779 0
-779 795 0
-796 779 0
-828 796 812 780 -779 0
-924 796 908 780 -779 0
-1820 796 1804 780 -779 0
-779 811 0
-812 779 0
-940 812 908 780 -779 0
-1836 812 1804 780 -779 0
-2860 812 2828 780 -779 0
-844 779 0
-908 779 0
-1932 908 1804 780 -779 0
-2956 908 2828 780 -779 0
-1804 779 0
-3852 1804 2828 780 -779 0
-2828 779 0
-1291 1295 0
-1328 1296 1324 1292 -1291 0
-1808 1296 1804 1292 -1291 0
-3344 1296 3340 1292 -1291 0
-1291 1307 0
-1820 1308 1804 1292 -1291 0
-3356 1308 3340 1292 -1291 0
-1291 1323 0
-1324 1291 0
-1836 1324 1804 1292 -1291 0
-1420 1291 0
-1932 1420 1804 1292 -1291 0
-1804 1291 0
-3852 1804 3340 1292 -1291 0
-3340 1291 0
-2448 2320 2444 2316 -2315 0
-3344 2320 3340 2316 -2315 0
-2315 2331 0
-2332 2315 0
-2828 2315 0
-3852 2828 3340 2316 -2315 0
-3340 2315 0
-1547 1551 0
-1552 1547 0
-1567 1551 1563 1547 -1546 0
-1568 1552 1564 1548 -1547 0
-1583 1551 1579 1547 -1546 0
-1584 1552 1580 1548 -1547 0
-1808 1552 1804 1548 -1547 0
-3600 1552 3596 1548 -1547 0
-1547 1563 0
-1564 1547 0
-1595 1563 1579 1547 -1546 0
-1596 1564 1580 1548 -1547 0
-1820 1564 1804 1548 -1547 0
-3612 1564 3596 1548 -1547 0
-1547 1579 0
-1580 1547 0
-1836 1580 1804 1548 -1547 0
-3628 1580 3596 1548 -1547 0
-1676 1547 0
-1932 1676 1804 1548 -1547 0
-1804 1547 0
-3852 1804 3596 1548 -1547 0
-3596 1547 0
-2576 2571 0
-2608 2576 2604 2572 -2571 0
-3600 2576 3596 2572 -2571 0
-2571 2587 0
-2588 2571 0
-2620 2588 2604 2572 -2571 0
-3612 2588 3596 2572 -2571 0
-2571 2603 0
-2604 2571 0
-3628 2604 3596 2572 -2571 0
-3852 2828 3596 2572 -2571 0
-3596 2571 0
-3083 3087 0
-3088 3083 0
-3104 3088 3100 3084 -3083 0
-3119 3087 3115 3083 -3082 0
-3120 3088 3116 3084 -3083 0
-3600 3088 3596 3084 -3083 0
-3083 3099 0
-3100 3083 0
-3132 3100 3116 3084 -3083 0
-3356 3100 3340 3084 -3083 0
-3612 3100 3596 3084 -3083 0
-3083 3115 0
-3116 3083 0
-3628 3116 3596 3084 -3083 0
-3340 3083 0
-3852 3340 3596 3084 -3083 0
-3596 3083 0
-436 179 0
-948 436 692 180 -179 0
-179 691 0
-1204 179 0
-312 307 0
-320 312 316 308 -307 0
-440 312 436 308 -307 0
-824 312 820 308 -307 0
-1336 312 1332 308 -307 0
-316 307 0
-444 316 436 308 -307 0
-828 316 820 308 -307 0
-1340 316 1332 308 -307 0
-884 372 820 308 -307 0
-307 435 0
-948 436 820 308 -307 0
-1460 436 1332 308 -307 0
-307 819 0
-820 307 0
-1844 820 1332 308 -307 0
-2867 819 2355 307 -306 0
-2868 820 2356 308 -307 0
-307 1331 0
-1332 307 0
-568 563 0
-576 568 572 564 -563 0
-824 568 820 564 -563 0
-1592 568 1588 564 -563 0
-2616 568 2612 564 -563 0
-572 563 0
-828 572 820 564 -563 0
-1596 572 1588 564 -563 0
-2620 572 2612 564 -563 0
-692 563 0
-1716 692 1588 564 -563 0
-563 819 0
-820 563 0
-1843 819 1587 563 -562 0
-1844 820 1588 564 -563 0
-2868 820 2612 564 -563 0
-563 1587 0
-1588 563 0
-3635 1587 2611 563 -562 0
-3636 1588 2612 564 -563 0
-563 2611 0
-2612 563 0
-1080 1075 0
-1088 1080 1084 1076 -1075 0
-1336 1080 1332 1076 -1075 0
-1592 1080 1588 1076 -1075 0
-3128 1080 3124 1076 -1075 0
-1084 1075 0
-1340 1084 1332 1076 -1075 0
-1596 1084 1588 1076 -1075 0
-3132 1084 3124 1076 -1075 0
-1460 1204 1332 1076 -1075 0
-1716 1204 1588 1076 -1075 0
-1075 1331 0
-1332 1075 0
-1844 1332 1588 1076 -1075 0
-3380 1332 3124 1076 -1075 0
-1075 1587 0
-1588 1075 0
-3636 1588 3124 1076 -1075 0
-1075 3123 0
-3124 1075 0
-2104 2099 0
-2112 2104 2108 2100 -2099 0
-2616 2104 2612 2100 -2099 0
-3128 2104 3124 2100 -2099 0
-2108 2099 0
-2620 2108 2612 2100 -2099 0
-3132 2108 3124 2100 -2099 0
-2356 2099 0
-3379 2355 3123 2099 -2098 0
-2099 2611 0
-2612 2099 0
-3636 2612 3124 2100 -2099 0
-2099 3123 0
-3124 2099 0
-403 407 0
-408 403 0
-415 407 411 403 -402 0
-416 408 412 404 -403 0
-440 408 436 404 -403 0
-472 408 468 404 -403 0
-920 408 916 404 -403 0
-403 411 0
-412 403 0
-444 412 436 404 -403 0
-476 412 468 404 -403 0
-924 412 916 404 -403 0
-436 403 0
-500 436 468 404 -403 0
-948 436 916 404 -403 0
-468 403 0
-980 468 916 404 -403 0
-916 403 0
-1940 916 1428 404 -403 0
-659 663 0
-924 668 916 660 -659 0
-948 692 916 660 -659 0
-916 659 0
-1940 916 1684 660 -659 0
-1684 659 0
-1428 1171 0
-1684 1171 0
-792 787 0
-800 792 796 788 -787 0
-823 791 819 787 -786 0
-824 792 820 788 -787 0
-920 792 916 788 -787 0
-1816 792 1812 788 -787 0
-787 795 0
-796 787 0
-827 795 819 787 -786 0
-828 796 820 788 -787 0
-924 796 916 788 -787 0
-1820 796 1812 788 -787 0
-787 819 0
-820 787 0
-948 820 916 788 -787 0
-1844 820 1812 788 -787 0
-980 852 916 788 -787 0
-916 787 0
-1940 916 1812 788 -787 0
-2964 916 2836 788 -787 0
-1812 787 0
-3860 1812 2836 788 -787 0
-2836 787 0
-1299 1303 0
-1816 1304 1812 1300 -1299 0
-1299 1307 0
-1308 1299 0
-1340 1308 1332 1300 -1299 0
-1820 1308 1812 1300 -1299 0
-1299 1331 0
-1332 1299 0
-1812 1299 0
-3860 1812 3348 1300 -1299 0
-2360 2328 2356 2324 -2323 0
-2332 2323 0
-2395 2331 2387 2323 -2322 0
-2388 2323 0
-2452 2323 0
-2836 2323 0
-3860 2836 3348 2324 -2323 0
-3348 2323 0
-1555 1559 0
-1560 1555 0
-1568 1560 1564 1556 -1555 0
-1592 1560 1588 1556 -1555 0
-1816 1560 1812 1556 -1555 0
-3608 1560 3604 1556 -1555 0
-1555 1563 0
-1564 1555 0
-1596 1564 1588 1556 -1555 0
-1820 1564 1812 1556 -1555 0
-3612 1564 3604 1556 -1555 0
-1555 1587 0
-1588 1555 0
-1844 1588 1812 1556 -1555 0
-3636 1588 3604 1556 -1555 0
-1684 1555 0
-1940 1684 1812 1556 -1555 0
-1812 1555 0
-3860 1812 3604 1556 -1555 0
-3604 1555 0
-2579 2583 0
-2584 2579 0
-2616 2584 2612 2580 -2579 0
-3608 2584 3604 2580 -2579 0
-2579 2587 0
-2588 2579 0
-3612 2588 3604 2580 -2579 0
-2579 2611 0
-2612 2579 0
-2836 2579 0
-3860 2836 3604 2580 -2579 0
-3604 2579 0
-3091 3095 0
-3096 3091 0
-3103 3095 3099 3091 -3090 0
-3104 3096 3100 3092 -3091 0
-3127 3095 3123 3091 -3090 0
-3128 3096 3124 3092 -3091 0
-3352 3096 3348 3092 -3091 0
-3608 3096 3604 3092 -3091 0
-3091 3099 0
-3100 3091 0
-3132 3100 3124 3092 -3091 0
-3612 3100 3604 3092 -3091 0
-3091 3123 0
-3124 3091 0
-3636 3124 3604 3092 -3091 0
-3348 3091 0
-3860 3348 3604 3092 -3091 0
-3604 3091 0
-996 484 868 356 -355 0
-419 423 0
-424 419 0
-432 424 428 420 -419 0
-440 424 436 420 -419 0
-488 424 484 420 -419 0
-936 424 932 420 -419 0
-419 427 0
-428 419 0
-444 428 436 420 -419 0
-492 428 484 420 -419 0
-940 428 932 420 -419 0
-1452 428 1444 420 -419 0
-436 419 0
-500 436 484 420 -419 0
-484 419 0
-996 484 932 420 -419 0
-932 419 0
-1956 932 1444 420 -419 0
-1444 419 0
-675 691 0
-692 675 0
-948 692 932 676 -675 0
-932 675 0
-1956 932 1700 676 -675 0
-1708 1196 1700 1188 -1187 0
-1444 1187 0
-1956 1444 1700 1188 -1187 0
-808 803 0
-815 807 811 803 -802 0
-816 808 812 804 -803 0
-824 808 820 804 -803 0
-936 808 932 804 -803 0
-1832 808 1828 804 -803 0
-2856 808 2852 804 -803 0
-803 811 0
-812 803 0
-828 812 820 804 -803 0
-940 812 932 804 -803 0
-1836 812 1828 804 -803 0
-2860 812 2852 804 -803 0
-803 819 0
-820 803 0
-948 820 932 804 -803 0
-1844 820 1828 804 -803 0
-2868 820 2852 804 -803 0
-868 803 0
-932 803 0
-1956 932 1828 804 -803 0
-2980 932 2852 804 -803 0
-1828 803 0
-3876 1828 2852 804 -803 0
-2852 803 0
-1315 1319 0
-1320 1315 0
-1832 1320 1828 1316 -1315 0
-1315 1323 0
-1324 1315 0
-1340 1324 1332 1316 -1315 0
-1836 1324 1828 1316 -1315 0
-1315 1331 0
-1332 1315 0
-1844 1332 1828 1316 -1315 0
-1956 1444 1828 1316 -1315 0
-1828 1315 0
-3876 1828 3364 1316 -1315 0
-3364 1315 0
-2339 2343 0
-2344 2339 0
-2339 2355 0
-3380 2356 3364 2340 -2339 0
-2852 2339 0
-3876 2852 3364 2340 -2339 0
-3364 2339 0
-1571 1575 0
-1576 1571 0
-1584 1576 1580 1572 -1571 0
-1592 1576 1588 1572 -1571 0
-1832 1576 1828 1572 -1571 0
-3624 1576 3620 1572 -1571 0
-1571 1579 0
-1580 1571 0
-1596 1580 1588 1572 -1571 0
-1836 1580 1828 1572 -1571 0
-3628 1580 3620 1572 -1571 0
-1571 1587 0
-1588 1571 0
-1844 1588 1828 1572 -1571 0
-3636 1588 3620 1572 -1571 0
-1700 1571 0
-1956 1700 1828 1572 -1571 0
-1828 1571 0
-3876 1828 3620 1572 -1571 0
-3620 1571 0
-2595 2599 0
-2600 2595 0
-2616 2600 2612 2596 -2595 0
-3624 2600 3620 2596 -2595 0
-2595 2603 0
-2604 2595 0
-2620 2604 2612 2596 -2595 0
-3628 2604 3620 2596 -2595 0
-2595 2611 0
-2612 2595 0
-2852 2595 0
-3876 2852 3620 2596 -2595 0
-3620 2595 0
-3107 3111 0
-3112 3107 0
-3119 3111 3115 3107 -3106 0
-3120 3112 3116 3108 -3107 0
-3127 3111 3123 3107 -3106 0
-3128 3112 3124 3108 -3107 0
-3624 3112 3620 3108 -3107 0
-3107 3115 0
-3116 3107 0
-3131 3115 3123 3107 -3106 0
-3132 3116 3124 3108 -3107 0
-3628 3116 3620 3108 -3107 0
-3107 3123 0
-3124 3107 0
-3636 3124 3620 3108 -3107 0
-3364 3107 0
-3876 3364 3620 3108 -3107 0
-3620 3107 0
-451 455 0
-464 456 460 452 -451 0
-472 456 468 452 -451 0
-488 456 484 452 -451 0
-451 459 0
-476 460 468 452 -451 0
-492 460 484 452 -451 0
-451 467 0
-500 468 484 452 -451 0
-1492 468 1476 452 -451 0
-451 483 0
-964 451 0
-964 707 0
-835 839 0
-835 843 0
-835 867 0
-964 835 0
-899 903 0
-912 904 908 900 -899 0
-920 904 916 900 -899 0
-936 904 932 900 -899 0
-2952 904 2948 900 -899 0
-899 907 0
-924 908 916 900 -899 0
-940 908 932 900 -899 0
-899 915 0
-948 916 932 900 -899 0
-2964 916 2948 900 -899 0
-899 931 0
-964 899 0
-1411 1415 0
-1432 1416 1428 1412 -1411 0
-1480 1416 1476 1412 -1411 0
-1411 1419 0
-1411 1427 0
-1492 1428 1476 1412 -1411 0
-1411 1443 0
-1924 1411 0
-2456 2440 2452 2436 -2435 0
-2435 2443 0
-1667 1671 0
-1667 1675 0
-1667 1683 0
-1667 1699 0
-1924 1667 0
-1795 1799 0
-1808 1800 1804 1796 -1795 0
-1816 1800 1812 1796 -1795 0
-1832 1800 1828 1796 -1795 0
-1795 1803 0
-1820 1804 1812 1796 -1795 0
-1836 1804 1828 1796 -1795 0
-1795 1811 0
-1844 1812 1828 1796 -1795 0
-1795 1827 0
-1924 1795 0
-2819 2823 0
-2856 2824 2852 2820 -2819 0
-2819 2827 0
-2819 2835 0
-2819 2851 0
-2980 2852 2948 2820 -2819 0
-3844 2819 0
-3331 3335 0
-3368 3336 3364 3332 -3331 0
-3331 3339 0
-3331 3347 0
-3331 3363 0
-3844 3331 0
-3587 3591 0
-3600 3592 3596 3588 -3587 0
-3608 3592 3604 3588 -3587 0
-3624 3592 3620 3588 -3587 0
-3587 3595 0
-3612 3596 3604 3588 -3587 0
-3628 3596 3620 3588 -3587 0
-3587 3603 0
-3636 3604 3620 3588 -3587 0
-3587 3619 0
-3844 3587 0
-64 192 0
-64 320 0
-64 576 0
-64 1088 0
-64 2112 0
-159 415 0
-160 416 0
-928 416 672 160 -159 0
-160 672 0
-1696 672 1184 160 -159 0
-288 352 0
-288 416 0
-928 416 800 288 -287 0
-287 799 0
-288 800 0
-1824 800 1312 288 -287 0
-288 2336 0
-544 672 0
-544 800 0
-1824 800 1568 544 -543 0
-2848 800 2592 544 -543 0
-543 1567 0
-544 1568 0
-3616 1568 2592 544 -543 0
-544 2592 0
-1056 1312 0
-1824 1312 1568 1056 -1055 0
-1056 1568 0
-3616 1568 3104 1056 -1055 0
-1055 3103 0
-1056 3104 0
-2080 2592 0
-3616 2592 3104 2080 -2079 0
-2080 3104 0
-175 431 0
-176 432 0
-1456 432 1200 176 -175 0
-304 368 0
-304 432 0
-303 815 0
-304 816 0
-303 1327 0
-304 1328 0
-304 2352 0
-560 688 0
-1712 688 1584 560 -559 0
-560 816 0
-1840 816 1584 560 -559 0
-2864 816 2608 560 -559 0
-559 1583 0
-560 1584 0
-3632 1584 2608 560 -559 0
-559 2607 0
-560 2608 0
-1072 1328 0
-1840 1328 1584 1072 -1071 0
-3376 1328 3120 1072 -1071 0
-1072 1584 0
-3632 1584 3120 1072 -1071 0
-1071 3119 0
-1072 3120 0
-2096 2608 0
-3632 2608 3120 2096 -2095 0
-2096 3120 0
-336 464 0
-976 464 848 336 -335 0
-400 416 0
-400 432 0
-464 399 0
-400 464 0
-976 464 912 400 -399 0
-400 912 0
-656 672 0
-656 912 0
-1936 912 1680 656 -655 0
-800 783 0
-784 800 0
-832 800 816 784 -783 0
-928 800 912 784 -783 0
-1824 800 1808 784 -783 0
-816 783 0
-784 816 0
-944 816 912 784 -783 0
-1840 816 1808 784 -783 0
-784 912 0
-1936 912 1808 784 -783 0
-1808 783 0
-784 1808 0
-1824 1312 1808 1296 -1295 0
-1296 1328 0
-1840 1328 1808 1296 -1295 0
-3376 1328 3344 1296 -1295 0
-1936 1424 1808 1296 -1295 0
-1296 1808 0
-3856 1808 3344 1296 -1295 0
-1296 3344 0
-2320 2336 0
-3360 2336 3344 2320 -2319 0
-2320 2352 0
-1568 1551 0
-1552 1568 0
-1600 1568 1584 1552 -1551 0
-1824 1568 1808 1552 -1551 0
-3616 1568 3600 1552 -1551 0
-1552 1584 0
-3632 1584 3600 1552 -1551 0
-1552 1808 0
-3856 1808 3600 1552 -1551 0
-1552 3600 0
-2576 2592 0
-2576 2608 0
-2576 2832 0
-3856 2832 3600 2576 -2575 0
-3600 2575 0
-2576 3600 0
-3104 3087 0
-3088 3104 0
-3136 3104 3120 3088 -3087 0
-3616 3104 3600 3088 -3087 0
-3088 3120 0
-3632 3120 3600 3088 -3087 0
-3088 3344 0
-3600 3087 0
-3088 3600 0
-184 696 0
-312 376 0
-312 440 0
-952 440 824 312 -311 0
-311 823 0
-312 824 0
-2872 824 2360 312 -311 0
-311 2359 0
-312 2360 0
-568 696 0
-568 824 0
-1848 824 1592 568 -567 0
-2872 824 2616 568 -567 0
-567 1591 0
-568 1592 0
-3640 1592 2616 568 -567 0
-567 2615 0
-568 2616 0
-1080 1336 0
-1848 1336 1592 1080 -1079 0
-3384 1336 3128 1080 -1079 0
-1080 1592 0
-3640 1592 3128 1080 -1079 0
-1079 3127 0
-1080 3128 0
-2104 2232 0
-2104 2360 0
-2872 2360 2616 2104 -2103 0
-3384 2360 3128 2104 -2103 0
-2104 2616 0
-3640 2616 3128 2104 -2103 0
-2104 3128 0
-344 472 0
-408 416 0
-928 416 920 408 -407 0
-408 440 0
-2488 440 2456 408 -407 0
-408 472 0
-984 472 920 408 -407 0
-2520 472 2456 408 -407 0
-920 407 0
-408 920 0
-664 672 0
-664 920 0
-792 800 0
-792 824 0
-1848 824 1816 792 -791 0
-792 920 0
-1944 920 1816 792 -791 0
-792 1816 0
-3864 1816 2840 792 -791 0
-2840 791 0
-1304 1312 0
-1824 1312 1816 1304 -1303 0
-1304 1336 0
-1848 1336 1816 1304 -1303 0
-1304 1432 0
-1304 1816 0
-2328 2336 0
-1568 1559 0
-1560 1568 0
-1600 1568 1592 1560 -1559 0
-1824 1568 1816 1560 -1559 0
-3616 1568 3608 1560 -1559 0
-1592 1559 0
-1560 1592 0
-1848 1592 1816 1560 -1559 0
-3640 1592 3608 1560 -1559 0
-1816 1559 0
-1560 1816 0
-3864 1816 3608 1560 -1559 0
-3608 1559 0
-1560 3608 0
-2584 2592 0
-2584 2616 0
-3640 2616 3608 2584 -2583 0
-2584 2840 0
-3864 2840 3608 2584 -2583 0
-2584 3608 0
-3104 3095 0
-3096 3104 0
-3136 3104 3128 3096 -3095 0
-3616 3104 3608 3096 -3095 0
-3128 3095 0
-3096 3128 0
-3640 3128 3608 3096 -3095 0
-3608 3095 0
-3096 3608 0
-360 488 0
-424 432 0
-424 440 0
-952 440 936 424 -423 0
-424 488 0
-1000 488 936 424 -423 0
-424 936 0
-680 688 0
-680 936 0
-816 807 0
-808 816 0
-832 816 824 808 -807 0
-944 816 936 808 -807 0
-1840 816 1832 808 -807 0
-808 824 0
-808 936 0
-1960 936 1832 808 -807 0
-1832 807 0
-808 1832 0
-1320 1328 0
-1840 1328 1832 1320 -1319 0
-1320 1336 0
-1960 1448 1832 1320 -1319 0
-1320 1832 0
-3880 1832 3368 1320 -1319 0
-1320 3368 0
-2344 2352 0
-2856 2343 0
-3368 2343 0
-1584 1575 0
-1576 1584 0
-1600 1584 1592 1576 -1575 0
-1840 1584 1832 1576 -1575 0
-3632 1584 3624 1576 -1575 0
-1592 1575 0
-1576 1592 0
-1848 1592 1832 1576 -1575 0
-3640 1592 3624 1576 -1575 0
-1832 1575 0
-1576 1832 0
-3880 1832 3624 1576 -1575 0
-3624 1575 0
-1576 3624 0
-2600 2608 0
-3632 2608 3624 2600 -2599 0
-2616 2599 0
-2600 2616 0
-2600 2728 0
-2600 2856 0
-3880 2856 3624 2600 -2599 0
-2600 3624 0
-3120 3111 0
-3112 3120 0
-3136 3120 3128 3112 -3111 0
-3632 3120 3624 3112 -3111 0
-3128 3111 0
-3112 3128 0
-3640 3128 3624 3112 -3111 0
-3368 3111 0
-3112 3368 0
-3880 3368 3624 3112 -3111 0
-3624 3111 0
-3112 3624 0
-456 464 0
-480 464 472 456 -455 0
-496 464 488 456 -455 0
-456 472 0
-504 472 488 456 -455 0
-456 488 0
-456 1480 0
-712 720 0
-840 856 0
-840 872 0
-904 912 0
-928 912 920 904 -903 0
-944 912 936 904 -903 0
-904 920 0
-952 920 936 904 -903 0
-904 936 0
-2984 936 2952 904 -903 0
-1415 1423 0
-1416 1424 0
-1416 1448 0
-2440 2448 0
-1672 1680 0
-1672 1704 0
-1799 1807 0
-1800 1808 0
-1824 1808 1816 1800 -1799 0
-1840 1808 1832 1800 -1799 0
-1799 1815 0
-1800 1816 0
-1848 1816 1832 1800 -1799 0
-1799 1831 0
-1800 1832 0
-2823 2831 0
-2824 2832 0
-2824 2840 0
-2823 2855 0
-2824 2856 0
-2824 2952 0
-3335 3351 0
-3336 3352 0
-3335 3367 0
-3336 3368 0
-3591 3599 0
-3592 3600 0
-3616 3600 3608 3592 -3591 0
-3632 3600 3624 3592 -3591 0
-3591 3607 0
-3592 3608 0
-3640 3608 3624 3592 -3591 0
-3591 3623 0
-3592 3624 0
-188 444 0
-956 444 700 188 -187 0
-188 700 0
-316 380 0
-316 444 0
-956 444 828 316 -315 0
-1468 444 1340 316 -315 0
-315 827 0
-316 828 0
-315 1339 0
-316 1340 0
-572 700 0
-572 828 0
-1852 828 1596 572 -571 0
-2876 828 2620 572 -571 0
-571 1595 0
-572 1596 0
-3644 1596 2620 572 -571 0
-572 2620 0
-1084 1340 0
-1852 1340 1596 1084 -1083 0
-1084 1596 0
-3644 1596 3132 1084 -1083 0
-1083 3131 0
-1084 3132 0
-2108 2620 0
-3644 2620 3132 2108 -2107 0
-2108 3132 0
-348 476 0
-988 476 860 348 -347 0
-347 2395 0
-860 603 0
-412 416 0
-448 416 444 412 -411 0
-928 416 924 412 -411 0
-444 411 0
-412 444 0
-412 476 0
-988 476 924 412 -411 0
-924 411 0
-412 924 0
-956 700 924 668 -667 0
-668 924 0
-796 800 0
-832 800 828 796 -795 0
-1824 800 1820 796 -795 0
-796 828 0
-988 860 924 796 -795 0
-796 924 0
-1948 924 1820 796 -795 0
-1820 795 0
-796 1820 0
-1340 1307 0
-1308 1340 0
-1308 1372 0
-1308 1820 0
-3868 1820 3356 1308 -1307 0
-1308 3356 0
-2368 2336 2364 2332 -2331 0
-2396 2331 0
-1568 1563 0
-1564 1568 0
-1600 1568 1596 1564 -1563 0
-1824 1568 1820 1564 -1563 0
-3616 1568 3612 1564 -1563 0
-1596 1563 0
-1564 1596 0
-1852 1596 1820 1564 -1563 0
-3644 1596 3612 1564 -1563 0
-1820 1563 0
-1564 1820 0
-3868 1820 3612 1564 -1563 0
-3612 1563 0
-1564 3612 0
-2588 2592 0
-2620 2587 0
-2588 2620 0
-3644 2620 3612 2588 -2587 0
-3868 2844 3612 2588 -2587 0
-3612 2587 0
-2588 3612 0
-3104 3099 0
-3100 3104 0
-3136 3104 3132 3100 -3099 0
-3616 3104 3612 3100 -3099 0
-3132 3099 0
-3100 3132 0
-3644 3132 3612 3100 -3099 0
-3356 3099 0
-3868 3356 3612 3100 -3099 0
-3612 3099 0
-3100 3612 0
-428 432 0
-448 432 444 428 -427 0
-944 432 940 428 -427 0
-428 444 0
-956 444 940 428 -427 0
-428 492 0
-1004 492 940 428 -427 0
-940 427 0
-428 940 0
-1964 940 1452 428 -427 0
-684 688 0
-684 940 0
-1708 683 0
-816 811 0
-812 816 0
-832 816 828 812 -811 0
-828 811 0
-812 828 0
-1852 828 1836 812 -811 0
-812 940 0
-1964 940 1836 812 -811 0
-1836 811 0
-812 1836 0
-1324 1328 0
-1344 1328 1340 1324 -1323 0
-1840 1328 1836 1324 -1323 0
-1340 1323 0
-1324 1340 0
-1852 1340 1836 1324 -1323 0
-1836 1323 0
-1324 1836 0
-3884 1836 3372 1324 -1323 0
-1324 3372 0
-2348 2352 0
-2348 2860 0
-1580 1584 0
-1600 1584 1596 1580 -1579 0
-1840 1584 1836 1580 -1579 0
-3632 1584 3628 1580 -1579 0
-1596 1579 0
-1580 1596 0
-1852 1596 1836 1580 -1579 0
-3644 1596 3628 1580 -1579 0
-1964 1708 1836 1580 -1579 0
-1836 1579 0
-1580 1836 0
-3884 1836 3628 1580 -1579 0
-3628 1579 0
-1580 3628 0
-2604 2608 0
-2620 2603 0
-2604 2620 0
-2604 2860 0
-3884 2860 3628 2604 -2603 0
-3628 2603 0
-2604 3628 0
-3120 3115 0
-3116 3120 0
-3136 3120 3132 3116 -3115 0
-3632 3120 3628 3116 -3115 0
-3132 3115 0
-3116 3132 0
-3644 3132 3628 3116 -3115 0
-3372 3115 0
-3628 3115 0
-3116 3628 0
-460 464 0
-480 464 476 460 -459 0
-496 464 492 460 -459 0
-460 476 0
-460 492 0
-844 860 0
-908 912 0
-928 912 924 908 -907 0
-944 912 940 908 -907 0
-908 924 0
-956 924 940 908 -907 0
-908 940 0
-1420 1424 0
-1420 1452 0
-1676 1680 0
-1676 1708 0
-1804 1808 0
-1824 1808 1820 1804 -1803 0
-1840 1808 1836 1804 -1803 0
-1803 1819 0
-1804 1820 0
-1852 1820 1836 1804 -1803 0
-1803 1835 0
-1804 1836 0
-2828 2832 0
-2848 2832 2844 2828 -2827 0
-2828 2844 0
-2827 2859 0
-2828 2860 0
-3340 3344 0
-3340 3356 0
-3339 3371 0
-3340 3372 0
-3596 3600 0
-3616 3600 3612 3596 -3595 0
-3632 3600 3628 3596 -3595 0
-3595 3611 0
-3596 3612 0
-3644 3612 3628 3596 -3595 0
-3595 3627 0
-3596 3628 0
-372 500 0
-440 435 0
-436 440 0
-508 444 500 436 -435 0
-436 500 0
-1012 500 948 436 -435 0
-436 948 0
-948 691 0
-1204 1212 0
-820 824 0
-832 824 828 820 -819 0
-828 819 0
-820 828 0
-820 948 0
-1972 948 1844 820 -819 0
-1844 819 0
-820 1844 0
-1336 1331 0
-1332 1336 0
-1340 1331 0
-1332 1340 0
-1972 1460 1844 1332 -1331 0
-1844 1331 0
-1332 1844 0
-3892 1844 3380 1332 -1331 0
-2356 2868 0
-1592 1587 0
-1588 1592 0
-1600 1592 1596 1588 -1587 0
-1848 1592 1844 1588 -1587 0
-3640 1592 3636 1588 -1587 0
-1596 1587 0
-1588 1596 0
-1852 1596 1844 1588 -1587 0
-3644 1596 3636 1588 -1587 0
-1972 1716 1844 1588 -1587 0
-1588 1844 0
-3892 1844 3636 1588 -1587 0
-1588 3636 0
-2616 2611 0
-2612 2616 0
-2612 2620 0
-2612 2740 0
-2612 2868 0
-3892 2868 3636 2612 -2611 0
-3636 2611 0
-2612 3636 0
-3128 3123 0
-3124 3128 0
-3136 3128 3132 3124 -3123 0
-3640 3128 3636 3124 -3123 0
-3132 3123 0
-3124 3132 0
-3644 3132 3636 3124 -3123 0
-3636 3123 0
-3124 3636 0
-468 472 0
-480 472 476 468 -467 0
-504 472 500 468 -467 0
-468 476 0
-1500 476 1492 468 -467 0
-468 500 0
-468 1492 0
-852 856 0
-852 884 0
-2524 2396 2516 2388 -2387 0
-916 920 0
-928 920 924 916 -915 0
-952 920 948 916 -915 0
-916 924 0
-956 924 948 916 -915 0
-916 948 0
-2996 948 2964 916 -915 0
-1428 1492 0
-2964 2451 0
-1684 1716 0
-1812 1816 0
-1824 1816 1820 1812 -1811 0
-1848 1816 1844 1812 -1811 0
-1812 1820 0
-1852 1820 1844 1812 -1811 0
-1811 1843 0
-1812 1844 0
-2835 2867 0
-2836 2868 0
-2996 2868 2964 2836 -2835 0
-2836 2964 0
-3348 3352 0
-3348 3356 0
-3347 3379 0
-3348 3380 0
-3604 3608 0
-3616 3608 3612 3604 -3603 0
-3640 3608 3636 3604 -3603 0
-3604 3612 0
-3644 3612 3636 3604 -3603 0
-3603 3635 0
-3604 3636 0
-484 488 0
-504 488 500 484 -483 0
-484 492 0
-508 492 500 484 -483 0
-484 500 0
-932 936 0
-944 936 940 932 -931 0
-952 936 948 932 -931 0
-932 940 0
-956 940 948 932 -931 0
-932 948 0
-932 2980 0
-1444 1448 0
-1444 1460 0
-1700 1704 0
-1700 1708 0
-1700 1716 0
-1828 1832 0
-1840 1832 1836 1828 -1827 0
-1848 1832 1844 1828 -1827 0
-1828 1836 0
-1852 1836 1844 1828 -1827 0
-1828 1844 0
-2852 2856 0
-2852 2860 0
-2852 2868 0
-3364 3368 0
-3364 3372 0
-3364 3380 0
-3620 3624 0
-3632 3624 3628 3620 -3619 0
-3640 3624 3636 3620 -3619 0
-3620 3628 0
-3644 3628 3636 3620 -3619 0
-3620 3636 0
-964 968 0
-964 972 0
-964 980 0
-964 996 0
-1476 1480 0
-1476 1484 0
-1476 1508 0
-1924 1928 0
-1924 1932 0
-1924 1940 0
-1924 1956 0
-2948 2952 0
-2948 2956 0
-2948 2964 0
-3844 3848 0
-3844 3852 0
-3844 3860 0
-3844 3876 0
-192 448 0
-320 832 0
-320 1344 0
-320 2368 0
-576 1600 0
-576 2624 0
-1088 3136 0
-352 480 0
-672 928 0
-800 928 0
-800 1824 0
-3872 1824 2848 800 -799 0
-1312 1824 0
-1312 3360 0
-1568 1824 0
-1568 3616 0
-2592 2848 0
-2592 3616 0
-3104 3616 0
-368 496 0
-432 944 0
-1968 944 1456 432 -431 0
-688 944 0
-816 944 0
-816 1840 0
-3888 1840 2864 816 -815 0
-1328 1840 0
-3888 1840 3376 1328 -1327 0
-1584 1840 0
-3888 1840 3632 1584 -1583 0
-1584 3632 0
-2608 3632 0
-3120 3376 0
-3120 3632 0
-720 736 0
-912 928 0
-912 944 0
-1680 1696 0
-1808 1824 0
-1856 1824 1840 1808 -1807 0
-1808 1840 0
-3600 3616 0
-3648 3616 3632 3600 -3599 0
-3600 3632 0
-376 504 0
-696 952 0
-2232 2488 0
-824 952 0
-824 1848 0
-3896 1848 2872 824 -823 0
-1336 1848 0
-2360 2872 0
-3896 2872 3384 2360 -2359 0
-1592 1848 0
-3896 1848 3640 1592 -1591 0
-1592 3640 0
-2616 3640 0
-3128 3640 0
-920 928 0
-920 952 0
-1816 1824 0
-1856 1824 1848 1816 -1815 0
-1816 1848 0
-2840 2872 0
-3608 3616 0
-3608 3640 0
-936 952 0
-1448 1456 0
-1704 1712 0
-2728 2984 0
-1832 1840 0
-1856 1840 1848 1832 -1831 0
-1832 1848 0
-3624 3632 0
-3648 3632 3640 3624 -3623 0
-3624 3640 0
-968 976 0
-968 984 0
-968 1000 0
-1928 1936 0
-1928 1944 0
-1928 1960 0
-3848 3856 0
-3848 3864 0
-3848 3880 0
-380 508 0
-444 956 0
-700 956 0
-828 956 0
-828 1852 0
-3900 1852 2876 828 -827 0
-1980 1468 1852 1340 -1339 0
-1340 1852 0
-1596 1852 0
-3900 1852 3644 1596 -1595 0
-1596 3644 0
-2620 3644 0
-3132 3644 0
-476 508 0
-476 2524 0
-1372 1500 0
-924 956 0
-1820 1824 0
-1856 1824 1852 1820 -1819 0
-1820 1852 0
-3612 3616 0
-3612 3644 0
-940 944 0
-940 956 0
-1836 1840 0
-1856 1840 1852 1836 -1835 0
-1836 1852 0
-3628 3632 0
-3628 3644 0
-972 988 0
-972 1004 0
-1932 1948 0
-1932 1964 0
-3852 3868 0
-3852 3884 0
-948 956 0
-948 2996 0
-2740 2996 0
-2868 2872 0
-3380 3384 0
-3636 3640 0
-3636 3644 0
-980 1012 0
-2516 2520 0
-1940 1972 0
-3860 3892 0
-1344 1856 0
-2624 3648 0
-3864 3872 0
-1960 1968 0
-3880 3888 0
-3880 3896 0
-1964 1980 0
-3884 3900 0
-4098 0
-4103 0
-4107 0
-4115 0
-4131 0
-5123 0
-6147 0
-4112 0
-4120 0
-4136 0
-4616 0
-5128 0
-6152 0
-4124 0
-4140 0
-4364 0
-4620 0
-5132 0
-6156 0
-4148 0
-4628 0
-5140 0
-6164 0
-4644 0
-5156 0
-6180 0
-4868 0
-5380 0
-5636 0
-6660 0
-7172 0
-4614 518 4102 6 -5 0
-5126 1030 4102 6 -5 0
-6150 2054 4102 6 -5 0
-4618 522 4106 10 -9 0
-5130 1034 4106 10 -9 0
-6154 2058 4106 10 -9 0
-4626 530 4114 18 -17 0
-5138 1042 4114 18 -17 0
-6162 2066 4114 18 -17 0
-4642 546 4130 34 -33 0
-5154 1058 4130 34 -33 0
-6178 2082 4130 34 -33 0
-4110 4102 4106 4098 -4097 0
-4118 4102 4114 4098 -4097 0
-4134 4102 4130 4098 -4097 0
-4122 4106 4114 4098 -4097 0
-4138 4106 4130 4098 -4097 0
-4146 4114 4130 4098 -4097 0
-4610 4097 0
-4623 527 4111 15 -14 0
-5135 1039 4111 15 -14 0
-6159 2063 4111 15 -14 0
-14 4110 0
-4631 535 4119 23 -22 0
-5143 1047 4119 23 -22 0
-6167 2071 4119 23 -22 0
-22 4118 0
-4647 551 4135 39 -38 0
-5159 1063 4135 39 -38 0
-6183 2087 4135 39 -38 0
-38 4134 0
-5639 1543 4615 519 -518 0
-6663 2567 4615 519 -518 0
-5135 1039 5127 1031 -1030 0
-5143 1047 5127 1031 -1030 0
-5159 1063 5127 1031 -1030 0
-5639 1543 5127 1031 -1030 0
-7175 3079 5127 1031 -1030 0
-5127 1030 0
-6159 2063 6151 2055 -2054 0
-6167 2071 6151 2055 -2054 0
-6183 2087 6151 2055 -2054 0
-6663 2567 6151 2055 -2054 0
-7175 3079 6151 2055 -2054 0
-6151 2054 0
-4111 4102 0
-4127 4111 4119 4103 -4102 0
-4143 4111 4135 4103 -4102 0
-5135 4111 5127 4103 -4102 0
-6159 4111 6151 4103 -4102 0
-4119 4102 0
-4151 4119 4135 4103 -4102 0
-5143 4119 5127 4103 -4102 0
-6167 4119 6151 4103 -4102 0
-4135 4102 0
-4647 4135 4615 4103 -4102 0
-5159 4135 5127 4103 -4102 0
-6183 4135 6151 4103 -4102 0
-4359 4102 0
-4615 4102 0
-6663 4615 6151 4103 -4102 0
-5127 4102 0
-7175 5127 6151 4103 -4102 0
-6151 4102 0
-4635 539 4123 27 -26 0
-5147 1051 4123 27 -26 0
-6171 2075 4123 27 -26 0
-26 4122 0
-4651 555 4139 43 -42 0
-5163 1067 4139 43 -42 0
-6187 2091 4139 43 -42 0
-42 4138 0
-4491 395 4363 267 -266 0
-5643 1547 4619 523 -522 0
-5135 1039 5131 1035 -1034 0
-5147 1051 5131 1035 -1034 0
-5387 1291 5131 1035 -1034 0
-5643 1547 5131 1035 -1034 0
-7179 3083 5131 1035 -1034 0
-5131 1034 0
-6159 2063 6155 2059 -2058 0
-6171 2075 6155 2059 -2058 0
-6187 2091 6155 2059 -2058 0
-6667 2571 6155 2059 -2058 0
-7179 3083 6155 2059 -2058 0
-6155 2058 0
-4111 4106 0
-4127 4111 4123 4107 -4106 0
-4143 4111 4139 4107 -4106 0
-5135 4111 5131 4107 -4106 0
-6159 4111 6155 4107 -4106 0
-4123 4106 0
-4155 4123 4139 4107 -4106 0
-4635 4123 4619 4107 -4106 0
-5147 4123 5131 4107 -4106 0
-6171 4123 6155 4107 -4106 0
-4139 4106 0
-6187 4139 6155 4107 -4106 0
-4363 4106 0
-5387 4363 5131 4107 -4106 0
-4619 4106 0
-6667 4619 6155 4107 -4106 0
-5131 4106 0
-7179 5131 6155 4107 -4106 0
-6155 4106 0
-5171 1075 4147 51 -50 0
-6195 2099 4147 51 -50 0
-50 4146 0
-4659 563 4627 531 -530 0
-5651 1555 4627 531 -530 0
-6675 2579 4627 531 -530 0
-5143 1047 5139 1043 -1042 0
-5147 1051 5139 1043 -1042 0
-5171 1075 5139 1043 -1042 0
-5651 1555 5139 1043 -1042 0
-7187 3091 5139 1043 -1042 0
-5139 1042 0
-6167 2071 6163 2067 -2066 0
-6171 2075 6163 2067 -2066 0
-6195 2099 6163 2067 -2066 0
-6675 2579 6163 2067 -2066 0
-7187 3091 6163 2067 -2066 0
-6163 2066 0
-4119 4114 0
-4127 4119 4123 4115 -4114 0
-4151 4119 4147 4115 -4114 0
-5143 4119 5139 4115 -4114 0
-6167 4119 6163 4115 -4114 0
-4123 4114 0
-4155 4123 4147 4115 -4114 0
-5147 4123 5139 4115 -4114 0
-6171 4123 6163 4115 -4114 0
-4147 4114 0
-5171 4147 5139 4115 -4114 0
-6195 4147 6163 4115 -4114 0
-4627 4114 0
-5651 4627 5139 4115 -4114 0
-5139 4114 0
-7187 5139 6163 4115 -4114 0
-6163 4114 0
-5667 1571 4643 547 -546 0
-6691 2595 4643 547 -546 0
-5667 1571 5155 1059 -1058 0
-7203 3107 5155 1059 -1058 0
-5155 1058 0
-6183 2087 6179 2083 -2082 0
-6187 2091 6179 2083 -2082 0
-6195 2099 6179 2083 -2082 0
-6691 2595 6179 2083 -2082 0
-7203 3107 6179 2083 -2082 0
-6179 2082 0
-4135 4130 0
-4143 4135 4139 4131 -4130 0
-4151 4135 4147 4131 -4130 0
-5159 4135 5155 4131 -4130 0
-6183 4135 6179 4131 -4130 0
-4139 4130 0
-4155 4139 4147 4131 -4130 0
-5163 4139 5155 4131 -4130 0
-6187 4139 6179 4131 -4130 0
-4147 4130 0
-5171 4147 5155 4131 -4130 0
-6195 4147 6179 4131 -4130 0
-4643 4130 0
-6691 4643 6179 4131 -4130 0
-5155 4130 0
-7203 5155 6179 4131 -4130 0
-6179 4130 0
-4875 779 4867 771 -770 0
-4610 4614 0
-4610 4618 0
-4610 4626 0
-4610 4642 0
-5635 4610 0
-5122 5126 0
-5135 5127 5131 5123 -5122 0
-5143 5127 5139 5123 -5122 0
-5159 5127 5155 5123 -5122 0
-5122 5130 0
-5147 5131 5139 5123 -5122 0
-5163 5131 5155 5123 -5122 0
-5122 5138 0
-5171 5139 5155 5123 -5122 0
-5122 5154 0
-5635 5122 0
-6146 6150 0
-6159 6151 6155 6147 -6146 0
-6167 6151 6163 6147 -6146 0
-6183 6151 6179 6147 -6146 0
-6146 6154 0
-6171 6155 6163 6147 -6146 0
-6187 6155 6179 6147 -6146 0
-6146 6162 0
-6195 6163 6179 6147 -6146 0
-6146 6178 0
-6659 6146 0
-4384 288 4128 32 -31 0
-4640 544 4128 32 -31 0
-5152 1056 4128 32 -31 0
-6176 2080 4128 32 -31 0
-31 4127 0
-4656 560 4144 48 -47 0
-5168 1072 4144 48 -47 0
-6192 2096 4144 48 -47 0
-47 4143 0
-4400 304 4368 272 -271 0
-4640 544 4624 528 -527 0
-4656 560 4624 528 -527 0
-4880 784 4624 528 -527 0
-5647 1551 4623 527 -526 0
-5648 1552 4624 528 -527 0
-6672 2576 4624 528 -527 0
-4624 527 0
-5152 1056 5136 1040 -1039 0
-5168 1072 5136 1040 -1039 0
-5648 1552 5136 1040 -1039 0
-7183 3087 5135 1039 -1038 0
-7184 3088 5136 1040 -1039 0
-1039 5135 0
-5136 1039 0
-6176 2080 6160 2064 -2063 0
-6192 2096 6160 2064 -2063 0
-6672 2576 6160 2064 -2063 0
-7183 3087 6159 2063 -2062 0
-7184 3088 6160 2064 -2063 0
-2063 6159 0
-6160 2063 0
-4128 4111 0
-4160 4128 4144 4112 -4111 0
-4640 4128 4624 4112 -4111 0
-5152 4128 5136 4112 -4111 0
-6176 4128 6160 4112 -4111 0
-4144 4111 0
-5168 4144 5136 4112 -4111 0
-6192 4144 6160 4112 -4111 0
-4111 4623 0
-4624 4111 0
-5647 4623 5135 4111 -4110 0
-6672 4624 6160 4112 -4111 0
-4111 5135 0
-5136 4111 0
-7183 5135 6159 4111 -4110 0
-7184 5136 6160 4112 -4111 0
-4111 6159 0
-6160 4111 0
-4664 568 4152 56 -55 0
-5176 1080 4152 56 -55 0
-6200 2104 4152 56 -55 0
-55 4151 0
-4888 792 4632 536 -535 0
-5655 1559 4631 535 -534 0
-5656 1560 4632 536 -535 0
-6679 2583 4631 535 -534 0
-6680 2584 4632 536 -535 0
-4632 535 0
-5152 1056 5144 1048 -1047 0
-5176 1080 5144 1048 -1047 0
-5656 1560 5144 1048 -1047 0
-7191 3095 5143 1047 -1046 0
-7192 3096 5144 1048 -1047 0
-1047 5143 0
-5144 1047 0
-6176 2080 6168 2072 -2071 0
-6200 2104 6168 2072 -2071 0
-6679 2583 6167 2071 -2070 0
-6680 2584 6168 2072 -2071 0
-7191 3095 6167 2071 -2070 0
-7192 3096 6168 2072 -2071 0
-2071 6167 0
-6168 2071 0
-4128 4119 0
-4160 4128 4152 4120 -4119 0
-4640 4128 4632 4120 -4119 0
-5152 4128 5144 4120 -4119 0
-6176 4128 6168 4120 -4119 0
-4152 4119 0
-5176 4152 5144 4120 -4119 0
-6200 4152 6168 4120 -4119 0
-4632 4119 0
-5655 4631 5143 4119 -4118 0
-6679 4631 6167 4119 -4118 0
-6680 4632 6168 4120 -4119 0
-4119 5143 0
-5144 4119 0
-7191 5143 6167 4119 -4118 0
-7192 5144 6168 4120 -4119 0
-4119 6167 0
-6168 4119 0
-6696 2600 4648 552 -551 0
-5168 1072 5160 1064 -1063 0
-5176 1080 5160 1064 -1063 0
-5672 1576 5160 1064 -1063 0
-7207 3111 5159 1063 -1062 0
-7208 3112 5160 1064 -1063 0
-1063 5159 0
-5160 1063 0
-6192 2096 6184 2088 -2087 0
-6200 2104 6184 2088 -2087 0
-6695 2599 6183 2087 -2086 0
-6696 2600 6184 2088 -2087 0
-7208 3112 6184 2088 -2087 0
-2087 6183 0
-6184 2087 0
-4144 4135 0
-4160 4144 4152 4136 -4135 0
-5168 4144 5160 4136 -4135 0
-6192 4144 6184 4136 -4135 0
-4152 4135 0
-5176 4152 5160 4136 -4135 0
-6200 4152 6184 4136 -4135 0
-4648 4135 0
-5671 4647 5159 4135 -4134 0
-5672 4648 5160 4136 -4135 0
-6695 4647 6183 4135 -4134 0
-6696 4648 6184 4136 -4135 0
-4135 5159 0
-5160 4135 0
-7207 5159 6183 4135 -4134 0
-7208 5160 6184 4136 -4135 0
-4135 6183 0
-6184 4135 0
-4904 808 4872 776 -775 0
-5000 904 4872 776 -775 0
-775 4871 0
-4872 775 0
-5896 1800 5384 1288 -1287 0
-4872 4359 0
-5384 4359 0
-5648 1552 5640 1544 -1543 0
-5656 1560 5640 1544 -1543 0
-5672 1576 5640 1544 -1543 0
-7688 3592 5640 1544 -1543 0
-5640 1543 0
-7688 3592 6664 2568 -2567 0
-6664 2567 0
-4615 4623 0
-4615 4631 0
-5896 4872 5640 4616 -4615 0
-5640 4615 0
-7688 5640 6664 4616 -4615 0
-6664 4615 0
-7184 3088 7176 3080 -3079 0
-7192 3096 7176 3080 -3079 0
-7208 3112 7176 3080 -3079 0
-7688 3592 7176 3080 -3079 0
-7176 3079 0
-5127 5135 0
-5136 5127 0
-5151 5135 5143 5127 -5126 0
-5152 5136 5144 5128 -5127 0
-5167 5135 5159 5127 -5126 0
-5168 5136 5160 5128 -5127 0
-5648 5136 5640 5128 -5127 0
-7184 5136 7176 5128 -5127 0
-5127 5143 0
-5144 5127 0
-5176 5144 5160 5128 -5127 0
-7192 5144 7176 5128 -5127 0
-5127 5159 0
-5160 5127 0
-5672 5160 5640 5128 -5127 0
-7208 5160 7176 5128 -5127 0
-5384 5127 0
-5640 5127 0
-7688 5640 7176 5128 -5127 0
-7176 5127 0
-6151 6159 0
-6160 6151 0
-6175 6159 6167 6151 -6150 0
-6176 6160 6168 6152 -6151 0
-6191 6159 6183 6151 -6150 0
-6192 6160 6184 6152 -6151 0
-6672 6160 6664 6152 -6151 0
-7184 6160 7176 6152 -6151 0
-6151 6167 0
-6168 6151 0
-6199 6167 6183 6151 -6150 0
-6200 6168 6184 6152 -6151 0
-6680 6168 6664 6152 -6151 0
-7192 6168 7176 6152 -6151 0
-6151 6183 0
-6184 6151 0
-7208 6184 7176 6152 -6151 0
-6664 6151 0
-7688 6664 7176 6152 -6151 0
-7176 6151 0
-4668 572 4156 60 -59 0
-5180 1084 4156 60 -59 0
-6204 2108 4156 60 -59 0
-59 4155 0
-4380 283 0
-5659 1563 4635 539 -538 0
-539 4635 0
-5152 1056 5148 1052 -1051 0
-5180 1084 5148 1052 -1051 0
-5660 1564 5148 1052 -1051 0
-7195 3099 5147 1051 -1050 0
-7196 3100 5148 1052 -1051 0
-1051 5147 0
-5148 1051 0
-6176 2080 6172 2076 -2075 0
-6204 2108 6172 2076 -2075 0
-6684 2588 6172 2076 -2075 0
-7195 3099 6171 2075 -2074 0
-7196 3100 6172 2076 -2075 0
-2075 6171 0
-6172 2075 0
-4128 4123 0
-4160 4128 4156 4124 -4123 0
-5152 4128 5148 4124 -4123 0
-6176 4128 6172 4124 -4123 0
-4156 4123 0
-5180 4156 5148 4124 -4123 0
-6204 4156 6172 4124 -4123 0
-5404 4380 5148 4124 -4123 0
-4123 4635 0
-5659 4635 5147 4123 -4122 0
-4123 5147 0
-5148 4123 0
-7196 5148 6172 4124 -4123 0
-4123 6171 0
-6172 4123 0
-5675 1579 4651 555 -554 0
-5676 1580 4652 556 -555 0
-6700 2604 4652 556 -555 0
-555 4651 0
-4652 555 0
-5168 1072 5164 1068 -1067 0
-5180 1084 5164 1068 -1067 0
-5676 1580 5164 1068 -1067 0
-7211 3115 5163 1067 -1066 0
-7212 3116 5164 1068 -1067 0
-1067 5163 0
-5164 1067 0
-6192 2096 6188 2092 -2091 0
-6204 2108 6188 2092 -2091 0
-6700 2604 6188 2092 -2091 0
-7211 3115 6187 2091 -2090 0
-7212 3116 6188 2092 -2091 0
-2091 6187 0
-6188 2091 0
-4144 4139 0
-4160 4144 4156 4140 -4139 0
-4656 4144 4652 4140 -4139 0
-5168 4144 5164 4140 -4139 0
-6192 4144 6188 4140 -4139 0
-4156 4139 0
-5180 4156 5164 4140 -4139 0
-6204 4156 6188 4140 -4139 0
-4652 4139 0
-5676 4652 5164 4140 -4139 0
-6699 4651 6187 4139 -4138 0
-6700 4652 6188 4140 -4139 0
-4139 5163 0
-5164 4139 0
-7211 5163 6187 4139 -4138 0
-7212 5164 6188 4140 -4139 0
-4139 6187 0
-6188 4139 0
-4892 796 4876 780 -779 0
-5004 908 4876 780 -779 0
-4876 779 0
-5900 1804 5388 1292 -1291 0
-4876 4363 0
-5900 4876 5388 4364 -4363 0
-5648 1552 5644 1548 -1547 0
-5660 1564 5644 1548 -1547 0
-5676 1580 5644 1548 -1547 0
-7692 3596 5644 1548 -1547 0
-5644 1547 0
-6700 2604 6668 2572 -2571 0
-7692 3596 6668 2572 -2571 0
-6668 2571 0
-5648 4624 5644 4620 -4619 0
-4619 4875 0
-4876 4619 0
-5644 4619 0
-7692 5644 6668 4620 -4619 0
-6668 4619 0
-7184 3088 7180 3084 -3083 0
-7196 3100 7180 3084 -3083 0
-7212 3116 7180 3084 -3083 0
-7692 3596 7180 3084 -3083 0
-7180 3083 0
-5131 5135 0
-5136 5131 0
-5151 5135 5147 5131 -5130 0
-5152 5136 5148 5132 -5131 0
-5168 5136 5164 5132 -5131 0
-7184 5136 7180 5132 -5131 0
-5131 5147 0
-5148 5131 0
-5179 5147 5163 5131 -5130 0
-5180 5148 5164 5132 -5131 0
-5660 5148 5644 5132 -5131 0
-7196 5148 7180 5132 -5131 0
-5131 5163 0
-5164 5131 0
-7212 5164 7180 5132 -5131 0
-5388 5131 0
-5644 5131 0
-7692 5644 7180 5132 -5131 0
-7180 5131 0
-6155 6159 0
-6160 6155 0
-6176 6160 6172 6156 -6155 0
-6191 6159 6187 6155 -6154 0
-6192 6160 6188 6156 -6155 0
-7184 6160 7180 6156 -6155 0
-6155 6171 0
-6172 6155 0
-6203 6171 6187 6155 -6154 0
-6204 6172 6188 6156 -6155 0
-7196 6172 7180 6156 -6155 0
-6155 6187 0
-6188 6155 0
-7212 6188 7180 6156 -6155 0
-6668 6155 0
-7692 6668 7180 6156 -6155 0
-7180 6155 0
-4660 563 0
-5176 1080 5172 1076 -1075 0
-5180 1084 5172 1076 -1075 0
-5684 1588 5172 1076 -1075 0
-7220 3124 5172 1076 -1075 0
-1075 5171 0
-5172 1075 0
-6200 2104 6196 2100 -2099 0
-6204 2108 6196 2100 -2099 0
-6707 2611 6195 2099 -2098 0
-6708 2612 6196 2100 -2099 0
-7219 3123 6195 2099 -2098 0
-7220 3124 6196 2100 -2099 0
-2099 6195 0
-6196 2099 0
-4152 4147 0
-4160 4152 4156 4148 -4147 0
-5176 4152 5172 4148 -4147 0
-6200 4152 6196 4148 -4147 0
-4156 4147 0
-5180 4156 5172 4148 -4147 0
-6204 4156 6196 4148 -4147 0
-4147 4659 0
-5684 4660 5172 4148 -4147 0
-6708 4660 6196 4148 -4147 0
-4147 5171 0
-5172 4147 0
-7220 5172 6196 4148 -4147 0
-4147 6195 0
-6196 4147 0
-5656 1560 5652 1556 -1555 0
-5660 1564 5652 1556 -1555 0
-5684 1588 5652 1556 -1555 0
-5908 1812 5652 1556 -1555 0
-7700 3604 5652 1556 -1555 0
-5652 1555 0
-6680 2584 6676 2580 -2579 0
-7700 3604 6676 2580 -2579 0
-6676 2579 0
-4632 4627 0
-4627 4635 0
-5908 4884 5652 4628 -4627 0
-5652 4627 0
-6676 4627 0
-7192 3096 7188 3092 -3091 0
-7196 3100 7188 3092 -3091 0
-7220 3124 7188 3092 -3091 0
-7700 3604 7188 3092 -3091 0
-7188 3091 0
-5139 5143 0
-5144 5139 0
-5152 5144 5148 5140 -5139 0
-5176 5144 5172 5140 -5139 0
-5400 5144 5396 5140 -5139 0
-7192 5144 7188 5140 -5139 0
-5139 5147 0
-5148 5139 0
-5180 5148 5172 5140 -5139 0
-5660 5148 5652 5140 -5139 0
-7196 5148 7188 5140 -5139 0
-5139 5171 0
-5172 5139 0
-5684 5172 5652 5140 -5139 0
-7220 5172 7188 5140 -5139 0
-5652 5139 0
-7700 5652 7188 5140 -5139 0
-7188 5139 0
-6163 6167 0
-6168 6163 0
-6175 6167 6171 6163 -6162 0
-6176 6168 6172 6164 -6163 0
-6199 6167 6195 6163 -6162 0
-6200 6168 6196 6164 -6163 0
-7192 6168 7188 6164 -6163 0
-6163 6171 0
-6172 6163 0
-6203 6171 6195 6163 -6162 0
-6204 6172 6196 6164 -6163 0
-7196 6172 7188 6164 -6163 0
-6163 6195 0
-6196 6163 0
-7220 6196 7188 6164 -6163 0
-6676 6163 0
-7700 6676 7188 6164 -6163 0
-7188 6163 0
-5428 1332 5412 1316 -1315 0
-5676 1580 5668 1572 -1571 0
-5684 1588 5668 1572 -1571 0
-5924 1828 5668 1572 -1571 0
-7716 3620 5668 1572 -1571 0
-5668 1571 0
-7716 3620 6692 2596 -2595 0
-6692 2595 0
-4643 4647 0
-5668 4643 0
-7716 5668 6692 4644 -4643 0
-7208 3112 7204 3108 -3107 0
-7212 3116 7204 3108 -3107 0
-7220 3124 7204 3108 -3107 0
-7716 3620 7204 3108 -3107 0
-7204 3107 0
-5155 5159 0
-5160 5155 0
-5167 5159 5163 5155 -5154 0
-5168 5160 5164 5156 -5155 0
-5176 5160 5172 5156 -5155 0
-5672 5160 5668 5156 -5155 0
-7208 5160 7204 5156 -5155 0
-5155 5163 0
-5164 5155 0
-5180 5164 5172 5156 -5155 0
-5420 5164 5412 5156 -5155 0
-7212 5164 7204 5156 -5155 0
-5155 5171 0
-5172 5155 0
-5684 5172 5668 5156 -5155 0
-7220 5172 7204 5156 -5155 0
-5412 5155 0
-5668 5155 0
-7716 5668 7204 5156 -5155 0
-7204 5155 0
-6179 6183 0
-6184 6179 0
-6192 6184 6188 6180 -6179 0
-6199 6183 6195 6179 -6178 0
-6200 6184 6196 6180 -6179 0
-7208 6184 7204 6180 -6179 0
-6179 6187 0
-6188 6179 0
-6204 6188 6196 6180 -6179 0
-7212 6188 7204 6180 -6179 0
-6179 6195 0
-6196 6179 0
-7220 6196 7204 6180 -6179 0
-6692 6179 0
-7716 6692 7204 6180 -6179 0
-7204 6179 0
-5000 904 4996 900 -899 0
-5004 908 4996 900 -899 0
-5012 916 4996 900 -899 0
-4483 4491 0
-4996 4483 0
-5900 1804 5892 1796 -1795 0
-5908 1812 5892 1796 -1795 0
-4867 4871 0
-4880 4872 4876 4868 -4867 0
-5400 5384 5396 5380 -5379 0
-5892 5379 0
-5635 5639 0
-5648 5640 5644 5636 -5635 0
-5672 5640 5668 5636 -5635 0
-5896 5640 5892 5636 -5635 0
-5635 5643 0
-5660 5644 5652 5636 -5635 0
-5676 5644 5668 5636 -5635 0
-5900 5644 5892 5636 -5635 0
-5635 5651 0
-5684 5652 5668 5636 -5635 0
-5635 5667 0
-7684 5635 0
-6659 6663 0
-6659 6667 0
-6684 6668 6676 6660 -6659 0
-6659 6675 0
-6659 6691 0
-7684 6659 0
-7171 7175 0
-7184 7176 7180 7172 -7171 0
-7192 7176 7188 7172 -7171 0
-7208 7176 7204 7172 -7171 0
-7171 7179 0
-7196 7180 7188 7172 -7171 0
-7212 7180 7204 7172 -7171 0
-7171 7187 0
-7220 7188 7204 7172 -7171 0
-7171 7203 0
-7684 7171 0
-64 4160 0
-543 4639 0
-544 4640 0
-5664 1568 5152 1056 -1055 0
-7200 3104 5152 1056 -1055 0
-1055 5151 0
-1056 5152 0
-6688 2592 6176 2080 -2079 0
-7200 3104 6176 2080 -2079 0
-2079 6175 0
-2080 6176 0
-4128 4384 0
-4128 4640 0
-5664 4640 5152 4128 -4127 0
-6688 4640 6176 4128 -4127 0
-4128 5152 0
-7200 5152 6176 4128 -4127 0
-4128 6176 0
-5680 1584 4656 560 -559 0
-559 4655 0
-560 4656 0
-5680 1584 5168 1072 -1071 0
-7216 3120 5168 1072 -1071 0
-1071 5167 0
-1072 5168 0
-6704 2608 6192 2096 -2095 0
-7216 3120 6192 2096 -2095 0
-2095 6191 0
-2096 6192 0
-4144 4400 0
-4144 4656 0
-6704 4656 6192 4144 -4143 0
-4144 5168 0
-7216 5168 6192 4144 -4143 0
-4144 6192 0
-4368 4384 0
-5680 1584 5648 1552 -1551 0
-7696 3600 5648 1552 -1551 0
-5648 1551 0
-1552 5648 0
-7696 3600 6672 2576 -2575 0
-2576 6672 0
-4624 4640 0
-4624 4656 0
-5904 4880 5648 4624 -4623 0
-4624 5648 0
-7696 5648 6672 4624 -4623 0
-4624 6672 0
-7200 3104 7184 3088 -3087 0
-7216 3120 7184 3088 -3087 0
-7696 3600 7184 3088 -3087 0
-7184 3087 0
-3088 7184 0
-5152 5135 0
-5136 5152 0
-5184 5152 5168 5136 -5135 0
-7200 5152 7184 5136 -5135 0
-5168 5135 0
-5136 5168 0
-5680 5168 5648 5136 -5135 0
-7216 5168 7184 5136 -5135 0
-5136 5648 0
-7696 5648 7184 5136 -5135 0
-7184 5135 0
-5136 7184 0
-6176 6159 0
-6160 6176 0
-6208 6176 6192 6160 -6159 0
-6688 6176 6672 6160 -6159 0
-7200 6176 7184 6160 -6159 0
-6192 6159 0
-6160 6192 0
-7216 6192 7184 6160 -6159 0
-7696 6672 7184 6160 -6159 0
-7184 6159 0
-6160 7184 0
-6712 2616 4664 568 -567 0
-5688 1592 5176 1080 -1079 0
-7224 3128 5176 1080 -1079 0
-1079 5175 0
-1080 5176 0
-6712 2616 6200 2104 -2103 0
-7224 3128 6200 2104 -2103 0
-2103 6199 0
-2104 6200 0
-5688 4664 5176 4152 -4151 0
-6712 4664 6200 4152 -4151 0
-4152 5176 0
-7224 5176 6200 4152 -4151 0
-4152 6200 0
-1304 5400 0
-5664 1568 5656 1560 -1559 0
-5688 1592 5656 1560 -1559 0
-7704 3608 6680 2584 -2583 0
-6680 2583 0
-4632 4640 0
-4632 4664 0
-5656 4631 0
-4632 6680 0
-7200 3104 7192 3096 -3095 0
-7224 3128 7192 3096 -3095 0
-7704 3608 7192 3096 -3095 0
-7192 3095 0
-3096 7192 0
-5152 5143 0
-5144 5152 0
-5184 5152 5176 5144 -5143 0
-7200 5152 7192 5144 -5143 0
-5176 5143 0
-5144 5176 0
-7224 5176 7192 5144 -5143 0
-5912 5400 5656 5144 -5143 0
-5144 5656 0
-7192 5143 0
-5144 7192 0
-6176 6167 0
-6168 6176 0
-6208 6176 6200 6168 -6167 0
-7200 6176 7192 6168 -6167 0
-6200 6167 0
-6168 6200 0
-7224 6200 7192 6168 -6167 0
-7704 6680 7192 6168 -6167 0
-7192 6167 0
-6168 7192 0
-5688 1592 5672 1576 -1575 0
-7720 3624 6696 2600 -2599 0
-4648 4656 0
-4664 4647 0
-4648 4664 0
-6712 4664 6696 4648 -4647 0
-7216 3120 7208 3112 -3111 0
-7224 3128 7208 3112 -3111 0
-7720 3624 7208 3112 -3111 0
-7208 3111 0
-3112 7208 0
-5168 5159 0
-5160 5168 0
-7216 5168 7208 5160 -5159 0
-5176 5159 0
-5160 5176 0
-7224 5176 7208 5160 -5159 0
-5160 5672 0
-7720 5672 7208 5160 -5159 0
-7208 5159 0
-5160 7208 0
-6192 6183 0
-6184 6192 0
-6208 6192 6200 6184 -6183 0
-7216 6192 7208 6184 -6183 0
-6200 6183 0
-6184 6200 0
-7224 6200 7208 6184 -6183 0
-6696 6183 0
-7720 6696 7208 6184 -6183 0
-7208 6183 0
-6184 7208 0
-4912 4880 4904 4872 -4871 0
-4872 4888 0
-4872 5000 0
-6024 5000 5896 4872 -4871 0
-5639 5647 0
-5640 5648 0
-5639 5655 0
-5640 5656 0
-5912 5656 5896 5640 -5639 0
-5639 5671 0
-5640 5672 0
-6664 6672 0
-6663 6679 0
-6664 6680 0
-6663 6695 0
-6664 6696 0
-7175 7183 0
-7176 7184 0
-7200 7184 7192 7176 -7175 0
-7216 7184 7208 7176 -7175 0
-7175 7191 0
-7176 7192 0
-7224 7192 7208 7176 -7175 0
-7175 7207 0
-7176 7208 0
-5692 1596 4668 572 -571 0
-571 4667 0
-5692 1596 5180 1084 -1083 0
-7228 3132 5180 1084 -1083 0
-1083 5179 0
-1084 5180 0
-6716 2620 6204 2108 -2107 0
-7228 3132 6204 2108 -2107 0
-2107 6203 0
-2108 6204 0
-4156 4668 0
-6716 4668 6204 4156 -4155 0
-4156 5180 0
-7228 5180 6204 4156 -4155 0
-4156 6204 0
-4380 4384 0
-5664 1568 5660 1564 -1563 0
-5692 1596 5660 1564 -1563 0
-7708 3612 5660 1564 -1563 0
-5660 1563 0
-1564 5660 0
-6688 2592 6684 2588 -2587 0
-6716 2620 6684 2588 -2587 0
-7708 3612 6684 2588 -2587 0
-5664 4640 5660 4636 -4635 0
-4636 4668 0
-4924 4668 4892 4636 -4635 0
-5660 4635 0
-4636 5660 0
-7708 5660 6684 4636 -4635 0
-4636 6684 0
-7200 3104 7196 3100 -3099 0
-7228 3132 7196 3100 -3099 0
-7708 3612 7196 3100 -3099 0
-7196 3099 0
-3100 7196 0
-5152 5147 0
-5148 5152 0
-5184 5152 5180 5148 -5147 0
-7200 5152 7196 5148 -5147 0
-5148 5180 0
-7228 5180 7196 5148 -5147 0
-5148 5660 0
-7708 5660 7196 5148 -5147 0
-7196 5147 0
-5148 7196 0
-6176 6171 0
-6172 6176 0
-6208 6176 6204 6172 -6171 0
-6688 6176 6684 6172 -6171 0
-7200 6176 7196 6172 -6171 0
-6204 6171 0
-6172 6204 0
-7228 6204 7196 6172 -6171 0
-6684 6171 0
-7708 6684 7196 6172 -6171 0
-7196 6171 0
-6172 7196 0
-1324 5420 0
-7724 3628 5676 1580 -1579 0
-1580 5676 0
-7724 3628 6700 2604 -2603 0
-4652 4668 0
-7724 5676 6700 4652 -4651 0
-4652 6700 0
-7216 3120 7212 3116 -3115 0
-7228 3132 7212 3116 -3115 0
-7724 3628 7212 3116 -3115 0
-7212 3115 0
-3116 7212 0
-5168 5163 0
-5164 5168 0
-5184 5168 5180 5164 -5163 0
-5680 5168 5676 5164 -5163 0
-7216 5168 7212 5164 -5163 0
-5180 5163 0
-5164 5180 0
-7724 5676 7212 5164 -5163 0
-7212 5163 0
-5164 7212 0
-6192 6187 0
-6188 6192 0
-6208 6192 6204 6188 -6187 0
-7216 6192 7212 6188 -6187 0
-6204 6187 0
-6188 6204 0
-7228 6204 7212 6188 -6187 0
-6700 6187 0
-7724 6700 7212 6188 -6187 0
-7212 6187 0
-6188 7212 0
-1804 5900 0
-4876 5004 0
-5404 5387 0
-5644 5648 0
-5680 5648 5676 5644 -5643 0
-5643 5659 0
-5644 5660 0
-5692 5660 5676 5644 -5643 0
-5643 5675 0
-5644 5676 0
-5644 5900 0
-6668 6672 0
-6668 6684 0
-6667 6699 0
-6668 6700 0
-7180 7184 0
-7200 7184 7196 7180 -7179 0
-7216 7184 7212 7180 -7179 0
-7179 7195 0
-7180 7196 0
-7228 7196 7212 7180 -7179 0
-7179 7211 0
-7180 7212 0
-5692 1596 5684 1588 -1587 0
-7732 3636 5684 1588 -1587 0
-5684 1587 0
-1588 5684 0
-7732 3636 6708 2612 -2611 0
-4660 5684 0
-7732 5684 6708 4660 -4659 0
-6708 4659 0
-7224 3128 7220 3124 -3123 0
-7228 3132 7220 3124 -3123 0
-7732 3636 7220 3124 -3123 0
-7220 3123 0
-3124 7220 0
-5172 5176 0
-5184 5176 5180 5172 -5171 0
-7224 5176 7220 5172 -5171 0
-5172 5180 0
-5692 5180 5684 5172 -5171 0
-7228 5180 7220 5172 -5171 0
-5172 5684 0
-7732 5684 7220 5172 -5171 0
-7220 5171 0
-5172 7220 0
-6196 6200 0
-6208 6200 6204 6196 -6195 0
-7224 6200 7220 6196 -6195 0
-6204 6195 0
-6196 6204 0
-7228 6204 7220 6196 -6195 0
-6708 6195 0
-7732 6708 7220 6196 -6195 0
-7220 6195 0
-6196 7220 0
-4884 5012 0
-5396 5404 0
-5396 5428 0
-5652 5656 0
-5688 5656 5684 5652 -5651 0
-5652 5660 0
-5692 5660 5684 5652 -5651 0
-5916 5660 5908 5652 -5651 0
-5652 5684 0
-5652 5908 0
-6676 6680 0
-6676 6684 0
-6675 6707 0
-6676 6708 0
-7188 7192 0
-7200 7192 7196 7188 -7187 0
-7224 7192 7220 7188 -7187 0
-7188 7196 0
-7228 7196 7220 7188 -7187 0
-7187 7219 0
-7188 7220 0
-5412 5924 0
-5668 5672 0
-5680 5672 5676 5668 -5667 0
-5668 5676 0
-5692 5676 5684 5668 -5667 0
-5668 5684 0
-6692 6696 0
-6692 6700 0
-7204 7208 0
-7216 7208 7212 7204 -7203 0
-7224 7208 7220 7204 -7203 0
-7204 7212 0
-7228 7212 7220 7204 -7203 0
-7204 7220 0
-4996 5000 0
-4996 5004 0
-5892 5896 0
-5892 5900 0
-5892 5908 0
-7684 7688 0
-7684 7692 0
-7684 7700 0
-7684 7716 0
-576 4672 0
-1088 5184 0
-2112 6208 0
-7712 5664 6688 4640 -4639 0
-4640 6688 0
-7712 3616 7200 3104 -3103 0
-3104 7200 0
-5152 7200 0
-6176 6688 0
-7712 6688 7200 6176 -6175 0
-6176 7200 0
-4400 4912 0
-1584 5680 0
-7728 3632 6704 2608 -2607 0
-4656 5680 0
-7728 5680 6704 4656 -4655 0
-7728 3632 7216 3120 -3119 0
-3120 7216 0
-7728 5680 7216 5168 -5167 0
-5168 7216 0
-6192 7216 0
-1808 5904 0
-5648 5664 0
-5648 5680 0
-6672 6688 0
-6672 6704 0
-7184 7200 0
-7184 7216 0
-1592 5688 0
-7736 3640 6712 2616 -2615 0
-2616 6712 0
-3128 7224 0
-5176 5688 0
-7736 5688 7224 5176 -5175 0
-5176 7224 0
-6200 7224 0
-1816 5912 0
-5656 5664 0
-7192 7200 0
-7232 7200 7224 7192 -7191 0
-7192 7224 0
-7208 7216 0
-7208 7224 0
-1928 6024 0
-7688 7696 0
-7688 7704 0
-7688 7720 0
-1596 5692 0
-5948 4924 5692 4668 -4667 0
-4668 5692 0
-7740 5692 6716 4668 -4667 0
-4668 6716 0
-7740 3644 7228 3132 -3131 0
-3132 7228 0
-5180 5692 0
-5180 7228 0
-6204 7228 0
-1820 5916 0
-7196 7200 0
-7232 7200 7228 7196 -7195 0
-7196 7228 0
-1836 5932 0
-5696 5680 5692 5676 -5675 0
-5676 5692 0
-6700 6716 0
-7212 7216 0
-7232 7216 7228 7212 -7211 0
-7212 7228 0
-7692 7708 0
-7692 7724 0
-5684 5688 0
-5684 5692 0
-6708 6712 0
-7220 7224 0
-7220 7228 0
-7700 7732 0
-4672 5696 0
-5184 7232 0
-7704 7712 0
-7720 7728 0
-7720 7736 0
-5932 5948 0
-7724 7740 0
-8194 0
-8199 0
-8203 0
-8211 0
-8227 0
-9219 0
-10243 0
-12291 0
-8208 0
-8216 0
-8232 0
-9224 0
-10248 0
-12296 0
-8220 0
-8236 0
-8716 0
-9228 0
-10252 0
-12300 0
-8244 0
-8724 0
-9236 0
-10260 0
-12308 0
-9252 0
-10276 0
-12324 0
-9732 0
-11268 0
-13316 0
-14340 0
-12304 12303 0
-12328 12327 0
-9222 1030 8198 6 -5 0
-10246 2054 8198 6 -5 0
-12294 4102 8198 6 -5 0
-9226 1034 8202 10 -9 0
-10250 2058 8202 10 -9 0
-12298 4106 8202 10 -9 0
-10258 2066 8210 18 -17 0
-12306 4114 8210 18 -17 0
-9250 1058 8226 34 -33 0
-10274 2082 8226 34 -33 0
-12322 4130 8226 34 -33 0
-8206 8198 8202 8194 -8193 0
-8214 8198 8210 8194 -8193 0
-8230 8198 8226 8194 -8193 0
-8218 8202 8210 8194 -8193 0
-8234 8202 8226 8194 -8193 0
-8242 8210 8226 8194 -8193 0
-9218 8193 0
-9231 1039 8207 15 -14 0
-10255 2063 8207 15 -14 0
-12303 4111 8207 15 -14 0
-14 8206 0
-9239 1047 8215 23 -22 0
-10263 2071 8215 23 -22 0
-12311 4119 8215 23 -22 0
-22 8214 0
-9255 1063 8231 39 -38 0
-10279 2087 8231 39 -38 0
-12327 4135 8231 39 -38 0
-38 8230 0
-9239 1047 9223 1031 -1030 0
-9255 1063 9223 1031 -1030 0
-11271 3079 9223 1031 -1030 0
-13319 5127 9223 1031 -1030 0
-9223 1030 0
-10255 2063 10247 2055 -2054 0
-10263 2071 10247 2055 -2054 0
-10279 2087 10247 2055 -2054 0
-11271 3079 10247 2055 -2054 0
-14343 6151 10247 2055 -2054 0
-10247 2054 0
-12303 4111 12295 4103 -4102 0
-12311 4119 12295 4103 -4102 0
-12327 4135 12295 4103 -4102 0
-13319 5127 12295 4103 -4102 0
-14343 6151 12295 4103 -4102 0
-12295 4102 0
-8207 8198 0
-8223 8207 8215 8199 -8198 0
-8239 8207 8231 8199 -8198 0
-12303 8207 12295 8199 -8198 0
-8215 8198 0
-8247 8215 8231 8199 -8198 0
-9239 8215 9223 8199 -8198 0
-10263 8215 10247 8199 -8198 0
-12311 8215 12295 8199 -8198 0
-8231 8198 0
-12327 8231 12295 8199 -8198 0
-9223 8198 0
-13319 9223 12295 8199 -8198 0
-10247 8198 0
-14343 10247 12295 8199 -8198 0
-12295 8198 0
-9243 1051 8219 27 -26 0
-10267 2075 8219 27 -26 0
-12315 4123 8219 27 -26 0
-26 8218 0
-8747 555 8235 43 -42 0
-9259 1067 8235 43 -42 0
-10283 2091 8235 43 -42 0
-12331 4139 8235 43 -42 0
-42 8234 0
-11275 3083 9227 1035 -1034 0
-13323 5131 9227 1035 -1034 0
-9227 1034 0
-10255 2063 10251 2059 -2058 0
-10267 2075 10251 2059 -2058 0
-10283 2091 10251 2059 -2058 0
-11275 3083 10251 2059 -2058 0
-14347 6155 10251 2059 -2058 0
-10251 2058 0
-12303 4111 12299 4107 -4106 0
-12315 4123 12299 4107 -4106 0
-12331 4139 12299 4107 -4106 0
-13323 5131 12299 4107 -4106 0
-14347 6155 12299 4107 -4106 0
-12299 4106 0
-8207 8202 0
-8223 8207 8219 8203 -8202 0
-8239 8207 8235 8203 -8202 0
-8719 8207 8715 8203 -8202 0
-9231 8207 9227 8203 -8202 0
-12303 8207 12299 8203 -8202 0
-8219 8202 0
-8251 8219 8235 8203 -8202 0
-12315 8219 12299 8203 -8202 0
-8235 8202 0
-9259 8235 9227 8203 -8202 0
-10283 8235 10251 8203 -8202 0
-12331 8235 12299 8203 -8202 0
-8715 8202 0
-9227 8202 0
-13323 9227 12299 8203 -8202 0
-10251 8202 0
-14347 10251 12299 8203 -8202 0
-12299 8202 0
-9267 1075 8243 51 -50 0
-10291 2099 8243 51 -50 0
-12339 4147 8243 51 -50 0
-50 8242 0
-9267 1075 9235 1043 -1042 0
-13331 5139 9235 1043 -1042 0
-9235 1042 0
-10263 2071 10259 2067 -2066 0
-10267 2075 10259 2067 -2066 0
-10291 2099 10259 2067 -2066 0
-11283 3091 10259 2067 -2066 0
-14355 6163 10259 2067 -2066 0
-10259 2066 0
-12311 4119 12307 4115 -4114 0
-12315 4123 12307 4115 -4114 0
-12339 4147 12307 4115 -4114 0
-13331 5139 12307 4115 -4114 0
-14355 6163 12307 4115 -4114 0
-12307 4114 0
-8215 8210 0
-8223 8215 8219 8211 -8210 0
-8247 8215 8243 8211 -8210 0
-10263 8215 10259 8211 -8210 0
-12311 8215 12307 8211 -8210 0
-8219 8210 0
-8251 8219 8243 8211 -8210 0
-8731 8219 8723 8211 -8210 0
-9243 8219 9235 8211 -8210 0
-10267 8219 10259 8211 -8210 0
-12315 8219 12307 8211 -8210 0
-8243 8210 0
-12339 8243 12307 8211 -8210 0
-10259 8210 0
-14355 10259 12307 8211 -8210 0
-12307 8210 0
-8995 803 8739 547 -546 0
-9255 1063 9251 1059 -1058 0
-11299 3107 9251 1059 -1058 0
-13347 5155 9251 1059 -1058 0
-9251 1058 0
-10279 2087 10275 2083 -2082 0
-10283 2091 10275 2083 -2082 0
-10291 2099 10275 2083 -2082 0
-11299 3107 10275 2083 -2082 0
-14371 6179 10275 2083 -2082 0
-10275 2082 0
-12327 4135 12323 4131 -4130 0
-12331 4139 12323 4131 -4130 0
-12339 4147 12323 4131 -4130 0
-13347 5155 12323 4131 -4130 0
-14371 6179 12323 4131 -4130 0
-12323 4130 0
-8231 8226 0
-8239 8231 8235 8227 -8226 0
-8247 8231 8243 8227 -8226 0
-10279 8231 10275 8227 -8226 0
-12327 8231 12323 8227 -8226 0
-8235 8226 0
-8251 8235 8243 8227 -8226 0
-10283 8235 10275 8227 -8226 0
-12331 8235 12323 8227 -8226 0
-8243 8226 0
-12339 8243 12323 8227 -8226 0
-8226 8738 0
-9251 8226 0
-13347 9251 12323 8227 -8226 0
-10275 8226 0
-14371 10275 12323 8227 -8226 0
-12323 8226 0
-9218 9222 0
-9231 9223 9227 9219 -9218 0
-9218 9226 0
-9259 9227 9251 9219 -9218 0
-9739 9227 9731 9219 -9218 0
-9747 9235 9731 9219 -9218 0
-9218 9250 0
-11267 9218 0
-10242 10246 0
-10263 10247 10259 10243 -10242 0
-10279 10247 10275 10243 -10242 0
-10242 10250 0
-10267 10251 10259 10243 -10242 0
-10242 10258 0
-10242 10274 0
-11267 10242 0
-12290 12294 0
-12303 12295 12299 12291 -12290 0
-12311 12295 12307 12291 -12290 0
-12327 12295 12323 12291 -12290 0
-12290 12298 0
-12315 12299 12307 12291 -12290 0
-12331 12299 12323 12291 -12290 0
-12290 12306 0
-12339 12307 12323 12291 -12290 0
-12290 12322 0
-13315 12290 0
-9248 1056 8224 32 -31 0
-10272 2080 8224 32 -31 0
-12320 4128 8224 32 -31 0
-31 8223 0
-8496 304 8240 48 -47 0
-8752 560 8240 48 -47 0
-9264 1072 8240 48 -47 0
-10288 2096 8240 48 -47 0
-12336 4144 8240 48 -47 0
-47 8239 0
-8976 784 8464 272 -271 0
-8976 784 8720 528 -527 0
-9744 1552 8720 528 -527 0
-527 8719 0
-9744 1552 9232 1040 -1039 0
-11280 3088 9232 1040 -1039 0
-13328 5136 9232 1040 -1039 0
-9232 1039 0
-10272 2080 10256 2064 -2063 0
-10288 2096 10256 2064 -2063 0
-11280 3088 10256 2064 -2063 0
-14352 6160 10256 2064 -2063 0
-2063 10255 0
-10256 2063 0
-12320 4128 12304 4112 -4111 0
-12336 4144 12304 4112 -4111 0
-13327 5135 12303 4111 -4110 0
-13328 5136 12304 4112 -4111 0
-14351 6159 12303 4111 -4110 0
-14352 6160 12304 4112 -4111 0
-4111 12303 0
-12304 4111 0
-8224 8207 0
-8256 8224 8240 8208 -8207 0
-9248 8224 9232 8208 -8207 0
-10272 8224 10256 8208 -8207 0
-12320 8224 12304 8208 -8207 0
-8240 8207 0
-8752 8240 8720 8208 -8207 0
-9264 8240 9232 8208 -8207 0
-10288 8240 10256 8208 -8207 0
-12336 8240 12304 8208 -8207 0
-8720 8207 0
-9232 8207 0
-11279 9231 10255 8207 -8206 0
-13328 9232 12304 8208 -8207 0
-8207 10255 0
-10256 8207 0
-14352 10256 12304 8208 -8207 0
-8207 12303 0
-12304 8207 0
-8760 568 8248 56 -55 0
-9272 1080 8248 56 -55 0
-10296 2104 8248 56 -55 0
-12344 4152 8248 56 -55 0
-55 8247 0
-8736 544 8728 536 -535 0
-8984 792 8728 536 -535 0
-9272 1080 9240 1048 -1047 0
-11288 3096 9240 1048 -1047 0
-1047 9239 0
-9240 1047 0
-10272 2080 10264 2072 -2071 0
-10296 2104 10264 2072 -2071 0
-11288 3096 10264 2072 -2071 0
-14359 6167 10263 2071 -2070 0
-14360 6168 10264 2072 -2071 0
-2071 10263 0
-10264 2071 0
-12320 4128 12312 4120 -4119 0
-12344 4152 12312 4120 -4119 0
-13336 5144 12312 4120 -4119 0
-14359 6167 12311 4119 -4118 0
-14360 6168 12312 4120 -4119 0
-4119 12311 0
-12312 4119 0
-8224 8215 0
-8256 8224 8248 8216 -8215 0
-9248 8224 9240 8216 -8215 0
-10272 8224 10264 8216 -8215 0
-12320 8224 12312 8216 -8215 0
-8248 8215 0
-9272 8248 9240 8216 -8215 0
-12344 8248 12312 8216 -8215 0
-8728 8215 0
-8215 9239 0
-9240 8215 0
-11287 9239 10263 8215 -8214 0
-11288 9240 10264 8216 -8215 0
-13336 9240 12312 8216 -8215 0
-8215 10263 0
-10264 8215 0
-14359 10263 12311 8215 -8214 0
-14360 10264 12312 8216 -8215 0
-8215 12311 0
-12312 8215 0
-8504 312 8488 296 -295 0
-8752 560 8744 552 -551 0
-9000 808 8744 552 -551 0
-9768 1576 8744 552 -551 0
-9264 1072 9256 1064 -1063 0
-9272 1080 9256 1064 -1063 0
-9512 1320 9256 1064 -1063 0
-9768 1576 9256 1064 -1063 0
-11303 3111 9255 1063 -1062 0
-11304 3112 9256 1064 -1063 0
-13352 5160 9256 1064 -1063 0
-1063 9255 0
-9256 1063 0
-10288 2096 10280 2088 -2087 0
-10296 2104 10280 2088 -2087 0
-11304 3112 10280 2088 -2087 0
-14375 6183 10279 2087 -2086 0
-14376 6184 10280 2088 -2087 0
-2087 10279 0
-10280 2087 0
-12336 4144 12328 4136 -4135 0
-12344 4152 12328 4136 -4135 0
-13352 5160 12328 4136 -4135 0
-14375 6183 12327 4135 -4134 0
-14376 6184 12328 4136 -4135 0
-4135 12327 0
-12328 4135 0
-8240 8231 0
-8256 8240 8248 8232 -8231 0
-10288 8240 10280 8232 -8231 0
-12336 8240 12328 8232 -8231 0
-8248 8231 0
-9272 8248 9256 8232 -8231 0
-10296 8248 10280 8232 -8231 0
-12344 8248 12328 8232 -8231 0
-8744 8231 0
-8231 9255 0
-9256 8231 0
-11303 9255 10279 8231 -8230 0
-13351 9255 12327 8231 -8230 0
-13352 9256 12328 8232 -8231 0
-8231 10279 0
-10280 8231 0
-14375 10279 12327 8231 -8230 0
-14376 10280 12328 8232 -8231 0
-8231 12327 0
-12328 8231 0
-15368 7176 11272 3080 -3079 0
-11272 3079 0
-13328 5136 13320 5128 -5127 0
-13336 5144 13320 5128 -5127 0
-13352 5160 13320 5128 -5127 0
-15368 7176 13320 5128 -5127 0
-13320 5127 0
-9223 9231 0
-9232 9223 0
-9247 9231 9239 9223 -9222 0
-9223 9239 0
-9240 9223 0
-13336 9240 13320 9224 -9223 0
-9223 9255 0
-9256 9223 0
-11304 9256 11272 9224 -9223 0
-13352 9256 13320 9224 -9223 0
-15368 11272 13320 9224 -9223 0
-13320 9223 0
-14352 6160 14344 6152 -6151 0
-14360 6168 14344 6152 -6151 0
-14376 6184 14344 6152 -6151 0
-15368 7176 14344 6152 -6151 0
-14344 6151 0
-10247 10255 0
-10256 10247 0
-10271 10255 10263 10247 -10246 0
-10272 10256 10264 10248 -10247 0
-10288 10256 10280 10248 -10247 0
-14352 10256 14344 10248 -10247 0
-10247 10263 0
-10264 10247 0
-10295 10263 10279 10247 -10246 0
-10296 10264 10280 10248 -10247 0
-11288 10264 11272 10248 -10247 0
-14360 10264 14344 10248 -10247 0
-10247 10279 0
-10280 10247 0
-11304 10280 11272 10248 -10247 0
-14376 10280 14344 10248 -10247 0
-11272 10247 0
-15368 11272 14344 10248 -10247 0
-14344 10247 0
-12295 12303 0
-12304 12295 0
-12319 12303 12311 12295 -12294 0
-12320 12304 12312 12296 -12295 0
-12335 12303 12327 12295 -12294 0
-12336 12304 12328 12296 -12295 0
-13328 12304 13320 12296 -12295 0
-14352 12304 14344 12296 -12295 0
-12295 12311 0
-12312 12295 0
-12343 12311 12327 12295 -12294 0
-12344 12312 12328 12296 -12295 0
-13336 12312 13320 12296 -12295 0
-14360 12312 14344 12296 -12295 0
-12295 12327 0
-12328 12295 0
-14376 12328 14344 12296 -12295 0
-13320 12295 0
-15368 13320 14344 12296 -12295 0
-14344 12295 0
-8764 572 8252 60 -59 0
-9276 1084 8252 60 -59 0
-10300 2108 8252 60 -59 0
-12348 4156 8252 60 -59 0
-59 8251 0
-8764 572 8732 540 -539 0
-539 8731 0
-9276 1084 9244 1052 -1051 0
-11291 3099 9243 1051 -1050 0
-11292 3100 9244 1052 -1051 0
-13340 5148 9244 1052 -1051 0
-1051 9243 0
-9244 1051 0
-10272 2080 10268 2076 -2075 0
-10300 2108 10268 2076 -2075 0
-11291 3099 10267 2075 -2074 0
-11292 3100 10268 2076 -2075 0
-14363 6171 10267 2075 -2074 0
-14364 6172 10268 2076 -2075 0
-2075 10267 0
-10268 2075 0
-12320 4128 12316 4124 -4123 0
-12348 4156 12316 4124 -4123 0
-13339 5147 12315 4123 -4122 0
-13340 5148 12316 4124 -4123 0
-14363 6171 12315 4123 -4122 0
-14364 6172 12316 4124 -4123 0
-4123 12315 0
-12316 4123 0
-8224 8219 0
-8256 8224 8252 8220 -8219 0
-8736 8224 8732 8220 -8219 0
-9248 8224 9244 8220 -8219 0
-10272 8224 10268 8220 -8219 0
-12320 8224 12316 8220 -8219 0
-8252 8219 0
-9276 8252 9244 8220 -8219 0
-10300 8252 10268 8220 -8219 0
-12348 8252 12316 8220 -8219 0
-8732 8219 0
-12828 8732 12316 8220 -8219 0
-8219 9243 0
-9244 8219 0
-11292 9244 10268 8220 -8219 0
-13339 9243 12315 8219 -8218 0
-13340 9244 12316 8220 -8219 0
-8219 10267 0
-10268 8219 0
-14363 10267 12315 8219 -8218 0
-14364 10268 12316 8220 -8219 0
-8219 12315 0
-12316 8219 0
-9004 812 8748 556 -555 0
-11308 3116 9260 1068 -1067 0
-13355 5163 9259 1067 -1066 0
-1067 9259 0
-9260 1067 0
-10288 2096 10284 2092 -2091 0
-10300 2108 10284 2092 -2091 0
-11307 3115 10283 2091 -2090 0
-11308 3116 10284 2092 -2091 0
-14379 6187 10283 2091 -2090 0
-14380 6188 10284 2092 -2091 0
-2091 10283 0
-10284 2091 0
-12336 4144 12332 4140 -4139 0
-12348 4156 12332 4140 -4139 0
-12844 4652 12332 4140 -4139 0
-13355 5163 12331 4139 -4138 0
-13356 5164 12332 4140 -4139 0
-14379 6187 12331 4139 -4138 0
-14380 6188 12332 4140 -4139 0
-4139 12331 0
-12332 4139 0
-8240 8235 0
-8256 8240 8252 8236 -8235 0
-8752 8240 8748 8236 -8235 0
-10288 8240 10284 8236 -8235 0
-12336 8240 12332 8236 -8235 0
-8252 8235 0
-9276 8252 9260 8236 -8235 0
-10300 8252 10284 8236 -8235 0
-12348 8252 12332 8236 -8235 0
-8235 8747 0
-8748 8235 0
-8235 9259 0
-9260 8235 0
-13355 9259 12331 8235 -8234 0
-13356 9260 12332 8236 -8235 0
-8235 10283 0
-10284 8235 0
-14380 10284 12332 8236 -8235 0
-8235 12331 0
-12332 8235 0
-9756 1564 9740 1548 -1547 0
-9996 1804 9740 1548 -1547 0
-1547 9739 0
-9740 1547 0
-10768 8720 10764 8716 -8715 0
-9740 8715 0
-11280 3088 11276 3084 -3083 0
-11292 3100 11276 3084 -3083 0
-11308 3116 11276 3084 -3083 0
-11788 3596 11276 3084 -3083 0
-15372 7180 11276 3084 -3083 0
-11276 3083 0
-13340 5148 13324 5132 -5131 0
-15372 7180 13324 5132 -5131 0
-13324 5131 0
-9227 9231 0
-9248 9232 9244 9228 -9227 0
-9264 9232 9260 9228 -9227 0
-9227 9243 0
-9276 9244 9260 9228 -9227 0
-9756 9244 9740 9228 -9227 0
-9227 9259 0
-9260 9227 0
-13356 9260 13324 9228 -9227 0
-11276 9227 0
-15372 11276 13324 9228 -9227 0
-13324 9227 0
-14352 6160 14348 6156 -6155 0
-14364 6172 14348 6156 -6155 0
-14380 6188 14348 6156 -6155 0
-14860 6668 14348 6156 -6155 0
-15372 7180 14348 6156 -6155 0
-14348 6155 0
-10251 10255 0
-10256 10251 0
-10288 10256 10284 10252 -10251 0
-11280 10256 11276 10252 -10251 0
-14352 10256 14348 10252 -10251 0
-10251 10267 0
-10268 10251 0
-10300 10268 10284 10252 -10251 0
-14364 10268 14348 10252 -10251 0
-10251 10283 0
-10284 10251 0
-14380 10284 14348 10252 -10251 0
-11276 10251 0
-15372 11276 14348 10252 -10251 0
-14348 10251 0
-12299 12303 0
-12304 12299 0
-12319 12303 12315 12299 -12298 0
-12320 12304 12316 12300 -12299 0
-12336 12304 12332 12300 -12299 0
-13328 12304 13324 12300 -12299 0
-14352 12304 14348 12300 -12299 0
-12299 12315 0
-12316 12299 0
-12347 12315 12331 12299 -12298 0
-12348 12316 12332 12300 -12299 0
-13340 12316 13324 12300 -12299 0
-14364 12316 14348 12300 -12299 0
-12299 12331 0
-12332 12299 0
-14380 12332 14348 12300 -12299 0
-13324 12299 0
-15372 13324 14348 12300 -12299 0
-14348 12299 0
-9012 820 8756 564 -563 0
-563 8755 0
-8756 563 0
-9276 1084 9268 1076 -1075 0
-11315 3123 9267 1075 -1074 0
-11316 3124 9268 1076 -1075 0
-9268 1075 0
-10296 2104 10292 2100 -2099 0
-11316 3124 10292 2100 -2099 0
-14387 6195 10291 2099 -2098 0
-14388 6196 10292 2100 -2099 0
-2099 10291 0
-10292 2099 0
-12344 4152 12340 4148 -4147 0
-12348 4156 12340 4148 -4147 0
-13363 5171 12339 4147 -4146 0
-13364 5172 12340 4148 -4147 0
-14387 6195 12339 4147 -4146 0
-14388 6196 12340 4148 -4147 0
-4147 12339 0
-12340 4147 0
-8248 8243 0
-8256 8248 8252 8244 -8243 0
-8760 8248 8756 8244 -8243 0
-9272 8248 9268 8244 -8243 0
-10296 8248 10292 8244 -8243 0
-12344 8248 12340 8244 -8243 0
-8252 8243 0
-8764 8252 8756 8244 -8243 0
-9276 8252 9268 8244 -8243 0
-10300 8252 10292 8244 -8243 0
-12348 8252 12340 8244 -8243 0
-8243 8755 0
-8756 8243 0
-9780 8756 9268 8244 -8243 0
-10804 8756 10292 8244 -8243 0
-8243 9267 0
-9268 8243 0
-11315 9267 10291 8243 -8242 0
-11316 9268 10292 8244 -8243 0
-13364 9268 12340 8244 -8243 0
-8243 10291 0
-10292 8243 0
-14388 10292 12340 8244 -8243 0
-8243 12339 0
-12340 8243 0
-9012 820 8980 788 -787 0
-10004 1812 9748 1556 -1555 0
-1555 9747 0
-8764 8732 8756 8724 -8723 0
-11316 3124 11284 3092 -3091 0
-11796 3604 11284 3092 -3091 0
-15380 7188 11284 3092 -3091 0
-11284 3091 0
-13340 5148 13332 5140 -5139 0
-15380 7188 13332 5140 -5139 0
-13332 5139 0
-9235 9239 0
-9248 9240 9244 9236 -9235 0
-9235 9243 0
-9235 9267 0
-11540 9492 11284 9236 -9235 0
-11284 9235 0
-15380 11284 13332 9236 -9235 0
-14360 6168 14356 6164 -6163 0
-14364 6172 14356 6164 -6163 0
-14388 6196 14356 6164 -6163 0
-15380 7188 14356 6164 -6163 0
-14356 6163 0
-10259 10263 0
-10272 10264 10268 10260 -10259 0
-10295 10263 10291 10259 -10258 0
-10296 10264 10292 10260 -10259 0
-14360 10264 14356 10260 -10259 0
-10259 10267 0
-10268 10259 0
-10299 10267 10291 10259 -10258 0
-10300 10268 10292 10260 -10259 0
-14364 10268 14356 10260 -10259 0
-10259 10291 0
-10292 10259 0
-14388 10292 14356 10260 -10259 0
-11284 10259 0
-15380 11284 14356 10260 -10259 0
-14356 10259 0
-12307 12311 0
-12312 12307 0
-12320 12312 12316 12308 -12307 0
-12344 12312 12340 12308 -12307 0
-13336 12312 13332 12308 -12307 0
-14360 12312 14356 12308 -12307 0
-12307 12315 0
-12316 12307 0
-12348 12316 12340 12308 -12307 0
-13340 12316 13332 12308 -12307 0
-14364 12316 14356 12308 -12307 0
-12307 12339 0
-12340 12307 0
-13364 12340 13332 12308 -12307 0
-14388 12340 14356 12308 -12307 0
-13332 12307 0
-15380 13332 14356 12308 -12307 0
-14356 12307 0
-9000 808 8996 804 -803 0
-9012 820 8996 804 -803 0
-9772 1580 9764 1572 -1571 0
-10020 1828 9764 1572 -1571 0
-8739 8747 0
-9003 8747 8995 8739 -8738 0
-11316 3124 11300 3108 -3107 0
-11812 3620 11300 3108 -3107 0
-15396 7204 11300 3108 -3107 0
-11300 3107 0
-13356 5164 13348 5156 -5155 0
-15396 7204 13348 5156 -5155 0
-13348 5155 0
-9251 9255 0
-9264 9256 9260 9252 -9251 0
-9251 9259 0
-13356 9260 13348 9252 -9251 0
-9268 9251 0
-9764 9251 0
-11300 9251 0
-15396 11300 13348 9252 -9251 0
-13348 9251 0
-14376 6184 14372 6180 -6179 0
-14380 6188 14372 6180 -6179 0
-14388 6196 14372 6180 -6179 0
-15396 7204 14372 6180 -6179 0
-14372 6179 0
-10275 10279 0
-10280 10275 0
-10288 10280 10284 10276 -10275 0
-10792 10280 10788 10276 -10275 0
-14376 10280 14372 10276 -10275 0
-10275 10283 0
-10284 10275 0
-10300 10284 10292 10276 -10275 0
-14380 10284 14372 10276 -10275 0
-10275 10291 0
-10292 10275 0
-11812 10788 11300 10276 -10275 0
-15396 11300 14372 10276 -10275 0
-14372 10275 0
-12323 12327 0
-12328 12323 0
-12335 12327 12331 12323 -12322 0
-12336 12328 12332 12324 -12323 0
-12343 12327 12339 12323 -12322 0
-12344 12328 12340 12324 -12323 0
-13352 12328 13348 12324 -12323 0
-14376 12328 14372 12324 -12323 0
-12323 12331 0
-12332 12323 0
-12348 12332 12340 12324 -12323 0
-13356 12332 13348 12324 -12323 0
-14380 12332 14372 12324 -12323 0
-12323 12339 0
-12340 12323 0
-14388 12340 14372 12324 -12323 0
-13348 12323 0
-15396 13348 14372 12324 -12323 0
-14372 12323 0
-9996 1804 9988 1796 -1795 0
-9744 9736 9740 9732 -9731 0
-11267 11271 0
-11267 11275 0
-11788 11276 11780 11268 -11267 0
-11267 11283 0
-11316 11284 11300 11268 -11267 0
-11267 11299 0
-15364 11267 0
-13315 13319 0
-13328 13320 13324 13316 -13315 0
-13352 13320 13348 13316 -13315 0
-13315 13323 0
-13340 13324 13332 13316 -13315 0
-13315 13331 0
-13315 13347 0
-15364 13315 0
-14339 14343 0
-14352 14344 14348 14340 -14339 0
-14360 14344 14356 14340 -14339 0
-14376 14344 14372 14340 -14339 0
-14339 14347 0
-14364 14348 14356 14340 -14339 0
-14380 14348 14372 14340 -14339 0
-14339 14355 0
-14388 14356 14372 14340 -14339 0
-14339 14371 0
-14884 14372 14852 14340 -14339 0
-15364 14339 0
-64 8256 0
-544 8736 0
-13344 5152 9248 1056 -1055 0
-1055 9247 0
-1056 9248 0
-11296 3104 10272 2080 -2079 0
-14368 6176 10272 2080 -2079 0
-2079 10271 0
-2080 10272 0
-13344 5152 12320 4128 -4127 0
-14368 6176 12320 4128 -4127 0
-4127 12319 0
-4128 12320 0
-8224 8736 0
-8224 9248 0
-13344 9248 12320 8224 -8223 0
-8224 10272 0
-14368 10272 12320 8224 -8223 0
-8224 12320 0
-560 8752 0
-11312 3120 10288 2096 -2095 0
-14384 6192 10288 2096 -2095 0
-2095 10287 0
-2096 10288 0
-13360 5168 12336 4144 -4143 0
-14384 6192 12336 4144 -4143 0
-4143 12335 0
-4144 12336 0
-8240 8752 0
-8240 9264 0
-11312 9264 10288 8240 -8239 0
-13360 9264 12336 8240 -8239 0
-8240 10288 0
-14384 10288 12336 8240 -8239 0
-8240 12336 0
-10000 1808 8976 784 -783 0
-8464 8496 0
-8720 8752 0
-8720 8976 0
-15376 7184 11280 3088 -3087 0
-3088 11280 0
-13344 5152 13328 5136 -5135 0
-15376 7184 13328 5136 -5135 0
-5136 13328 0
-9280 9248 9264 9232 -9231 0
-9264 9231 0
-9232 9264 0
-9232 9744 0
-11280 9231 0
-9232 11280 0
-14368 6176 14352 6160 -6159 0
-14384 6192 14352 6160 -6159 0
-15376 7184 14352 6160 -6159 0
-14352 6159 0
-6160 14352 0
-10272 10255 0
-10256 10272 0
-10304 10272 10288 10256 -10255 0
-10784 10272 10768 10256 -10255 0
-10288 10255 0
-10256 10288 0
-14384 10288 14352 10256 -10255 0
-15376 11280 14352 10256 -10255 0
-14352 10255 0
-10256 14352 0
-12320 12303 0
-12304 12320 0
-12352 12320 12336 12304 -12303 0
-13344 12320 13328 12304 -12303 0
-14368 12320 14352 12304 -12303 0
-12336 12303 0
-12304 12336 0
-13360 12336 13328 12304 -12303 0
-14384 12336 14352 12304 -12303 0
-13328 12303 0
-12304 13328 0
-15376 13328 14352 12304 -12303 0
-14352 12303 0
-12304 14352 0
-568 8760 0
-11320 3128 9272 1080 -1079 0
-1080 9272 0
-11320 3128 10296 2104 -2103 0
-14392 6200 10296 2104 -2103 0
-2103 10295 0
-2104 10296 0
-13368 5176 12344 4152 -4151 0
-14392 6200 12344 4152 -4151 0
-4151 12343 0
-4152 12344 0
-8248 8504 0
-8248 9272 0
-13368 9272 12344 8248 -8247 0
-8248 10296 0
-14392 10296 12344 8248 -8247 0
-8248 12344 0
-8728 8760 0
-13344 5152 13336 5144 -5143 0
-15384 7192 13336 5144 -5143 0
-5144 13336 0
-9248 9239 0
-9240 9248 0
-9280 9248 9272 9240 -9239 0
-11296 9248 11288 9240 -9239 0
-13344 9248 13336 9240 -9239 0
-9240 9272 0
-11320 9272 11288 9240 -9239 0
-11288 9239 0
-15384 11288 13336 9240 -9239 0
-13336 9239 0
-14368 6176 14360 6168 -6167 0
-14392 6200 14360 6168 -6167 0
-15384 7192 14360 6168 -6167 0
-14360 6167 0
-6168 14360 0
-10272 10263 0
-10264 10272 0
-10304 10272 10296 10264 -10263 0
-10264 10296 0
-14392 10296 14360 10264 -10263 0
-10264 11288 0
-15384 11288 14360 10264 -10263 0
-14360 10263 0
-10264 14360 0
-12320 12311 0
-12312 12320 0
-12352 12320 12344 12312 -12311 0
-14368 12320 14360 12312 -12311 0
-12344 12311 0
-12312 12344 0
-14392 12344 14360 12312 -12311 0
-15384 13336 14360 12312 -12311 0
-14360 12311 0
-12312 14360 0
-8488 9512 0
-2600 10792 0
-8744 9000 0
-15400 7208 11304 3112 -3111 0
-13360 5168 13352 5160 -5159 0
-13368 5176 13352 5160 -5159 0
-15400 7208 13352 5160 -5159 0
-5160 13352 0
-9256 9264 0
-9280 9264 9272 9256 -9255 0
-9256 9272 0
-11304 9255 0
-9256 11304 0
-15400 11304 13352 9256 -9255 0
-9256 13352 0
-14384 6192 14376 6184 -6183 0
-14392 6200 14376 6184 -6183 0
-15400 7208 14376 6184 -6183 0
-14376 6183 0
-6184 14376 0
-10280 10288 0
-10304 10288 10296 10280 -10279 0
-14384 10288 14376 10280 -10279 0
-10296 10279 0
-10280 10296 0
-14392 10296 14376 10280 -10279 0
-15400 11304 14376 10280 -10279 0
-14376 10279 0
-10280 14376 0
-12336 12327 0
-12328 12336 0
-12352 12336 12344 12328 -12327 0
-14384 12336 14376 12328 -12327 0
-12344 12327 0
-12328 12344 0
-14392 12344 14376 12328 -12327 0
-15400 13352 14376 12328 -12327 0
-14376 12327 0
-12328 14376 0
-9736 9768 0
-11271 11279 0
-11272 11280 0
-11271 11287 0
-11272 11288 0
-11271 11303 0
-13319 13327 0
-13320 13328 0
-13344 13328 13336 13320 -13319 0
-13320 13336 0
-13319 13351 0
-13320 13352 0
-14343 14351 0
-14344 14352 0
-14368 14352 14360 14344 -14343 0
-14384 14352 14376 14344 -14343 0
-14343 14359 0
-14344 14360 0
-14392 14360 14376 14344 -14343 0
-14343 14375 0
-14344 14376 0
-572 8764 0
-11324 3132 9276 1084 -1083 0
-13372 5180 9276 1084 -1083 0
-1083 9275 0
-1084 9276 0
-11324 3132 10300 2108 -2107 0
-14396 6204 10300 2108 -2107 0
-2107 10299 0
-2108 10300 0
-13372 5180 12348 4156 -4155 0
-14396 6204 12348 4156 -4155 0
-4155 12347 0
-4156 12348 0
-8252 8764 0
-8252 9276 0
-11324 9276 10300 8252 -8251 0
-8252 10300 0
-14396 10300 12348 8252 -8251 0
-8252 12348 0
-1564 9756 0
-8732 8764 0
-12860 8764 12828 8732 -8731 0
-15388 7196 11292 3100 -3099 0
-3100 11292 0
-13372 5180 13340 5148 -5147 0
-15388 7196 13340 5148 -5147 0
-13340 5147 0
-5148 13340 0
-9248 9243 0
-9244 9248 0
-9280 9248 9276 9244 -9243 0
-9244 9276 0
-11324 9276 11292 9244 -9243 0
-9244 9756 0
-11292 9243 0
-9244 11292 0
-9244 13340 0
-14368 6176 14364 6172 -6171 0
-14396 6204 14364 6172 -6171 0
-15388 7196 14364 6172 -6171 0
-14364 6171 0
-6172 14364 0
-10268 10272 0
-10304 10272 10300 10268 -10267 0
-11296 10272 11292 10268 -10267 0
-14368 10272 14364 10268 -10267 0
-10300 10267 0
-10268 10300 0
-14396 10300 14364 10268 -10267 0
-10268 11292 0
-15388 11292 14364 10268 -10267 0
-14364 10267 0
-10268 14364 0
-12320 12315 0
-12316 12320 0
-12352 12320 12348 12316 -12315 0
-14368 12320 14364 12316 -12315 0
-12348 12315 0
-12316 12348 0
-14396 12348 14364 12316 -12315 0
-12316 13340 0
-14364 12315 0
-12316 14364 0
-12860 4668 12844 4652 -4651 0
-9004 8747 0
-8748 9772 0
-11324 3132 11308 3116 -3115 0
-15404 7212 11308 3116 -3115 0
-11308 3115 0
-13372 5180 13356 5164 -5163 0
-15404 7212 13356 5164 -5163 0
-5164 13356 0
-9260 9264 0
-9276 9259 0
-9260 9276 0
-11324 9276 11308 9260 -9259 0
-13356 9259 0
-9260 13356 0
-14384 6192 14380 6188 -6187 0
-14396 6204 14380 6188 -6187 0
-15404 7212 14380 6188 -6187 0
-14380 6187 0
-6188 14380 0
-10284 10288 0
-10304 10288 10300 10284 -10283 0
-10284 10300 0
-14396 10300 14380 10284 -10283 0
-15404 11308 14380 10284 -10283 0
-14380 10283 0
-10284 14380 0
-12336 12331 0
-12332 12336 0
-12352 12336 12348 12332 -12331 0
-14384 12336 14380 12332 -12331 0
-12348 12331 0
-12332 12348 0
-13372 12348 13356 12332 -12331 0
-14396 12348 14380 12332 -12331 0
-13356 12331 0
-12332 13356 0
-15404 13356 14380 12332 -12331 0
-14380 12331 0
-12332 14380 0
-10028 1836 9996 1804 -1803 0
-3596 11788 0
-9740 9744 0
-9740 9996 0
-10764 11788 0
-11276 11280 0
-11792 11280 11788 11276 -11275 0
-11275 11291 0
-11276 11292 0
-11275 11307 0
-11276 11308 0
-13324 13328 0
-13344 13328 13340 13324 -13323 0
-13360 13328 13356 13324 -13323 0
-13323 13339 0
-13323 13355 0
-13324 13356 0
-14348 14352 0
-14368 14352 14364 14348 -14347 0
-14384 14352 14380 14348 -14347 0
-14347 14363 0
-14348 14364 0
-14396 14364 14380 14348 -14347 0
-14347 14379 0
-14348 14380 0
-13876 5684 9780 1588 -1587 0
-8756 8764 0
-9020 8764 9012 8756 -8755 0
-8756 9012 0
-11320 3128 11316 3124 -3123 0
-15412 7220 11316 3124 -3123 0
-13372 5180 13364 5172 -5171 0
-15412 7220 13364 5172 -5171 0
-5172 13364 0
-9268 9272 0
-9280 9272 9276 9268 -9267 0
-9276 9267 0
-9268 9276 0
-11316 9267 0
-9268 11316 0
-13364 9267 0
-14392 6200 14388 6196 -6195 0
-14396 6204 14388 6196 -6195 0
-15412 7220 14388 6196 -6195 0
-14388 6195 0
-6196 14388 0
-10296 10291 0
-10292 10296 0
-10304 10296 10300 10292 -10291 0
-14392 10296 14388 10292 -10291 0
-10292 10300 0
-11324 10300 11316 10292 -10291 0
-14396 10300 14388 10292 -10291 0
-15412 11316 14388 10292 -10291 0
-10292 14388 0
-12344 12339 0
-12340 12344 0
-12352 12344 12348 12340 -12339 0
-14392 12344 14388 12340 -12339 0
-12348 12339 0
-12340 12348 0
-14396 12348 14388 12340 -12339 0
-12340 12852 0
-15412 13364 14388 12340 -12339 0
-14388 12339 0
-12340 14388 0
-8980 8984 0
-3348 11540 0
-9492 10004 0
-9748 11796 0
-11284 11288 0
-11284 11292 0
-11324 11292 11316 11284 -11283 0
-11283 11315 0
-11284 11316 0
-13332 13336 0
-13344 13336 13340 13332 -13331 0
-13368 13336 13364 13332 -13331 0
-13332 13340 0
-13331 13363 0
-13332 13364 0
-14356 14360 0
-14368 14360 14364 14356 -14355 0
-14392 14360 14388 14356 -14355 0
-14356 14364 0
-14396 14364 14388 14356 -14355 0
-14355 14387 0
-14356 14388 0
-8996 9000 0
-8996 9004 0
-8996 9012 0
-3620 11812 0
-9764 9768 0
-6692 14884 0
-10788 10804 0
-11300 11304 0
-11300 11308 0
-11300 11316 0
-13348 13352 0
-13360 13352 13356 13348 -13347 0
-13348 13356 0
-13372 13356 13364 13348 -13347 0
-13348 13364 0
-14372 14376 0
-14384 14376 14380 14372 -14371 0
-14392 14376 14388 14372 -14371 0
-14372 14380 0
-14396 14380 14388 14372 -14371 0
-14372 14388 0
-9988 9996 0
-9988 10020 0
-11780 11812 0
-14852 14860 0
-15364 15368 0
-15364 15372 0
-15364 15380 0
-15364 15396 0
-1088 9280 0
-2112 10304 0
-4160 12352 0
-2592 10784 0
-3104 11296 0
-15392 7200 13344 5152 -5151 0
-5152 13344 0
-9248 11296 0
-9248 13344 0
-15392 7200 14368 6176 -6175 0
-6176 14368 0
-10272 11296 0
-15392 11296 14368 10272 -10271 0
-10272 14368 0
-12320 13344 0
-15392 13344 14368 12320 -12319 0
-12320 14368 0
-15408 7216 13360 5168 -5167 0
-5168 13360 0
-9264 13360 0
-15408 7216 14384 6192 -6191 0
-6192 14384 0
-15408 11312 14384 10288 -10287 0
-10288 14384 0
-12336 13360 0
-15408 13360 14384 12336 -12335 0
-12336 14384 0
-3600 11792 0
-9744 10000 0
-11280 11312 0
-14352 14368 0
-14352 14384 0
-15416 7224 11320 3128 -3127 0
-3128 11320 0
-5176 13368 0
-9272 13368 0
-15416 7224 14392 6200 -6199 0
-6200 14392 0
-15416 11320 14392 10296 -10295 0
-10296 14392 0
-12344 13368 0
-12344 14392 0
-11288 11320 0
-14360 14368 0
-14400 14368 14392 14360 -14359 0
-14360 14392 0
-13352 13368 0
-14376 14384 0
-14376 14392 0
-15368 15376 0
-15368 15384 0
-15368 15400 0
-828 9020 0
-15420 7228 11324 3132 -3131 0
-3132 11324 0
-15420 7228 13372 5180 -5179 0
-5180 13372 0
-9276 11324 0
-15420 11324 13372 9276 -9275 0
-9276 13372 0
-15420 7228 14396 6204 -6203 0
-6204 14396 0
-15420 11324 14396 10300 -10299 0
-10300 14396 0
-12348 12860 0
-12348 13372 0
-15420 13372 14396 12348 -12347 0
-12348 14396 0
-11292 11296 0
-11292 11324 0
-13376 13344 13372 13340 -13339 0
-13340 13372 0
-14400 14368 14396 14364 -14363 0
-14364 14396 0
-9020 9003 0
-9004 10028 0
-13356 13360 0
-13356 13372 0
-14380 14384 0
-14380 14396 0
-15372 15388 0
-15372 15404 0
-12852 13876 0
-11316 11324 0
-13364 13368 0
-13364 13372 0
-14388 14392 0
-14388 14396 0
-15380 15412 0
-9280 13376 0
-10304 14400 0
-15384 15392 0
-15400 15408 0
-15400 15416 0
-15404 15420 0
-16386 0
-16391 0
-16395 0
-16403 0
-16419 0
-18435 0
-20483 0
-24579 0
-16400 0
-16408 0
-16424 0
-17416 0
-18440 0
-20488 0
-24584 0
-16412 0
-16428 0
-18444 0
-20492 0
-24588 0
-16436 0
-17428 0
-18452 0
-20500 0
-24596 0
-18468 0
-20516 0
-24612 0
-17924 0
-25604 0
-22532 0
-26628 0
-28676 0
-18438 2054 16390 6 -5 0
-20486 4102 16390 6 -5 0
-24582 8198 16390 6 -5 0
-18442 2058 16394 10 -9 0
-20490 4106 16394 10 -9 0
-24586 8202 16394 10 -9 0
-18450 2066 16402 18 -17 0
-20498 4114 16402 18 -17 0
-24594 8210 16402 18 -17 0
-18466 2082 16418 34 -33 0
-20514 4130 16418 34 -33 0
-24610 8226 16418 34 -33 0
-16398 16390 16394 16386 -16385 0
-16422 16390 16418 16386 -16385 0
-16410 16394 16402 16386 -16385 0
-16426 16394 16418 16386 -16385 0
-16434 16402 16418 16386 -16385 0
-18434 16385 0
-17423 1039 16399 15 -14 0
-18447 2063 16399 15 -14 0
-20495 4111 16399 15 -14 0
-24591 8207 16399 15 -14 0
-14 16398 0
-18455 2071 16407 23 -22 0
-20503 4119 16407 23 -22 0
-24599 8215 16407 23 -22 0
-22 16406 0
-18471 2087 16423 39 -38 0
-20519 4135 16423 39 -38 0
-24615 8231 16423 39 -38 0
-38 16422 0
-17423 1039 17415 1031 -1030 0
-22535 6151 18439 2055 -2054 0
-18439 2054 0
-20495 4111 20487 4103 -4102 0
-20503 4119 20487 4103 -4102 0
-20519 4135 20487 4103 -4102 0
-22535 6151 20487 4103 -4102 0
-28679 12295 20487 4103 -4102 0
-20487 4102 0
-24591 8207 24583 8199 -8198 0
-24599 8215 24583 8199 -8198 0
-24615 8231 24583 8199 -8198 0
-26631 10247 24583 8199 -8198 0
-28679 12295 24583 8199 -8198 0
-24583 8198 0
-16399 16390 0
-16415 16399 16407 16391 -16390 0
-16431 16399 16423 16391 -16390 0
-20495 16399 20487 16391 -16390 0
-24591 16399 24583 16391 -16390 0
-16407 16390 0
-16439 16407 16423 16391 -16390 0
-18455 16407 18439 16391 -16390 0
-20503 16407 20487 16391 -16390 0
-24599 16407 24583 16391 -16390 0
-16423 16390 0
-20519 16423 20487 16391 -16390 0
-24615 16423 24583 16391 -16390 0
-18439 16390 0
-26631 18439 24583 16391 -16390 0
-20487 16390 0
-28679 20487 24583 16391 -16390 0
-24583 16390 0
-18459 2075 16411 27 -26 0
-20507 4123 16411 27 -26 0
-24603 8219 16411 27 -26 0
-26 16410 0
-16939 555 16427 43 -42 0
-18475 2091 16427 43 -42 0
-20523 4139 16427 43 -42 0
-24619 8235 16427 43 -42 0
-42 16426 0
-522 16906 0
-22539 6155 18443 2059 -2058 0
-26635 10251 18443 2059 -2058 0
-18443 2058 0
-20495 4111 20491 4107 -4106 0
-20507 4123 20491 4107 -4106 0
-20523 4139 20491 4107 -4106 0
-22539 6155 20491 4107 -4106 0
-28683 12299 20491 4107 -4106 0
-20491 4106 0
-24591 8207 24587 8203 -8202 0
-24603 8219 24587 8203 -8202 0
-24619 8235 24587 8203 -8202 0
-26635 10251 24587 8203 -8202 0
-28683 12299 24587 8203 -8202 0
-24587 8202 0
-16399 16394 0
-16415 16399 16411 16395 -16394 0
-16431 16399 16427 16395 -16394 0
-24591 16399 24587 16395 -16394 0
-16411 16394 0
-16443 16411 16427 16395 -16394 0
-18459 16411 18443 16395 -16394 0
-20507 16411 20491 16395 -16394 0
-24603 16411 24587 16395 -16394 0
-16427 16394 0
-20523 16427 20491 16395 -16394 0
-24619 16427 24587 16395 -16394 0
-25099 16907 24587 16395 -16394 0
-18443 16394 0
-26635 18443 24587 16395 -16394 0
-20491 16394 0
-28683 20491 24587 16395 -16394 0
-24587 16394 0
-18483 2099 16435 51 -50 0
-20531 4147 16435 51 -50 0
-24627 8243 16435 51 -50 0
-50 16434 0
-17435 1051 17427 1043 -1042 0
-21523 5139 17427 1043 -1042 0
-18455 2071 18451 2067 -2066 0
-22547 6163 18451 2067 -2066 0
-18451 2066 0
-20503 4119 20499 4115 -4114 0
-20507 4123 20499 4115 -4114 0
-20531 4147 20499 4115 -4114 0
-22547 6163 20499 4115 -4114 0
-28691 12307 20499 4115 -4114 0
-20499 4114 0
-24599 8215 24595 8211 -8210 0
-24603 8219 24595 8211 -8210 0
-24627 8243 24595 8211 -8210 0
-26643 10259 24595 8211 -8210 0
-28691 12307 24595 8211 -8210 0
-24595 8210 0
-16407 16402 0
-16415 16407 16411 16403 -16402 0
-16439 16407 16435 16403 -16402 0
-17431 16407 17427 16403 -16402 0
-18455 16407 18451 16403 -16402 0
-20503 16407 20499 16403 -16402 0
-24599 16407 24595 16403 -16402 0
-16411 16402 0
-16443 16411 16435 16403 -16402 0
-20507 16411 20499 16403 -16402 0
-24603 16411 24595 16403 -16402 0
-16435 16402 0
-18483 16435 18451 16403 -16402 0
-20531 16435 20499 16403 -16402 0
-24627 16435 24595 16403 -16402 0
-17427 16402 0
-18451 16402 0
-26643 18451 24595 16403 -16402 0
-20499 16402 0
-28691 20499 24595 16403 -16402 0
-24595 16402 0
-18471 2087 18467 2083 -2082 0
-18483 2099 18467 2083 -2082 0
-22563 6179 18467 2083 -2082 0
-26659 10275 18467 2083 -2082 0
-18467 2082 0
-20519 4135 20515 4131 -4130 0
-20523 4139 20515 4131 -4130 0
-20531 4147 20515 4131 -4130 0
-22563 6179 20515 4131 -4130 0
-28707 12323 20515 4131 -4130 0
-20515 4130 0
-24615 8231 24611 8227 -8226 0
-24619 8235 24611 8227 -8226 0
-24627 8243 24611 8227 -8226 0
-26659 10275 24611 8227 -8226 0
-28707 12323 24611 8227 -8226 0
-24611 8226 0
-16423 16418 0
-16431 16423 16427 16419 -16418 0
-16439 16423 16435 16419 -16418 0
-20519 16423 20515 16419 -16418 0
-24615 16423 24611 16419 -16418 0
-16427 16418 0
-16443 16427 16435 16419 -16418 0
-20523 16427 20515 16419 -16418 0
-24619 16427 24611 16419 -16418 0
-16435 16418 0
-18483 16435 18467 16419 -16418 0
-20531 16435 20515 16419 -16418 0
-24627 16435 24611 16419 -16418 0
-18467 16418 0
-22563 18467 20515 16419 -16418 0
-26659 18467 24611 16419 -16418 0
-20515 16418 0
-28707 20515 24611 16419 -16418 0
-24611 16418 0
-17939 1555 17923 1539 -1538 0
-25611 9227 25603 9219 -9218 0
-18434 18438 0
-18434 18442 0
-18434 18450 0
-18434 18466 0
-22531 18434 0
-20482 20486 0
-20495 20487 20491 20483 -20482 0
-20519 20487 20515 20483 -20482 0
-20482 20490 0
-20523 20491 20515 20483 -20482 0
-20482 20498 0
-20531 20499 20515 20483 -20482 0
-20482 20514 0
-22531 20482 0
-24578 24582 0
-24591 24583 24587 24579 -24578 0
-24599 24583 24595 24579 -24578 0
-24615 24583 24611 24579 -24578 0
-24578 24586 0
-24603 24587 24595 24579 -24578 0
-24619 24587 24611 24579 -24578 0
-24578 24594 0
-24627 24595 24611 24579 -24578 0
-24578 24610 0
-26627 24578 0
-17440 1056 16416 32 -31 0
-18464 2080 16416 32 -31 0
-20512 4128 16416 32 -31 0
-24608 8224 16416 32 -31 0
-31 16415 0
-16944 560 16432 48 -47 0
-17456 1072 16432 48 -47 0
-18480 2096 16432 48 -47 0
-20528 4144 16432 48 -47 0
-24624 8240 16432 48 -47 0
-47 16431 0
-527 16911 0
-17440 1056 17424 1040 -1039 0
-17456 1072 17424 1040 -1039 0
-19472 3088 17424 1040 -1039 0
-17424 1039 0
-19472 3088 18448 2064 -2063 0
-22543 6159 18447 2063 -2062 0
-22544 6160 18448 2064 -2063 0
-26640 10256 18448 2064 -2063 0
-2063 18447 0
-18448 2063 0
-20512 4128 20496 4112 -4111 0
-20528 4144 20496 4112 -4111 0
-22543 6159 20495 4111 -4110 0
-22544 6160 20496 4112 -4111 0
-28687 12303 20495 4111 -4110 0
-28688 12304 20496 4112 -4111 0
-4111 20495 0
-20496 4111 0
-24608 8224 24592 8208 -8207 0
-24624 8240 24592 8208 -8207 0
-26639 10255 24591 8207 -8206 0
-26640 10256 24592 8208 -8207 0
-28687 12303 24591 8207 -8206 0
-28688 12304 24592 8208 -8207 0
-8207 24591 0
-24592 8207 0
-16416 16399 0
-16448 16416 16432 16400 -16399 0
-18464 16416 18448 16400 -16399 0
-20512 16416 20496 16400 -16399 0
-24608 16416 24592 16400 -16399 0
-16432 16399 0
-18480 16432 18448 16400 -16399 0
-20528 16432 20496 16400 -16399 0
-24624 16432 24592 16400 -16399 0
-25104 16912 24592 16400 -16399 0
-16399 17423 0
-17424 16399 0
-18448 16399 0
-22544 18448 20496 16400 -16399 0
-26640 18448 24592 16400 -16399 0
-16399 20495 0
-20496 16399 0
-28688 20496 24592 16400 -16399 0
-16399 24591 0
-24592 16399 0
-18488 2104 16440 56 -55 0
-20536 4152 16440 56 -55 0
-24632 8248 16440 56 -55 0
-55 16439 0
-17944 1560 17432 1048 -1047 0
-1047 17431 0
-18488 2104 18456 2072 -2071 0
-19480 3096 18456 2072 -2071 0
-22551 6167 18455 2071 -2070 0
-22552 6168 18456 2072 -2071 0
-26647 10263 18455 2071 -2070 0
-2071 18455 0
-18456 2071 0
-20512 4128 20504 4120 -4119 0
-20536 4152 20504 4120 -4119 0
-22552 6168 20504 4120 -4119 0
-28695 12311 20503 4119 -4118 0
-28696 12312 20504 4120 -4119 0
-4119 20503 0
-20504 4119 0
-24608 8224 24600 8216 -8215 0
-24632 8248 24600 8216 -8215 0
-25624 9240 24600 8216 -8215 0
-26647 10263 24599 8215 -8214 0
-26648 10264 24600 8216 -8215 0
-28695 12311 24599 8215 -8214 0
-28696 12312 24600 8216 -8215 0
-8215 24599 0
-24600 8215 0
-16416 16407 0
-16448 16416 16440 16408 -16407 0
-17440 16416 17432 16408 -16407 0
-18464 16416 18456 16408 -16407 0
-20512 16416 20504 16408 -16407 0
-24608 16416 24600 16408 -16407 0
-16440 16407 0
-18488 16440 18456 16408 -16407 0
-20536 16440 20504 16408 -16407 0
-24632 16440 24600 16408 -16407 0
-17432 16407 0
-16407 18455 0
-18456 16407 0
-22552 18456 20504 16408 -16407 0
-26647 18455 24599 16407 -16406 0
-26648 18456 24600 16408 -16407 0
-16407 20503 0
-20504 16407 0
-28696 20504 24600 16408 -16407 0
-16407 24599 0
-24600 16407 0
-17448 1063 0
-18488 2104 18472 2088 -2087 0
-19496 3112 18472 2088 -2087 0
-22567 6183 18471 2087 -2086 0
-22568 6184 18472 2088 -2087 0
-2087 18471 0
-18472 2087 0
-20528 4144 20520 4136 -4135 0
-20536 4152 20520 4136 -4135 0
-22568 6184 20520 4136 -4135 0
-28711 12327 20519 4135 -4134 0
-28712 12328 20520 4136 -4135 0
-4135 20519 0
-20520 4135 0
-24624 8240 24616 8232 -8231 0
-24632 8248 24616 8232 -8231 0
-26664 10280 24616 8232 -8231 0
-28712 12328 24616 8232 -8231 0
-8231 24615 0
-24616 8231 0
-16432 16423 0
-16448 16432 16440 16424 -16423 0
-20528 16432 20520 16424 -16423 0
-24624 16432 24616 16424 -16423 0
-16440 16423 0
-17464 16440 17448 16424 -16423 0
-18488 16440 18472 16424 -16423 0
-20536 16440 20520 16424 -16423 0
-24632 16440 24616 16424 -16423 0
-18472 16423 0
-22567 18471 20519 16423 -16422 0
-22568 18472 20520 16424 -16423 0
-26664 18472 24616 16424 -16423 0
-16423 20519 0
-20520 16423 0
-28711 20519 24615 16423 -16422 0
-28712 20520 24616 16424 -16423 0
-16423 24615 0
-24616 16423 0
-29704 13320 25608 9224 -9223 0
-25608 9223 0
-17415 17423 0
-25616 17424 25608 17416 -17415 0
-22552 6168 22536 6152 -6151 0
-22568 6184 22536 6152 -6151 0
-30728 14344 22536 6152 -6151 0
-22536 6151 0
-26640 10256 26632 10248 -10247 0
-30728 14344 26632 10248 -10247 0
-26632 10247 0
-18439 18447 0
-18448 18439 0
-18464 18448 18456 18440 -18439 0
-18480 18448 18472 18440 -18439 0
-22544 18448 22536 18440 -18439 0
-18439 18455 0
-18488 18456 18472 18440 -18439 0
-22552 18456 22536 18440 -18439 0
-18439 18471 0
-18472 18439 0
-22568 18472 22536 18440 -18439 0
-22536 18439 0
-30728 22536 26632 18440 -18439 0
-26632 18439 0
-28688 12304 28680 12296 -12295 0
-28696 12312 28680 12296 -12295 0
-28712 12328 28680 12296 -12295 0
-30728 14344 28680 12296 -12295 0
-28680 12295 0
-20487 20495 0
-20496 20487 0
-20511 20495 20503 20487 -20486 0
-20512 20496 20504 20488 -20487 0
-20527 20495 20519 20487 -20486 0
-20528 20496 20520 20488 -20487 0
-22544 20496 22536 20488 -20487 0
-28688 20496 28680 20488 -20487 0
-20487 20503 0
-20504 20487 0
-20536 20504 20520 20488 -20487 0
-21528 20504 21512 20488 -20487 0
-22552 20504 22536 20488 -20487 0
-28696 20504 28680 20488 -20487 0
-20487 20519 0
-20520 20487 0
-22568 20520 22536 20488 -20487 0
-28712 20520 28680 20488 -20487 0
-22536 20487 0
-30728 22536 28680 20488 -20487 0
-28680 20487 0
-24583 24591 0
-24592 24583 0
-24607 24591 24599 24583 -24582 0
-24608 24592 24600 24584 -24583 0
-24623 24591 24615 24583 -24582 0
-24624 24592 24616 24584 -24583 0
-26640 24592 26632 24584 -24583 0
-28688 24592 28680 24584 -24583 0
-24583 24599 0
-24600 24583 0
-24631 24599 24615 24583 -24582 0
-24632 24600 24616 24584 -24583 0
-26648 24600 26632 24584 -24583 0
-28696 24600 28680 24584 -24583 0
-24583 24615 0
-24616 24583 0
-25640 24616 25608 24584 -24583 0
-28712 24616 28680 24584 -24583 0
-26632 24583 0
-30728 26632 28680 24584 -24583 0
-28680 24583 0
-17468 1084 16444 60 -59 0
-18492 2108 16444 60 -59 0
-20540 4156 16444 60 -59 0
-24636 8252 16444 60 -59 0
-59 16443 0
-21531 5147 17435 1051 -1050 0
-17436 1051 0
-19484 3100 18460 2076 -2075 0
-22555 6171 18459 2075 -2074 0
-22556 6172 18460 2076 -2075 0
-26651 10267 18459 2075 -2074 0
-26652 10268 18460 2076 -2075 0
-2075 18459 0
-20512 4128 20508 4124 -4123 0
-20540 4156 20508 4124 -4123 0
-22556 6172 20508 4124 -4123 0
-28699 12315 20507 4123 -4122 0
-28700 12316 20508 4124 -4123 0
-4123 20507 0
-20508 4123 0
-24608 8224 24604 8220 -8219 0
-24636 8252 24604 8220 -8219 0
-25628 9244 24604 8220 -8219 0
-26652 10268 24604 8220 -8219 0
-28700 12316 24604 8220 -8219 0
-8219 24603 0
-24604 8219 0
-16416 16411 0
-16448 16416 16444 16412 -16411 0
-18464 16416 18460 16412 -16411 0
-20512 16416 20508 16412 -16411 0
-24608 16416 24604 16412 -16411 0
-16444 16411 0
-17468 16444 17436 16412 -16411 0
-18492 16444 18460 16412 -16411 0
-20540 16444 20508 16412 -16411 0
-24636 16444 24604 16412 -16411 0
-17436 16411 0
-16411 18459 0
-18460 16411 0
-16411 20507 0
-20508 16411 0
-28699 20507 24603 16411 -16410 0
-28700 20508 24604 16412 -16411 0
-16411 24603 0
-24604 16411 0
-17456 1072 17452 1068 -1067 0
-17964 1580 17452 1068 -1067 0
-1067 17451 0
-17452 1067 0
-18480 2096 18476 2092 -2091 0
-18492 2108 18476 2092 -2091 0
-19500 3116 18476 2092 -2091 0
-22572 6188 18476 2092 -2091 0
-2091 18475 0
-18476 2091 0
-20528 4144 20524 4140 -4139 0
-20540 4156 20524 4140 -4139 0
-22572 6188 20524 4140 -4139 0
-28715 12331 20523 4139 -4138 0
-28716 12332 20524 4140 -4139 0
-4139 20523 0
-20524 4139 0
-24624 8240 24620 8236 -8235 0
-24636 8252 24620 8236 -8235 0
-25644 9260 24620 8236 -8235 0
-26668 10284 24620 8236 -8235 0
-28715 12331 24619 8235 -8234 0
-28716 12332 24620 8236 -8235 0
-8235 24619 0
-24620 8235 0
-16432 16427 0
-16448 16432 16444 16428 -16427 0
-18480 16432 18476 16428 -16427 0
-20528 16432 20524 16428 -16427 0
-24624 16432 24620 16428 -16427 0
-16444 16427 0
-20540 16444 20524 16428 -16427 0
-24636 16444 24620 16428 -16427 0
-16427 18475 0
-18476 16427 0
-22572 18476 20524 16428 -16427 0
-26667 18475 24619 16427 -16426 0
-26668 18476 24620 16428 -16427 0
-16427 20523 0
-20524 16427 0
-28715 20523 24619 16427 -16426 0
-28716 20524 24620 16428 -16427 0
-16427 24619 0
-24620 16427 0
-16907 16939 0
-25131 16939 25099 16907 -16906 0
-19980 3596 19468 3084 -3083 0
-21516 5131 0
-25612 9227 0
-22556 6172 22540 6156 -6155 0
-22572 6188 22540 6156 -6155 0
-30732 14348 22540 6156 -6155 0
-22540 6155 0
-26640 10256 26636 10252 -10251 0
-26652 10268 26636 10252 -10251 0
-30732 14348 26636 10252 -10251 0
-26636 10251 0
-18443 18447 0
-18464 18448 18460 18444 -18443 0
-18480 18448 18476 18444 -18443 0
-18443 18459 0
-18492 18460 18476 18444 -18443 0
-18443 19467 0
-22540 18443 0
-30732 22540 26636 18444 -18443 0
-26636 18443 0
-28688 12304 28684 12300 -12299 0
-28700 12316 28684 12300 -12299 0
-28716 12332 28684 12300 -12299 0
-29708 13324 28684 12300 -12299 0
-30732 14348 28684 12300 -12299 0
-28684 12299 0
-20491 20495 0
-20496 20491 0
-20511 20495 20507 20491 -20490 0
-20512 20496 20508 20492 -20491 0
-20527 20495 20523 20491 -20490 0
-20528 20496 20524 20492 -20491 0
-22544 20496 22540 20492 -20491 0
-28688 20496 28684 20492 -20491 0
-20491 20507 0
-20508 20491 0
-20539 20507 20523 20491 -20490 0
-20540 20508 20524 20492 -20491 0
-22556 20508 22540 20492 -20491 0
-28700 20508 28684 20492 -20491 0
-20491 20523 0
-20524 20491 0
-28716 20524 28684 20492 -20491 0
-29708 21516 28684 20492 -20491 0
-22540 20491 0
-30732 22540 28684 20492 -20491 0
-28684 20491 0
-24587 24591 0
-24592 24587 0
-24608 24592 24604 24588 -24587 0
-24624 24592 24620 24588 -24587 0
-26640 24592 26636 24588 -24587 0
-28688 24592 28684 24588 -24587 0
-24587 24603 0
-24604 24587 0
-24636 24604 24620 24588 -24587 0
-26652 24604 26636 24588 -24587 0
-28700 24604 28684 24588 -24587 0
-24587 24619 0
-24620 24587 0
-26668 24620 26636 24588 -24587 0
-28716 24620 28684 24588 -24587 0
-24587 25611 0
-26636 24587 0
-30732 26636 28684 24588 -24587 0
-28684 24587 0
-563 16947 0
-17460 1075 0
-26675 10291 18483 2099 -2098 0
-26676 10292 18484 2100 -2099 0
-2099 18483 0
-20536 4152 20532 4148 -4147 0
-20540 4156 20532 4148 -4147 0
-22580 6196 20532 4148 -4147 0
-28724 12340 20532 4148 -4147 0
-4147 20531 0
-20532 4147 0
-24632 8248 24628 8244 -8243 0
-24636 8252 24628 8244 -8243 0
-25140 8756 24628 8244 -8243 0
-25652 9268 24628 8244 -8243 0
-26675 10291 24627 8243 -8242 0
-26676 10292 24628 8244 -8243 0
-28724 12340 24628 8244 -8243 0
-8243 24627 0
-24628 8243 0
-16440 16435 0
-16448 16440 16444 16436 -16435 0
-20536 16440 20532 16436 -16435 0
-24632 16440 24628 16436 -16435 0
-16444 16435 0
-17468 16444 17460 16436 -16435 0
-18492 16444 18484 16436 -16435 0
-20540 16444 20532 16436 -16435 0
-24636 16444 24628 16436 -16435 0
-25140 16948 24628 16436 -16435 0
-18484 16435 0
-26675 18483 24627 16435 -16434 0
-16435 20531 0
-20532 16435 0
-28724 20532 24628 16436 -16435 0
-16435 24627 0
-24628 16435 0
-17972 1588 17940 1556 -1555 0
-21524 5139 0
-29716 13332 25620 9236 -9235 0
-25620 9235 0
-17440 17432 17436 17428 -17427 0
-19480 17432 19476 17428 -17427 0
-25628 17436 25620 17428 -17427 0
-17427 17939 0
-22552 6168 22548 6164 -6163 0
-22580 6196 22548 6164 -6163 0
-23572 7188 22548 6164 -6163 0
-30740 14356 22548 6164 -6163 0
-22548 6163 0
-26648 10264 26644 10260 -10259 0
-30740 14356 26644 10260 -10259 0
-26644 10259 0
-18451 18455 0
-18464 18456 18460 18452 -18451 0
-19480 18456 19476 18452 -18451 0
-18451 18459 0
-23572 19476 22548 18452 -18451 0
-22548 18451 0
-30740 22548 26644 18452 -18451 0
-28696 12312 28692 12308 -12307 0
-28700 12316 28692 12308 -12307 0
-28724 12340 28692 12308 -12307 0
-29716 13332 28692 12308 -12307 0
-30740 14356 28692 12308 -12307 0
-28692 12307 0
-20499 20503 0
-20504 20499 0
-20512 20504 20508 20500 -20499 0
-20536 20504 20532 20500 -20499 0
-28696 20504 28692 20500 -20499 0
-20499 20507 0
-20508 20499 0
-20540 20508 20532 20500 -20499 0
-22556 20508 22548 20500 -20499 0
-28700 20508 28692 20500 -20499 0
-20499 20531 0
-20532 20499 0
-28724 20532 28692 20500 -20499 0
-22548 20499 0
-30740 22548 28692 20500 -20499 0
-28692 20499 0
-24595 24599 0
-24600 24595 0
-24608 24600 24604 24596 -24595 0
-24631 24599 24627 24595 -24594 0
-24632 24600 24628 24596 -24595 0
-28696 24600 28692 24596 -24595 0
-24595 24603 0
-24604 24595 0
-24636 24604 24628 24596 -24595 0
-25116 24604 25108 24596 -24595 0
-25628 24604 25620 24596 -24595 0
-26652 24604 26644 24596 -24595 0
-28700 24604 28692 24596 -24595 0
-24595 24627 0
-24628 24595 0
-28724 24628 28692 24596 -24595 0
-25620 24595 0
-26644 24595 0
-28692 24595 0
-9251 25635 0
-25636 9251 0
-22572 6188 22564 6180 -6179 0
-30756 14372 22564 6180 -6179 0
-22564 6179 0
-26668 10284 26660 10276 -10275 0
-30756 14372 26660 10276 -10275 0
-26660 10275 0
-18467 18471 0
-18480 18472 18476 18468 -18467 0
-26664 18472 26660 18468 -18467 0
-18467 18475 0
-18492 18476 18484 18468 -18467 0
-22572 18476 22564 18468 -18467 0
-22580 18484 22564 18468 -18467 0
-26676 18484 26660 18468 -18467 0
-22564 18467 0
-30756 22564 26660 18468 -18467 0
-26660 18467 0
-28712 12328 28708 12324 -12323 0
-28716 12332 28708 12324 -12323 0
-28724 12340 28708 12324 -12323 0
-30756 14372 28708 12324 -12323 0
-28708 12323 0
-20515 20519 0
-20520 20515 0
-20527 20519 20523 20515 -20514 0
-20528 20520 20524 20516 -20515 0
-20536 20520 20532 20516 -20515 0
-22568 20520 22564 20516 -20515 0
-28712 20520 28708 20516 -20515 0
-20515 20523 0
-20524 20515 0
-20540 20524 20532 20516 -20515 0
-22572 20524 22564 20516 -20515 0
-28716 20524 28708 20516 -20515 0
-20515 20531 0
-20532 20515 0
-22580 20532 22564 20516 -20515 0
-28724 20532 28708 20516 -20515 0
-22564 20515 0
-30756 22564 28708 20516 -20515 0
-28708 20515 0
-24611 24615 0
-24616 24611 0
-24623 24615 24619 24611 -24610 0
-24624 24616 24620 24612 -24611 0
-24631 24615 24627 24611 -24610 0
-24632 24616 24628 24612 -24611 0
-28712 24616 28708 24612 -24611 0
-24611 24619 0
-24620 24611 0
-24636 24620 24628 24612 -24611 0
-26668 24620 26660 24612 -24611 0
-28716 24620 28708 24612 -24611 0
-24611 24627 0
-24628 24611 0
-26676 24628 26660 24612 -24611 0
-28724 24628 28708 24612 -24611 0
-26660 24611 0
-28708 24611 0
-19988 3604 19972 3588 -3587 0
-17936 17928 17932 17924 -17923 0
-19972 17923 0
-21507 21523 0
-29700 21507 0
-29708 25612 29700 25604 -25603 0
-22531 22535 0
-22568 22536 22564 22532 -22531 0
-22531 22539 0
-22556 22540 22548 22532 -22531 0
-22572 22540 22564 22532 -22531 0
-22531 22547 0
-22580 22548 22564 22532 -22531 0
-22531 22563 0
-30724 22531 0
-26627 26631 0
-26648 26632 26644 26628 -26627 0
-26627 26635 0
-26652 26636 26644 26628 -26627 0
-26668 26636 26660 26628 -26627 0
-26627 26643 0
-26676 26644 26660 26628 -26627 0
-26627 26659 0
-30724 26627 0
-28675 28679 0
-28688 28680 28684 28676 -28675 0
-28696 28680 28692 28676 -28675 0
-28712 28680 28708 28676 -28675 0
-28675 28683 0
-28700 28684 28692 28676 -28675 0
-28716 28684 28708 28676 -28675 0
-29708 28684 29700 28676 -28675 0
-28675 28691 0
-28724 28692 28708 28676 -28675 0
-28675 28707 0
-29732 28708 29700 28676 -28675 0
-30724 28675 0
-64 16448 0
-21536 5152 17440 1056 -1055 0
-1056 17440 0
-19488 3104 18464 2080 -2079 0
-2079 18463 0
-2080 18464 0
-22560 6176 20512 4128 -4127 0
-28704 12320 20512 4128 -4127 0
-4127 20511 0
-4128 20512 0
-26656 10272 24608 8224 -8223 0
-28704 12320 24608 8224 -8223 0
-8223 24607 0
-8224 24608 0
-16416 17440 0
-16416 18464 0
-22560 18464 20512 16416 -16415 0
-16416 20512 0
-28704 20512 24608 16416 -16415 0
-16416 24608 0
-1072 17456 0
-22576 6192 18480 2096 -2095 0
-26672 10288 18480 2096 -2095 0
-2096 18480 0
-22576 6192 20528 4144 -4143 0
-28720 12336 20528 4144 -4143 0
-4143 20527 0
-4144 20528 0
-26672 10288 24624 8240 -8239 0
-28720 12336 24624 8240 -8239 0
-8239 24623 0
-8240 24624 0
-16432 17456 0
-21552 17456 20528 16432 -16431 0
-16432 18480 0
-22576 18480 20528 16432 -16431 0
-26672 18480 24624 16432 -16431 0
-16432 20528 0
-28720 20528 24624 16432 -16431 0
-16432 24624 0
-16912 16944 0
-25136 16944 25104 16912 -16911 0
-17424 17936 0
-22576 6192 22544 6160 -6159 0
-30736 14352 22544 6160 -6159 0
-22544 6159 0
-6160 22544 0
-30736 14352 26640 10256 -10255 0
-10256 26640 0
-18448 18464 0
-18496 18464 18480 18448 -18447 0
-18480 18447 0
-18448 18480 0
-23568 19472 22544 18448 -18447 0
-18448 22544 0
-30736 22544 26640 18448 -18447 0
-26640 18447 0
-18448 26640 0
-28704 12320 28688 12304 -12303 0
-28720 12336 28688 12304 -12303 0
-30736 14352 28688 12304 -12303 0
-28688 12303 0
-12304 28688 0
-20512 20495 0
-20496 20512 0
-20544 20512 20528 20496 -20495 0
-20528 20495 0
-20496 20528 0
-28720 20528 28688 20496 -20495 0
-20496 22544 0
-30736 22544 28688 20496 -20495 0
-28688 20495 0
-20496 28688 0
-24608 24591 0
-24592 24608 0
-24640 24608 24624 24592 -24591 0
-28704 24608 28688 24592 -24591 0
-24624 24591 0
-24592 24624 0
-26672 24624 26640 24592 -24591 0
-28720 24624 28688 24592 -24591 0
-24592 25616 0
-26640 24591 0
-24592 26640 0
-30736 26640 28688 24592 -24591 0
-28688 24591 0
-24592 28688 0
-1080 17464 0
-19512 3128 18488 2104 -2103 0
-2103 18487 0
-2104 18488 0
-22584 6200 20536 4152 -4151 0
-28728 12344 20536 4152 -4151 0
-4152 20536 0
-28728 12344 24632 8248 -8247 0
-8247 24631 0
-8248 24632 0
-16440 18488 0
-26680 18488 24632 16440 -16439 0
-16440 20536 0
-28728 20536 24632 16440 -16439 0
-16440 24632 0
-3096 19480 0
-5144 21528 0
-25656 9272 25624 9240 -9239 0
-30744 14360 22552 6168 -6167 0
-30744 14360 26648 10264 -10263 0
-10264 26648 0
-18456 18464 0
-18496 18464 18488 18456 -18455 0
-19488 18464 19480 18456 -18455 0
-18456 18488 0
-23576 19480 22552 18456 -18455 0
-22552 18455 0
-18456 22552 0
-30744 22552 26648 18456 -18455 0
-28704 12320 28696 12312 -12311 0
-28728 12344 28696 12312 -12311 0
-30744 14360 28696 12312 -12311 0
-28696 12311 0
-12312 28696 0
-20512 20503 0
-20504 20512 0
-20544 20512 20536 20504 -20503 0
-22560 20512 22552 20504 -20503 0
-20504 20536 0
-22552 20503 0
-20504 22552 0
-28696 20503 0
-20504 28696 0
-24608 24599 0
-24600 24608 0
-24640 24608 24632 24600 -24599 0
-26656 24608 26648 24600 -24599 0
-28704 24608 28696 24600 -24599 0
-24632 24599 0
-24600 24632 0
-28728 24632 28696 24600 -24599 0
-26648 24599 0
-30744 26648 28696 24600 -24599 0
-28696 24599 0
-24600 28696 0
-17448 17456 0
-22576 6192 22568 6184 -6183 0
-30760 14376 22568 6184 -6183 0
-22568 6183 0
-6184 22568 0
-26672 10288 26664 10280 -10279 0
-30760 14376 26664 10280 -10279 0
-10280 26664 0
-18480 18471 0
-18472 18480 0
-18496 18480 18488 18472 -18471 0
-19504 18480 19496 18472 -18471 0
-26672 18480 26664 18472 -18471 0
-18472 18488 0
-22568 18471 0
-18472 22568 0
-30760 22568 26664 18472 -18471 0
-28720 12336 28712 12328 -12327 0
-28728 12344 28712 12328 -12327 0
-30760 14376 28712 12328 -12327 0
-28712 12327 0
-12328 28712 0
-20528 20519 0
-20520 20528 0
-20544 20528 20536 20520 -20519 0
-28720 20528 28712 20520 -20519 0
-20520 20536 0
-28728 20536 28712 20520 -20519 0
-20520 22568 0
-30760 22568 28712 20520 -20519 0
-28712 20519 0
-20520 28712 0
-24624 24615 0
-24616 24624 0
-24640 24624 24632 24616 -24615 0
-28720 24624 28712 24616 -24615 0
-24632 24615 0
-24616 24632 0
-28728 24632 28712 24616 -24615 0
-26664 24615 0
-24616 26664 0
-28712 24615 0
-24616 28712 0
-17928 17944 0
-21512 21544 0
-22535 22543 0
-22536 22544 0
-22560 22544 22552 22536 -22535 0
-22576 22544 22568 22536 -22535 0
-22535 22551 0
-22536 22552 0
-22584 22552 22568 22536 -22535 0
-22535 22567 0
-22536 22568 0
-26631 26639 0
-26632 26640 0
-26656 26640 26648 26632 -26631 0
-26631 26647 0
-26632 26648 0
-26680 26648 26664 26632 -26631 0
-26632 26664 0
-28679 28687 0
-28680 28688 0
-28704 28688 28696 28680 -28679 0
-28720 28688 28712 28680 -28679 0
-28679 28695 0
-28680 28696 0
-28728 28696 28712 28680 -28679 0
-28679 28711 0
-28680 28712 0
-28680 29704 0
-1084 17468 0
-2107 18491 0
-2108 18492 0
-28732 12348 20540 4156 -4155 0
-4155 20539 0
-4156 20540 0
-26684 10300 24636 8252 -8251 0
-28732 12348 24636 8252 -8251 0
-8251 24635 0
-8252 24636 0
-22588 18492 20540 16444 -16443 0
-16444 20540 0
-28732 20540 24636 16444 -16443 0
-16444 24636 0
-8732 25116 0
-3099 19483 0
-29724 13340 25628 9244 -9243 0
-17436 17440 0
-17436 25628 0
-30748 14364 22556 6172 -6171 0
-6172 22556 0
-30748 14364 26652 10268 -10267 0
-10268 26652 0
-18460 18464 0
-18460 18492 0
-23580 19484 22556 18460 -18459 0
-18460 22556 0
-18460 26652 0
-28704 12320 28700 12316 -12315 0
-28732 12348 28700 12316 -12315 0
-30748 14364 28700 12316 -12315 0
-28700 12315 0
-12316 28700 0
-20512 20507 0
-20508 20512 0
-20544 20512 20540 20508 -20507 0
-28704 20512 28700 20508 -20507 0
-20508 20540 0
-28732 20540 28700 20508 -20507 0
-20507 21531 0
-28700 20507 0
-20508 28700 0
-24608 24603 0
-24604 24608 0
-24640 24608 24636 24604 -24603 0
-28704 24608 28700 24604 -24603 0
-24636 24603 0
-24604 24636 0
-25660 24636 25628 24604 -24603 0
-28732 24636 28700 24604 -24603 0
-24604 26652 0
-30748 26652 28700 24604 -24603 0
-28700 24603 0
-24604 28700 0
-8747 25131 0
-23596 7212 19500 3116 -3115 0
-9260 25644 0
-17452 17468 0
-23596 7212 22572 6188 -6187 0
-30764 14380 22572 6188 -6187 0
-22572 6187 0
-30764 14380 26668 10284 -10283 0
-18476 18480 0
-18496 18480 18492 18476 -18475 0
-18476 18492 0
-18476 22572 0
-18476 26668 0
-28720 12336 28716 12332 -12331 0
-28732 12348 28716 12332 -12331 0
-30764 14380 28716 12332 -12331 0
-28716 12331 0
-12332 28716 0
-20528 20523 0
-20524 20528 0
-20544 20528 20540 20524 -20523 0
-28720 20528 28716 20524 -20523 0
-20524 20540 0
-22588 20540 22572 20524 -20523 0
-28732 20540 28716 20524 -20523 0
-20524 22572 0
-30764 22572 28716 20524 -20523 0
-28716 20523 0
-20524 28716 0
-24624 24619 0
-24620 24624 0
-24640 24624 24636 24620 -24619 0
-24636 24619 0
-24620 24636 0
-28732 24636 28716 24620 -24619 0
-24620 25644 0
-24620 26668 0
-30764 26668 28716 24620 -24619 0
-28716 24619 0
-24620 28716 0
-17932 17964 0
-7179 23563 0
-19468 19472 0
-19996 19484 19980 19468 -19467 0
-29740 13356 29708 13324 -13323 0
-13324 29708 0
-22540 22544 0
-22560 22544 22556 22540 -22539 0
-22576 22544 22572 22540 -22539 0
-22539 22555 0
-22540 22556 0
-22588 22556 22572 22540 -22539 0
-22539 22571 0
-22540 22572 0
-26636 26640 0
-26635 26651 0
-26636 26652 0
-26635 26667 0
-26636 26668 0
-28684 28688 0
-28704 28688 28700 28684 -28683 0
-28720 28688 28716 28684 -28683 0
-28683 28699 0
-28684 28700 0
-28732 28700 28716 28684 -28683 0
-28683 28715 0
-28684 28716 0
-28684 29708 0
-8756 25140 0
-16948 17972 0
-25660 9276 25652 9268 -9267 0
-30772 14388 22580 6196 -6195 0
-26680 10296 26676 10292 -10291 0
-30772 14388 26676 10292 -10291 0
-10292 26676 0
-18488 18483 0
-18484 18488 0
-22580 18483 0
-28728 12344 28724 12340 -12339 0
-28732 12348 28724 12340 -12339 0
-30772 14388 28724 12340 -12339 0
-12340 28724 0
-20532 20536 0
-28728 20536 28724 20532 -20531 0
-20540 20531 0
-20532 20540 0
-22588 20540 22580 20532 -20531 0
-28732 20540 28724 20532 -20531 0
-20532 22580 0
-30772 22580 28724 20532 -20531 0
-20532 28724 0
-24632 24627 0
-24628 24632 0
-24640 24632 24636 24628 -24627 0
-28728 24632 28724 24628 -24627 0
-24636 24627 0
-24628 24636 0
-26684 24636 26676 24628 -24627 0
-28732 24636 28724 24628 -24627 0
-24628 26676 0
-28724 24627 0
-24628 28724 0
-17940 17944 0
-25108 25140 0
-23576 7192 23572 7188 -7187 0
-7187 23571 0
-7188 23572 0
-19476 19508 0
-19476 19988 0
-29724 13340 29716 13332 -13331 0
-25620 25624 0
-25620 25628 0
-25620 25652 0
-22548 22552 0
-22584 22552 22580 22548 -22547 0
-22548 22556 0
-22588 22556 22580 22548 -22547 0
-23580 22556 23572 22548 -22547 0
-22548 22580 0
-26680 26648 26676 26644 -26643 0
-26644 26652 0
-26684 26652 26676 26644 -26643 0
-26643 26675 0
-26644 26676 0
-28692 28696 0
-28704 28696 28700 28692 -28691 0
-28728 28696 28724 28692 -28691 0
-28692 28700 0
-28732 28700 28724 28692 -28691 0
-28692 28724 0
-13348 29732 0
-25636 25644 0
-22564 22568 0
-22564 22572 0
-22588 22572 22580 22564 -22563 0
-22564 22580 0
-22564 23588 0
-26660 26664 0
-26672 26664 26668 26660 -26659 0
-26660 26668 0
-26660 26676 0
-28708 28712 0
-28720 28712 28716 28708 -28707 0
-28728 28712 28724 28708 -28707 0
-28708 28716 0
-28732 28716 28724 28708 -28707 0
-28708 28724 0
-29700 29716 0
-30724 30728 0
-30724 30732 0
-30724 30740 0
-30724 30756 0
-1088 17472 0
-2112 18496 0
-4160 20544 0
-8256 24640 0
-6176 22560 0
-10272 26656 0
-23584 19488 22560 18464 -18463 0
-30752 22560 26656 18464 -18463 0
-18464 26656 0
-30752 14368 28704 12320 -12319 0
-12320 28704 0
-20512 21536 0
-30752 22560 28704 20512 -20511 0
-20512 28704 0
-24608 28704 0
-8752 25136 0
-3120 19504 0
-30768 14384 26672 10288 -10287 0
-10288 26672 0
-18480 22576 0
-18480 26672 0
-30768 14384 28720 12336 -12335 0
-12336 28720 0
-20528 22576 0
-30768 22576 28720 20528 -20527 0
-20528 28720 0
-30768 26672 28720 24624 -24623 0
-24624 28720 0
-7184 23568 0
-22592 22560 22576 22544 -22543 0
-22544 22576 0
-26688 26656 26672 26640 -26639 0
-26640 26672 0
-28688 28704 0
-28736 28704 28720 28688 -28687 0
-28688 28720 0
-6200 22584 0
-30776 14392 26680 10296 -10295 0
-10296 26680 0
-30776 22584 26680 18488 -18487 0
-30776 14392 28728 12344 -12343 0
-12344 28728 0
-20536 28728 0
-24632 25656 0
-24632 28728 0
-7192 23576 0
-22552 22584 0
-26648 26656 0
-26648 26680 0
-28696 28704 0
-28696 28728 0
-21544 21552 0
-22568 22576 0
-28712 28720 0
-28736 28720 28728 28712 -28711 0
-28712 28728 0
-30728 30736 0
-30728 30744 0
-30728 30760 0
-29756 13372 25660 9276 -9275 0
-6204 22588 0
-30780 14396 26684 10300 -10299 0
-10300 26684 0
-18492 22588 0
-30780 14396 28732 12348 -12347 0
-12348 28732 0
-30780 22588 28732 20540 -20539 0
-20540 28732 0
-24636 28732 0
-7196 23580 0
-19484 19488 0
-20000 19488 19996 19484 -19483 0
-29756 13372 29724 13340 -13339 0
-22556 22560 0
-28700 28704 0
-28736 28704 28732 28700 -28699 0
-28700 28732 0
-28700 29724 0
-25644 25660 0
-22572 22576 0
-22592 22576 22588 22572 -22571 0
-28716 28720 0
-28736 28720 28732 28716 -28715 0
-28716 28732 0
-28716 29740 0
-23563 23579 0
-30732 30748 0
-30732 30764 0
-19508 19512 0
-28724 28728 0
-28724 28732 0
-23572 23576 0
-23584 23576 23580 23572 -23571 0
-30740 30772 0
-23588 23596 0
-17472 21568 0
-18496 22592 0
-18496 26688 0
-20544 28736 0
-3616 20000 0
-23568 23584 0
-30744 30752 0
-30760 30768 0
-30760 30776 0
-7228 23612 0
-23580 23584 0
-23616 23584 23612 23580 -23579 0
-23580 23612 0
-29740 29756 0
-30764 30780 0
-21568 23616 0
-32770 0
-32775 0
-32779 0
-32787 0
-32803 0
-36867 0
-40963 0
-49155 0
-32784 0
-32792 0
-32808 0
-36872 0
-40968 0
-49160 0
-32796 0
-32812 0
-36876 0
-40972 0
-49164 0
-32820 0
-34836 0
-36884 0
-40980 0
-49172 0
-36900 0
-40996 0
-49188 0
-43012 0
-51204 0
-45060 0
-53252 0
-57348 0
-49204 49203 0
-36870 4102 32774 6 -5 0
-40966 8198 32774 6 -5 0
-36874 4106 32778 10 -9 0
-40970 8202 32778 10 -9 0
-40978 8210 32786 18 -17 0
-40994 8226 32802 34 -33 0
-49186 16418 32802 34 -33 0
-32782 32774 32778 32770 -32769 0
-32790 32774 32786 32770 -32769 0
-32806 32774 32802 32770 -32769 0
-32794 32778 32786 32770 -32769 0
-36866 32769 0
-36879 4111 32783 15 -14 0
-40975 8207 32783 15 -14 0
-49167 16399 32783 15 -14 0
-14 32782 0
-33815 1047 32791 23 -22 0
-34839 2071 32791 23 -22 0
-36887 4119 32791 23 -22 0
-40983 8215 32791 23 -22 0
-49175 16407 32791 23 -22 0
-22 32790 0
-36903 4135 32807 39 -38 0
-40999 8231 32807 39 -38 0
-49191 16423 32807 39 -38 0
-38 32806 0
-45063 12295 36871 4103 -4102 0
-36871 4102 0
-40975 8207 40967 8199 -8198 0
-40983 8215 40967 8199 -8198 0
-40999 8231 40967 8199 -8198 0
-45063 12295 40967 8199 -8198 0
-57351 24583 40967 8199 -8198 0
-40967 8198 0
-49175 16407 49159 16391 -16390 0
-49191 16423 49159 16391 -16390 0
-53255 20487 49159 16391 -16390 0
-57351 24583 49159 16391 -16390 0
-49159 16390 0
-32783 32774 0
-32799 32783 32791 32775 -32774 0
-32815 32783 32807 32775 -32774 0
-49167 32783 49159 32775 -32774 0
-32791 32774 0
-32823 32791 32807 32775 -32774 0
-40983 32791 40967 32775 -32774 0
-49175 32791 49159 32775 -32774 0
-32807 32774 0
-36903 32807 36871 32775 -32774 0
-49191 32807 49159 32775 -32774 0
-33799 32774 0
-36871 32774 0
-53255 36871 49159 32775 -32774 0
-40967 32774 0
-57351 40967 49159 32775 -32774 0
-49159 32774 0
-36891 4123 32795 27 -26 0
-40987 8219 32795 27 -26 0
-49179 16411 32795 27 -26 0
-26 32794 0
-36907 4139 32811 43 -42 0
-41003 8235 32811 43 -42 0
-49195 16427 32811 43 -42 0
-42 32810 0
-34827 2058 0
-36879 4111 36875 4107 -4106 0
-45067 12299 36875 4107 -4106 0
-53259 20491 36875 4107 -4106 0
-36875 4106 0
-40975 8207 40971 8203 -8202 0
-40987 8219 40971 8203 -8202 0
-41003 8235 40971 8203 -8202 0
-45067 12299 40971 8203 -8202 0
-57355 24587 40971 8203 -8202 0
-40971 8202 0
-49167 16399 49163 16395 -16394 0
-49179 16411 49163 16395 -16394 0
-49195 16427 49163 16395 -16394 0
-53259 20491 49163 16395 -16394 0
-57355 24587 49163 16395 -16394 0
-49163 16394 0
-32783 32778 0
-32799 32783 32795 32779 -32778 0
-32815 32783 32811 32779 -32778 0
-49167 32783 49163 32779 -32778 0
-32795 32778 0
-32827 32795 32811 32779 -32778 0
-49179 32795 49163 32779 -32778 0
-32811 32778 0
-34859 32811 34827 32779 -32778 0
-49195 32811 49163 32779 -32778 0
-36875 32778 0
-53259 36875 49163 32779 -32778 0
-40971 32778 0
-57355 40971 49163 32779 -32778 0
-49163 32778 0
-36915 4147 32819 51 -50 0
-41011 8243 32819 51 -50 0
-49203 16435 32819 51 -50 0
-50 32818 0
-35859 3091 33811 1043 -1042 0
-43027 10259 34835 2067 -2066 0
-45075 12307 36883 4115 -4114 0
-53267 20499 36883 4115 -4114 0
-36883 4114 0
-40983 8215 40979 8211 -8210 0
-40987 8219 40979 8211 -8210 0
-43027 10259 40979 8211 -8210 0
-45075 12307 40979 8211 -8210 0
-57363 24595 40979 8211 -8210 0
-40979 8210 0
-49175 16407 49171 16403 -16402 0
-49179 16411 49171 16403 -16402 0
-49203 16435 49171 16403 -16402 0
-53267 20499 49171 16403 -16402 0
-57363 24595 49171 16403 -16402 0
-49171 16402 0
-32791 32786 0
-32799 32791 32795 32787 -32786 0
-32823 32791 32819 32787 -32786 0
-34839 32791 34835 32787 -32786 0
-40983 32791 40979 32787 -32786 0
-49175 32791 49171 32787 -32786 0
-32795 32786 0
-32827 32795 32819 32787 -32786 0
-49179 32795 49171 32787 -32786 0
-32819 32786 0
-49203 32819 49171 32787 -32786 0
-51219 34835 49171 32787 -32786 0
-36883 32786 0
-40979 32786 0
-49171 32786 0
-36907 4139 36899 4131 -4130 0
-45091 12323 36899 4131 -4130 0
-40999 8231 40995 8227 -8226 0
-41003 8235 40995 8227 -8226 0
-41011 8243 40995 8227 -8226 0
-45091 12323 40995 8227 -8226 0
-57379 24611 40995 8227 -8226 0
-40995 8226 0
-49191 16423 49187 16419 -16418 0
-49195 16427 49187 16419 -16418 0
-49203 16435 49187 16419 -16418 0
-53283 20515 49187 16419 -16418 0
-57379 24611 49187 16419 -16418 0
-49187 16418 0
-32807 32802 0
-32815 32807 32811 32803 -32802 0
-32823 32807 32819 32803 -32802 0
-49191 32807 49187 32803 -32802 0
-32811 32802 0
-32827 32811 32819 32803 -32802 0
-49195 32811 49187 32803 -32802 0
-32819 32802 0
-49203 32819 49187 32803 -32802 0
-51235 34851 49187 32803 -32802 0
-36899 32802 0
-40995 32802 0
-57379 40995 49187 32803 -32802 0
-49187 32802 0
-51211 18443 51203 18435 -18434 0
-36866 36870 0
-36866 36874 0
-45059 36866 0
-40962 40966 0
-40983 40967 40979 40963 -40962 0
-40962 40970 0
-40962 40978 0
-40962 40994 0
-45059 40962 0
-49154 49158 0
-49167 49159 49163 49155 -49154 0
-49175 49159 49171 49155 -49154 0
-49191 49159 49187 49155 -49154 0
-49154 49162 0
-49179 49163 49171 49155 -49154 0
-49195 49163 49187 49155 -49154 0
-49203 49171 49187 49155 -49154 0
-49154 49186 0
-53251 49154 0
-36896 4128 32800 32 -31 0
-40992 8224 32800 32 -31 0
-49184 16416 32800 32 -31 0
-31 32799 0
-36912 4144 32816 48 -47 0
-41008 8240 32816 48 -47 0
-49200 16432 32816 48 -47 0
-47 32815 0
-2063 34831 0
-34832 2063 0
-36896 4128 36880 4112 -4111 0
-38928 6160 36880 4112 -4111 0
-45072 12304 36880 4112 -4111 0
-53263 20495 36879 4111 -4110 0
-36880 4111 0
-40992 8224 40976 8208 -8207 0
-41008 8240 40976 8208 -8207 0
-45071 12303 40975 8207 -8206 0
-45072 12304 40976 8208 -8207 0
-57360 24592 40976 8208 -8207 0
-8207 40975 0
-40976 8207 0
-49184 16416 49168 16400 -16399 0
-49200 16432 49168 16400 -16399 0
-50192 17424 49168 16400 -16399 0
-51216 18448 49168 16400 -16399 0
-53263 20495 49167 16399 -16398 0
-53264 20496 49168 16400 -16399 0
-57360 24592 49168 16400 -16399 0
-16399 49167 0
-49168 16399 0
-32800 32783 0
-32832 32800 32816 32784 -32783 0
-34848 32800 34832 32784 -32783 0
-36896 32800 36880 32784 -32783 0
-40992 32800 40976 32784 -32783 0
-49184 32800 49168 32784 -32783 0
-32816 32783 0
-36912 32816 36880 32784 -32783 0
-41008 32816 40976 32784 -32783 0
-49200 32816 49168 32784 -32783 0
-32783 36879 0
-36880 32783 0
-45072 36880 40976 32784 -32783 0
-53264 36880 49168 32784 -32783 0
-32783 40975 0
-40976 32783 0
-57360 40976 49168 32784 -32783 0
-32783 49167 0
-49168 32783 0
-34872 2104 32824 56 -55 0
-36920 4152 32824 56 -55 0
-41016 8248 32824 56 -55 0
-49208 16440 32824 56 -55 0
-55 32823 0
-2071 34839 0
-34840 2071 0
-45079 12311 36887 4119 -4118 0
-45080 12312 36888 4120 -4119 0
-4119 36887 0
-36888 4119 0
-41016 8248 40984 8216 -8215 0
-45080 12312 40984 8216 -8215 0
-57367 24599 40983 8215 -8214 0
-57368 24600 40984 8216 -8215 0
-8215 40983 0
-40984 8215 0
-49184 16416 49176 16408 -16407 0
-49208 16440 49176 16408 -16407 0
-53272 20504 49176 16408 -16407 0
-57368 24600 49176 16408 -16407 0
-16407 49175 0
-49176 16407 0
-32800 32791 0
-32832 32800 32824 32792 -32791 0
-40992 32800 40984 32792 -32791 0
-49184 32800 49176 32792 -32791 0
-32824 32791 0
-36920 32824 36888 32792 -32791 0
-41016 32824 40984 32792 -32791 0
-49208 32824 49176 32792 -32791 0
-34840 32791 0
-36888 32791 0
-45080 36888 40984 32792 -32791 0
-53271 36887 49175 32791 -32790 0
-53272 36888 49176 32792 -32791 0
-32791 40983 0
-40984 32791 0
-57367 40983 49175 32791 -32790 0
-57368 40984 49176 32792 -32791 0
-32791 49175 0
-49176 32791 0
-35880 3112 34856 2088 -2087 0
-45095 12327 36903 4135 -4134 0
-45096 12328 36904 4136 -4135 0
-53288 20520 36904 4136 -4135 0
-4135 36903 0
-36904 4135 0
-41008 8240 41000 8232 -8231 0
-41016 8248 41000 8232 -8231 0
-45095 12327 40999 8231 -8230 0
-45096 12328 41000 8232 -8231 0
-57384 24616 41000 8232 -8231 0
-8231 40999 0
-41000 8231 0
-49200 16432 49192 16424 -16423 0
-49208 16440 49192 16424 -16423 0
-50216 17448 49192 16424 -16423 0
-51240 18472 49192 16424 -16423 0
-53288 20520 49192 16424 -16423 0
-57383 24615 49191 16423 -16422 0
-57384 24616 49192 16424 -16423 0
-16423 49191 0
-49192 16423 0
-32816 32807 0
-32832 32816 32824 32808 -32807 0
-34864 32816 34856 32808 -32807 0
-36912 32816 36904 32808 -32807 0
-41008 32816 41000 32808 -32807 0
-49200 32816 49192 32808 -32807 0
-32824 32807 0
-36920 32824 36904 32808 -32807 0
-41016 32824 41000 32808 -32807 0
-49208 32824 49192 32808 -32807 0
-34856 32807 0
-36904 32807 0
-45096 36904 41000 32808 -32807 0
-53287 36903 49191 32807 -32806 0
-53288 36904 49192 32808 -32807 0
-32807 40999 0
-41000 32807 0
-57383 40999 49191 32807 -32806 0
-57384 41000 49192 32808 -32807 0
-32807 49191 0
-49192 32807 0
-35856 3088 35848 3080 -3079 0
-58376 25608 50184 17416 -17415 0
-35848 33799 0
-43016 10247 0
-59400 26632 51208 18440 -18439 0
-45080 12312 45064 12296 -12295 0
-61448 28680 45064 12296 -12295 0
-45064 12295 0
-61448 28680 53256 20488 -20487 0
-53256 20487 0
-36880 36871 0
-36871 36887 0
-45096 36904 45064 36872 -36871 0
-53288 36904 53256 36872 -36871 0
-45064 36871 0
-61448 45064 53256 36872 -36871 0
-57360 24592 57352 24584 -24583 0
-57368 24600 57352 24584 -24583 0
-57384 24616 57352 24584 -24583 0
-58376 25608 57352 24584 -24583 0
-59400 26632 57352 24584 -24583 0
-61448 28680 57352 24584 -24583 0
-57352 24583 0
-40967 40975 0
-40976 40967 0
-40992 40976 40984 40968 -40967 0
-57360 40976 57352 40968 -40967 0
-40967 40983 0
-40984 40967 0
-41016 40984 41000 40968 -40967 0
-45080 40984 45064 40968 -40967 0
-57368 40984 57352 40968 -40967 0
-40967 40999 0
-41000 40967 0
-45096 41000 45064 40968 -40967 0
-57384 41000 57352 40968 -40967 0
-45064 40967 0
-61448 45064 57352 40968 -40967 0
-57352 40967 0
-49159 49167 0
-49168 49159 0
-49183 49167 49175 49159 -49158 0
-49184 49168 49176 49160 -49159 0
-49200 49168 49192 49160 -49159 0
-51216 49168 51208 49160 -49159 0
-57360 49168 57352 49160 -49159 0
-49159 49175 0
-49176 49159 0
-49207 49175 49191 49159 -49158 0
-49208 49176 49192 49160 -49159 0
-51224 49176 51208 49160 -49159 0
-53272 49176 53256 49160 -49159 0
-57368 49176 57352 49160 -49159 0
-49159 49191 0
-49192 49159 0
-53288 49192 53256 49160 -49159 0
-57384 49192 57352 49160 -49159 0
-53256 49159 0
-61448 53256 57352 49160 -49159 0
-57352 49159 0
-33852 1084 32828 60 -59 0
-36924 4156 32828 60 -59 0
-41020 8252 32828 60 -59 0
-49212 16444 32828 60 -59 0
-59 32827 0
-45083 12315 36891 4123 -4122 0
-45084 12316 36892 4124 -4123 0
-53275 20507 36891 4123 -4122 0
-53276 20508 36892 4124 -4123 0
-36892 4123 0
-40992 8224 40988 8220 -8219 0
-41020 8252 40988 8220 -8219 0
-45084 12316 40988 8220 -8219 0
-57371 24603 40987 8219 -8218 0
-57372 24604 40988 8220 -8219 0
-8219 40987 0
-40988 8219 0
-49184 16416 49180 16412 -16411 0
-49212 16444 49180 16412 -16411 0
-51228 18460 49180 16412 -16411 0
-53275 20507 49179 16411 -16410 0
-53276 20508 49180 16412 -16411 0
-57371 24603 49179 16411 -16410 0
-57372 24604 49180 16412 -16411 0
-16411 49179 0
-49180 16411 0
-32800 32795 0
-32832 32800 32828 32796 -32795 0
-36896 32800 36892 32796 -32795 0
-40992 32800 40988 32796 -32795 0
-49184 32800 49180 32796 -32795 0
-32828 32795 0
-41020 32828 40988 32796 -32795 0
-49212 32828 49180 32796 -32795 0
-34844 32795 0
-51228 34844 49180 32796 -32795 0
-36892 32795 0
-53275 36891 49179 32795 -32794 0
-32795 40987 0
-40988 32795 0
-57371 40987 49179 32795 -32794 0
-57372 40988 49180 32796 -32795 0
-32795 49179 0
-49180 32795 0
-45099 12331 36907 4139 -4138 0
-45100 12332 36908 4140 -4139 0
-53291 20523 36907 4139 -4138 0
-53292 20524 36908 4140 -4139 0
-36908 4139 0
-41008 8240 41004 8236 -8235 0
-45100 12332 41004 8236 -8235 0
-57388 24620 41004 8236 -8235 0
-8235 41003 0
-41004 8235 0
-49200 16432 49196 16428 -16427 0
-49212 16444 49196 16428 -16427 0
-50220 17452 49196 16428 -16427 0
-51244 18476 49196 16428 -16427 0
-53292 20524 49196 16428 -16427 0
-57388 24620 49196 16428 -16427 0
-16427 49195 0
-49196 16427 0
-32816 32811 0
-32832 32816 32828 32812 -32811 0
-41008 32816 41004 32812 -32811 0
-49200 32816 49196 32812 -32811 0
-32828 32811 0
-34876 32828 34860 32812 -32811 0
-36924 32828 36908 32812 -32811 0
-41020 32828 41004 32812 -32811 0
-49212 32828 49196 32812 -32811 0
-43052 34860 41004 32812 -32811 0
-36908 32811 0
-45100 36908 41004 32812 -32811 0
-53291 36907 49195 32811 -32810 0
-53292 36908 49196 32812 -32811 0
-32811 41003 0
-41004 32811 0
-57387 41003 49195 32811 -32810 0
-57388 41004 49196 32812 -32811 0
-32811 49195 0
-49196 32811 0
-35884 3116 35852 3084 -3083 0
-59404 26636 43020 10252 -10251 0
-51212 18443 0
-45072 12304 45068 12300 -12299 0
-47116 14348 45068 12300 -12299 0
-61452 28684 45068 12300 -12299 0
-45068 12299 0
-53264 20496 53260 20492 -20491 0
-53276 20508 53260 20492 -20491 0
-61452 28684 53260 20492 -20491 0
-53260 20491 0
-36875 36891 0
-36875 36907 0
-36908 36875 0
-45068 36875 0
-61452 45068 53260 36876 -36875 0
-53260 36875 0
-57360 24592 57356 24588 -24587 0
-57372 24604 57356 24588 -24587 0
-57388 24620 57356 24588 -24587 0
-59404 26636 57356 24588 -24587 0
-61452 28684 57356 24588 -24587 0
-57356 24587 0
-40971 40975 0
-40976 40971 0
-40992 40976 40988 40972 -40971 0
-57360 40976 57356 40972 -40971 0
-40971 40987 0
-40988 40971 0
-41020 40988 41004 40972 -40971 0
-45084 40988 45068 40972 -40971 0
-57372 40988 57356 40972 -40971 0
-40971 41003 0
-41004 40971 0
-45100 41004 45068 40972 -40971 0
-57388 41004 57356 40972 -40971 0
-45068 40971 0
-61452 45068 57356 40972 -40971 0
-57356 40971 0
-49163 49167 0
-49168 49163 0
-49184 49168 49180 49164 -49163 0
-49199 49167 49195 49163 -49162 0
-49200 49168 49196 49164 -49163 0
-53264 49168 53260 49164 -49163 0
-57360 49168 57356 49164 -49163 0
-49163 49179 0
-49180 49163 0
-49211 49179 49195 49163 -49162 0
-49212 49180 49196 49164 -49163 0
-53276 49180 53260 49164 -49163 0
-57372 49180 57356 49164 -49163 0
-49163 49195 0
-49196 49163 0
-51244 49196 51212 49164 -49163 0
-53292 49196 53260 49164 -49163 0
-57388 49196 57356 49164 -49163 0
-49163 51211 0
-53260 49163 0
-61452 53260 57356 49164 -49163 0
-57356 49163 0
-34872 2104 34868 2100 -2099 0
-34868 2099 0
-45108 12340 36916 4148 -4147 0
-4147 36915 0
-41016 8248 41012 8244 -8243 0
-41020 8252 41012 8244 -8243 0
-45108 12340 41012 8244 -8243 0
-57395 24627 41011 8243 -8242 0
-57396 24628 41012 8244 -8243 0
-8243 41011 0
-41012 8243 0
-49208 16440 49204 16436 -16435 0
-49212 16444 49204 16436 -16435 0
-53300 20532 49204 16436 -16435 0
-57395 24627 49203 16435 -16434 0
-57396 24628 49204 16436 -16435 0
-16435 49203 0
-49204 16435 0
-32824 32819 0
-32832 32824 32828 32820 -32819 0
-41016 32824 41012 32820 -32819 0
-49208 32824 49204 32820 -32819 0
-32828 32819 0
-36924 32828 36916 32820 -32819 0
-41020 32828 41012 32820 -32819 0
-49212 32828 49204 32820 -32819 0
-37940 33844 36916 32820 -32819 0
-36916 32819 0
-32819 41011 0
-41012 32819 0
-57396 41012 49204 32820 -32819 0
-32819 49203 0
-49204 32819 0
-33811 33815 0
-47124 14356 38932 6164 -6163 0
-43028 10259 0
-59412 26644 51220 18452 -18451 0
-18451 51219 0
-34835 34839 0
-34872 34840 34868 34836 -34835 0
-35864 34840 35860 34836 -34835 0
-43036 34844 43028 34836 -34835 0
-34835 35859 0
-38932 34835 0
-51220 34835 0
-45080 12312 45076 12308 -12307 0
-61460 28692 45076 12308 -12307 0
-45076 12307 0
-53300 20532 53268 20500 -20499 0
-61460 28692 53268 20500 -20499 0
-53268 20499 0
-36883 36887 0
-36883 36891 0
-36916 36883 0
-45076 36883 0
-61460 45076 53268 36884 -36883 0
-57368 24600 57364 24596 -24595 0
-57372 24604 57364 24596 -24595 0
-57396 24628 57364 24596 -24595 0
-59412 26644 57364 24596 -24595 0
-61460 28692 57364 24596 -24595 0
-57364 24595 0
-40979 40983 0
-40984 40979 0
-40992 40984 40988 40980 -40979 0
-41016 40984 41012 40980 -40979 0
-45080 40984 45076 40980 -40979 0
-57368 40984 57364 40980 -40979 0
-40979 40987 0
-40988 40979 0
-41020 40988 41012 40980 -40979 0
-57372 40988 57364 40980 -40979 0
-40979 41011 0
-41012 40979 0
-45108 41012 45076 40980 -40979 0
-57396 41012 57364 40980 -40979 0
-59412 43028 57364 40980 -40979 0
-45076 40979 0
-61460 45076 57364 40980 -40979 0
-57364 40979 0
-49171 49175 0
-49176 49171 0
-49184 49176 49180 49172 -49171 0
-49208 49176 49204 49172 -49171 0
-53272 49176 53268 49172 -49171 0
-57368 49176 57364 49172 -49171 0
-49171 49179 0
-49180 49171 0
-49212 49180 49204 49172 -49171 0
-53276 49180 53268 49172 -49171 0
-57372 49180 57364 49172 -49171 0
-49171 49203 0
-49204 49171 0
-53300 49204 53268 49172 -49171 0
-57396 49204 57364 49172 -49171 0
-53268 49171 0
-61460 53268 57364 49172 -49171 0
-57364 49171 0
-35892 3124 35876 3108 -3107 0
-34851 34859 0
-61476 28708 45092 12324 -12323 0
-45092 12323 0
-53292 20524 53284 20516 -20515 0
-55332 22564 53284 20516 -20515 0
-61476 28708 53284 20516 -20515 0
-53284 20515 0
-36899 36907 0
-37932 36908 37924 36900 -36899 0
-53292 36908 53284 36900 -36899 0
-36899 36915 0
-45092 36899 0
-61476 45092 53284 36900 -36899 0
-57384 24616 57380 24612 -24611 0
-57388 24620 57380 24612 -24611 0
-57396 24628 57380 24612 -24611 0
-58404 25636 57380 24612 -24611 0
-59428 26660 57380 24612 -24611 0
-61476 28708 57380 24612 -24611 0
-57380 24611 0
-40995 40999 0
-41000 40995 0
-41008 41000 41004 40996 -40995 0
-41016 41000 41012 40996 -40995 0
-45096 41000 45092 40996 -40995 0
-57384 41000 57380 40996 -40995 0
-40995 41003 0
-41004 40995 0
-41020 41004 41012 40996 -40995 0
-57388 41004 57380 40996 -40995 0
-40995 41011 0
-41012 40995 0
-57396 41012 57380 40996 -40995 0
-45092 40995 0
-61476 45092 57380 40996 -40995 0
-57380 40995 0
-49187 49191 0
-49192 49187 0
-49200 49192 49196 49188 -49187 0
-49208 49192 49204 49188 -49187 0
-53288 49192 53284 49188 -49187 0
-57384 49192 57380 49188 -49187 0
-49187 49195 0
-49196 49187 0
-49212 49196 49204 49188 -49187 0
-50220 49196 50212 49188 -49187 0
-51244 49196 51236 49188 -49187 0
-53292 49196 53284 49188 -49187 0
-57388 49196 57380 49188 -49187 0
-49187 49203 0
-49204 49187 0
-57396 49204 57380 49188 -49187 0
-51236 49187 0
-59428 51236 57380 49188 -49187 0
-53284 49187 0
-61476 53284 57380 49188 -49187 0
-57380 49187 0
-58380 25612 58372 25604 -25603 0
-47124 14356 47108 14340 -14339 0
-59400 26632 59396 26628 -26627 0
-59404 26636 59396 26628 -26627 0
-43032 43016 43028 43012 -43011 0
-43011 43027 0
-59396 43011 0
-51244 51212 51236 51204 -51203 0
-51203 51235 0
-59396 51203 0
-45059 45063 0
-45080 45064 45076 45060 -45059 0
-45059 45067 0
-45084 45068 45076 45060 -45059 0
-45100 45068 45092 45060 -45059 0
-45059 45075 0
-45059 45091 0
-61444 45059 0
-53251 53255 0
-53264 53256 53260 53252 -53251 0
-53288 53256 53284 53252 -53251 0
-53251 53259 0
-53276 53260 53268 53252 -53251 0
-53292 53260 53284 53252 -53251 0
-53251 53267 0
-53251 53283 0
-61444 53251 0
-57347 57351 0
-57360 57352 57356 57348 -57347 0
-57368 57352 57364 57348 -57347 0
-57384 57352 57380 57348 -57347 0
-58376 57352 58372 57348 -57347 0
-57347 57355 0
-57372 57356 57364 57348 -57347 0
-57388 57356 57380 57348 -57347 0
-58380 57356 58372 57348 -57347 0
-59404 57356 59396 57348 -57347 0
-57347 57363 0
-57396 57364 57380 57348 -57347 0
-57347 57379 0
-58404 57380 58372 57348 -57347 0
-57347 58371 0
-61444 57347 0
-64 32832 0
-45088 12320 36896 4128 -4127 0
-4127 36895 0
-4128 36896 0
-45088 12320 40992 8224 -8223 0
-57376 24608 40992 8224 -8223 0
-8223 40991 0
-8224 40992 0
-53280 20512 49184 16416 -16415 0
-57376 24608 49184 16416 -16415 0
-16415 49183 0
-16416 49184 0
-53280 36896 49184 32800 -32799 0
-32800 40992 0
-57376 40992 49184 32800 -32799 0
-32800 49184 0
-2096 34864 0
-45104 12336 36912 4144 -4143 0
-53296 20528 36912 4144 -4143 0
-4144 36912 0
-57392 24624 41008 8240 -8239 0
-8239 41007 0
-8240 41008 0
-51248 18480 49200 16432 -16431 0
-53296 20528 49200 16432 -16431 0
-57392 24624 49200 16432 -16431 0
-16431 49199 0
-16432 49200 0
-32816 36912 0
-53296 36912 49200 32816 -32815 0
-32816 41008 0
-57392 41008 49200 32816 -32815 0
-32816 49200 0
-34832 51216 0
-45104 12336 45072 12304 -12303 0
-61456 28688 45072 12304 -12303 0
-45072 12303 0
-53280 20512 53264 20496 -20495 0
-53296 20528 53264 20496 -20495 0
-53264 20495 0
-20496 53264 0
-36880 36896 0
-38944 36896 38928 36880 -36879 0
-36880 36912 0
-45072 36879 0
-36880 45072 0
-61456 45072 53264 36880 -36879 0
-36880 53264 0
-57376 24608 57360 24592 -24591 0
-57392 24624 57360 24592 -24591 0
-61456 28688 57360 24592 -24591 0
-57360 24591 0
-24592 57360 0
-40976 40992 0
-41024 40992 41008 40976 -40975 0
-41008 40975 0
-40976 41008 0
-57392 41008 57360 40976 -40975 0
-61456 45072 57360 40976 -40975 0
-57360 40975 0
-40976 57360 0
-49184 49167 0
-49168 49184 0
-49216 49184 49200 49168 -49167 0
-51232 49184 51216 49168 -49167 0
-57376 49184 57360 49168 -49167 0
-49200 49167 0
-49168 49200 0
-49168 53264 0
-61456 53264 57360 49168 -49167 0
-57360 49167 0
-49168 57360 0
-1080 33848 0
-2104 34872 0
-4152 36920 0
-57400 24632 41016 8248 -8247 0
-8247 41015 0
-8248 41016 0
-53304 20536 49208 16440 -16439 0
-57400 24632 49208 16440 -16439 0
-16439 49207 0
-16440 49208 0
-32824 34872 0
-32824 36920 0
-45112 36920 41016 32824 -32823 0
-32824 41016 0
-57400 41016 49208 32824 -32823 0
-32824 49208 0
-3096 35864 0
-18456 51224 0
-12312 45080 0
-61464 28696 53272 20504 -20503 0
-20504 53272 0
-36888 36896 0
-36888 36920 0
-36888 53272 0
-57376 24608 57368 24600 -24599 0
-57400 24632 57368 24600 -24599 0
-61464 28696 57368 24600 -24599 0
-57368 24599 0
-24600 57368 0
-40992 40983 0
-40984 40992 0
-41024 40992 41016 40984 -40983 0
-40984 41016 0
-45112 41016 45080 40984 -40983 0
-40984 43032 0
-61464 45080 57368 40984 -40983 0
-57368 40983 0
-40984 57368 0
-49184 49175 0
-49176 49184 0
-49216 49184 49208 49176 -49175 0
-57376 49184 57368 49176 -49175 0
-49208 49175 0
-49176 49208 0
-57400 49208 57368 49176 -49175 0
-51224 49175 0
-53272 49175 0
-61464 53272 57368 49176 -49175 0
-49176 57368 0
-34856 34872 0
-61480 28712 45096 12328 -12327 0
-45096 12327 0
-61480 28712 53288 20520 -20519 0
-20520 53288 0
-36904 36912 0
-36904 36920 0
-45096 36903 0
-36904 45096 0
-53288 36903 0
-36904 53288 0
-57392 24624 57384 24616 -24615 0
-57400 24632 57384 24616 -24615 0
-58408 25640 57384 24616 -24615 0
-61480 28712 57384 24616 -24615 0
-57384 24615 0
-24616 57384 0
-41008 40999 0
-41000 41008 0
-57392 41008 57384 41000 -40999 0
-41000 41016 0
-45112 41016 45096 41000 -40999 0
-57400 41016 57384 41000 -40999 0
-45096 40999 0
-61480 45096 57384 41000 -40999 0
-57384 40999 0
-41000 57384 0
-49200 49191 0
-49192 49200 0
-49216 49200 49208 49192 -49191 0
-49208 49191 0
-49192 49208 0
-57400 49208 57384 49192 -49191 0
-53288 49191 0
-61480 53288 57384 49192 -49191 0
-57384 49191 0
-49192 57384 0
-25608 58376 0
-50184 50192 0
-51208 51216 0
-51208 51240 0
-45063 45071 0
-45064 45072 0
-45063 45079 0
-45064 45080 0
-45063 45095 0
-45064 45096 0
-53255 53263 0
-53256 53264 0
-53296 53264 53288 53256 -53255 0
-53255 53271 0
-53256 53272 0
-53304 53272 53288 53256 -53255 0
-53255 53287 0
-53256 53288 0
-57351 57359 0
-57352 57360 0
-57376 57360 57368 57352 -57351 0
-57392 57360 57384 57352 -57351 0
-58384 57360 58376 57352 -57351 0
-57351 57367 0
-57352 57368 0
-57400 57368 57384 57352 -57351 0
-57351 57383 0
-57352 57384 0
-57352 58376 0
-57352 59400 0
-2107 34875 0
-2108 34876 0
-4156 36924 0
-57404 24636 41020 8252 -8251 0
-8251 41019 0
-8252 41020 0
-50236 17468 49212 16444 -16443 0
-51260 18492 49212 16444 -16443 0
-53308 20540 49212 16444 -16443 0
-57404 24636 49212 16444 -16443 0
-16443 49211 0
-16444 49212 0
-32828 41020 0
-57404 41020 49212 32828 -32827 0
-32828 49212 0
-59420 26652 51228 18460 -18459 0
-18460 51228 0
-34844 34848 0
-45088 12320 45084 12316 -12315 0
-61468 28700 45084 12316 -12315 0
-12316 45084 0
-53280 20512 53276 20508 -20507 0
-61468 28700 53276 20508 -20507 0
-53276 20507 0
-20508 53276 0
-36892 36924 0
-45084 36891 0
-36892 53276 0
-57376 24608 57372 24604 -24603 0
-57404 24636 57372 24604 -24603 0
-61468 28700 57372 24604 -24603 0
-57372 24603 0
-24604 57372 0
-40988 40992 0
-41024 40992 41020 40988 -40987 0
-45088 40992 45084 40988 -40987 0
-57376 40992 57372 40988 -40987 0
-40988 41020 0
-57404 41020 57372 40988 -40987 0
-57372 40987 0
-40988 57372 0
-49184 49179 0
-49180 49184 0
-49216 49184 49212 49180 -49179 0
-57376 49184 57372 49180 -49179 0
-49180 49212 0
-53308 49212 53276 49180 -49179 0
-57404 49212 57372 49180 -49179 0
-53276 49179 0
-61468 53276 57372 49180 -49179 0
-57372 49179 0
-49180 57372 0
-5164 37932 0
-58412 25644 50220 17452 -17451 0
-17452 50220 0
-51260 18492 51244 18476 -18475 0
-52268 19500 51244 18476 -18475 0
-18475 51243 0
-34860 51244 0
-61484 28716 45100 12332 -12331 0
-45100 12331 0
-53296 20528 53292 20524 -20523 0
-53308 20540 53292 20524 -20523 0
-61484 28716 53292 20524 -20523 0
-36908 36912 0
-36908 45100 0
-61484 45100 53292 36908 -36907 0
-53292 36907 0
-36908 53292 0
-57392 24624 57388 24620 -24619 0
-61484 28716 57388 24620 -24619 0
-57388 24619 0
-24620 57388 0
-41004 41008 0
-41024 41008 41020 41004 -41003 0
-41004 41020 0
-57388 41003 0
-41004 57388 0
-49196 49200 0
-49216 49200 49212 49196 -49195 0
-57392 49200 57388 49196 -49195 0
-49196 49212 0
-57404 49212 57388 49196 -49195 0
-49196 53292 0
-61484 53292 57388 49196 -49195 0
-57388 49195 0
-49196 57388 0
-35852 35856 0
-22539 55307 0
-59408 26640 59404 26636 -26635 0
-43020 43036 0
-43020 43052 0
-51212 51216 0
-45068 45072 0
-45088 45072 45084 45068 -45067 0
-45067 45083 0
-45068 45084 0
-45116 45084 45100 45068 -45067 0
-45067 45099 0
-45068 45100 0
-53260 53264 0
-53296 53264 53292 53260 -53259 0
-53259 53275 0
-53260 53276 0
-53259 53291 0
-53260 53292 0
-57356 57360 0
-57376 57360 57372 57356 -57355 0
-57392 57360 57388 57356 -57355 0
-59408 57360 59404 57356 -57355 0
-57355 57371 0
-57356 57372 0
-57404 57372 57388 57356 -57355 0
-57355 57387 0
-57356 57388 0
-57356 58380 0
-57356 59404 0
-33844 33852 0
-34868 35892 0
-61492 28724 45108 12340 -12339 0
-12340 45108 0
-61492 28724 53300 20532 -20531 0
-36916 36924 0
-61492 45108 53300 36916 -36915 0
-36916 53300 0
-57400 24632 57396 24628 -24627 0
-57404 24636 57396 24628 -24627 0
-59444 26676 57396 24628 -24627 0
-61492 28724 57396 24628 -24627 0
-57396 24627 0
-24628 57396 0
-41012 41016 0
-41024 41016 41020 41012 -41011 0
-57400 41016 57396 41012 -41011 0
-41012 41020 0
-57404 41020 57396 41012 -41011 0
-61492 45108 57396 41012 -41011 0
-41012 57396 0
-49208 49203 0
-49204 49208 0
-49216 49208 49212 49204 -49203 0
-51256 49208 51252 49204 -49203 0
-57400 49208 57396 49204 -49203 0
-49212 49203 0
-49204 49212 0
-53308 49212 53300 49204 -49203 0
-57404 49212 57396 49204 -49203 0
-49204 51252 0
-53300 49203 0
-57396 49203 0
-49204 57396 0
-35860 35892 0
-59416 26648 59412 26644 -26643 0
-59444 26676 59412 26644 -26643 0
-59412 43027 0
-45076 45080 0
-45088 45080 45084 45076 -45075 0
-45076 45084 0
-45076 45108 0
-45076 47124 0
-53268 53272 0
-53280 53272 53276 53268 -53267 0
-53304 53272 53300 53268 -53267 0
-53268 53276 0
-53308 53276 53300 53268 -53267 0
-53268 53300 0
-57364 57368 0
-57376 57368 57372 57364 -57363 0
-57400 57368 57396 57364 -57363 0
-57364 57372 0
-57404 57372 57396 57364 -57363 0
-57363 57395 0
-57364 57396 0
-35876 35880 0
-35876 35884 0
-37924 37940 0
-58412 25644 58404 25636 -25635 0
-50212 50216 0
-51236 51244 0
-59436 51244 59428 51236 -51235 0
-51236 55332 0
-45092 45096 0
-45092 45100 0
-45092 45108 0
-53284 53288 0
-53284 53292 0
-55340 53292 55332 53284 -53283 0
-57380 57384 0
-57392 57384 57388 57380 -57379 0
-57400 57384 57396 57380 -57379 0
-57380 57388 0
-57404 57388 57396 57380 -57379 0
-57380 57396 0
-58372 58376 0
-58412 58380 58404 58372 -58371 0
-58372 58404 0
-47108 47116 0
-59396 59400 0
-59396 59412 0
-59396 59428 0
-61444 61448 0
-61444 61452 0
-61444 61460 0
-61444 61476 0
-4160 36928 0
-8256 41024 0
-16448 49216 0
-6176 38944 0
-18464 51232 0
-61472 28704 45088 12320 -12319 0
-12320 45088 0
-20512 53280 0
-36896 45088 0
-61472 45088 53280 36896 -36895 0
-61472 28704 57376 24608 -24607 0
-24608 57376 0
-40992 57376 0
-49184 53280 0
-49184 57376 0
-61488 28720 45104 12336 -12335 0
-61488 28720 53296 20528 -20527 0
-20528 53296 0
-61488 28720 57392 24624 -24623 0
-24624 57392 0
-41008 57392 0
-61488 53296 57392 49200 -49199 0
-49200 57392 0
-26640 59408 0
-51216 51248 0
-45072 45088 0
-45072 45104 0
-53264 53296 0
-57360 57376 0
-57408 57376 57392 57360 -57359 0
-57360 57392 0
-57360 59408 0
-18488 51256 0
-12344 45112 0
-24632 57400 0
-61496 45112 57400 41016 -41015 0
-41016 57400 0
-49208 57400 0
-53312 53280 53304 53272 -53271 0
-53272 53304 0
-57368 57376 0
-57408 57376 57400 57368 -57367 0
-57368 57400 0
-57368 59416 0
-51240 51248 0
-45120 45104 45112 45096 -45095 0
-53288 53296 0
-57384 57392 0
-57384 57400 0
-57384 58408 0
-61448 61456 0
-61448 61464 0
-61448 61480 0
-59452 26684 51260 18492 -18491 0
-34875 51259 0
-55356 22588 53308 20540 -20539 0
-61500 28732 53308 20540 -20539 0
-20540 53308 0
-61500 28732 57404 24636 -24635 0
-24636 57404 0
-41020 57404 0
-52284 50236 51260 49212 -49211 0
-49212 57404 0
-59424 26656 59420 26652 -26651 0
-45084 45088 0
-45120 45088 45116 45084 -45083 0
-57372 57376 0
-57408 57376 57404 57372 -57371 0
-57372 57404 0
-57372 59420 0
-25644 58412 0
-56364 23596 55340 22572 -22571 0
-56364 52268 55340 51244 -51243 0
-57388 57392 0
-57388 57404 0
-57388 58412 0
-57388 59436 0
-58380 58384 0
-55307 55339 0
-61452 61468 0
-61452 61484 0
-51252 51260 0
-51252 59444 0
-53300 53304 0
-57396 57400 0
-57396 57404 0
-57396 59444 0
-23572 56340 0
-61460 61492 0
-58404 58408 0
-36928 45120 0
-36928 53312 0
-41024 57408 0
-59408 59424 0
-61464 61472 0
-61480 61488 0
-61480 61496 0
-56380 52284 55356 51260 -51259 0
-59420 59452 0
-56380 55356 56364 55340 -55339 0
-61484 61500 0
-56340 56348 0
-23612 56380 0
-56348 56380 0
-65538 0
-65543 0
-65547 0
-65555 0
-65571 0
-73731 0
-98307 0
-65552 0
-65560 0
-65576 0
-73736 0
-81928 0
-98312 0
-65564 0
-65580 0
-73740 0
-81932 0
-98316 0
-65588 0
-73748 0
-81940 0
-98324 0
-73764 0
-81956 0
-98340 0
-102404 0
-106500 0
-114692 0
-98332 98331 0
-73734 8198 65542 6 -5 0
-81926 16390 65542 6 -5 0
-73738 8202 65546 10 -9 0
-81930 16394 65546 10 -9 0
-98314 32778 65546 10 -9 0
-73746 8210 65554 18 -17 0
-81938 16402 65554 18 -17 0
-98322 32786 65554 18 -17 0
-81954 16418 65570 34 -33 0
-98338 32802 65570 34 -33 0
-65558 65542 65554 65538 -65537 0
-73730 65537 0
-73743 8207 65551 15 -14 0
-81935 16399 65551 15 -14 0
-98319 32783 65551 15 -14 0
-14 65550 0
-73751 8215 65559 23 -22 0
-81943 16407 65559 23 -22 0
-98327 32791 65559 23 -22 0
-22 65558 0
-73767 8231 65575 39 -38 0
-81959 16423 65575 39 -38 0
-98343 32807 65575 39 -38 0
-38 65574 0
-90119 24583 73735 8199 -8198 0
-106503 40967 73735 8199 -8198 0
-73735 8198 0
-81943 16407 81927 16391 -16390 0
-90119 24583 81927 16391 -16390 0
-114695 49159 81927 16391 -16390 0
-81927 16390 0
-98319 32783 98311 32775 -32774 0
-98327 32791 98311 32775 -32774 0
-98343 32807 98311 32775 -32774 0
-106503 40967 98311 32775 -32774 0
-114695 49159 98311 32775 -32774 0
-98311 32774 0
-65551 65542 0
-65567 65551 65559 65543 -65542 0
-73743 65551 73735 65543 -65542 0
-98319 65551 98311 65543 -65542 0
-65559 65542 0
-73751 65559 73735 65543 -65542 0
-65575 65542 0
-98343 65575 98311 65543 -65542 0
-73735 65542 0
-106503 73735 98311 65543 -65542 0
-81927 65542 0
-114695 81927 98311 65543 -65542 0
-98311 65542 0
-73755 8219 65563 27 -26 0
-81947 16411 65563 27 -26 0
-98331 32795 65563 27 -26 0
-26 65562 0
-73771 8235 65579 43 -42 0
-81963 16427 65579 43 -42 0
-98347 32811 65579 43 -42 0
-42 65578 0
-90123 24587 73739 8203 -8202 0
-106507 40971 73739 8203 -8202 0
-73739 8202 0
-81947 16411 81931 16395 -16394 0
-81963 16427 81931 16395 -16394 0
-90123 24587 81931 16395 -16394 0
-114699 49163 81931 16395 -16394 0
-81931 16394 0
-98319 32783 98315 32779 -32778 0
-98331 32795 98315 32779 -32778 0
-98347 32811 98315 32779 -32778 0
-106507 40971 98315 32779 -32778 0
-114699 49163 98315 32779 -32778 0
-98315 32778 0
-65551 65546 0
-65567 65551 65563 65547 -65546 0
-73743 65551 73739 65547 -65546 0
-65563 65546 0
-98331 65563 98315 65547 -65546 0
-65579 65546 0
-81963 65579 81931 65547 -65546 0
-98347 65579 98315 65547 -65546 0
-73739 65546 0
-106507 73739 98315 65547 -65546 0
-81931 65546 0
-114699 81931 98315 65547 -65546 0
-98315 65546 0
-73779 8243 65587 51 -50 0
-81971 16435 65587 51 -50 0
-98355 32819 65587 51 -50 0
-50 65586 0
-90131 24595 73747 8211 -8210 0
-73747 8210 0
-81943 16407 81939 16403 -16402 0
-81971 16435 81939 16403 -16402 0
-90131 24595 81939 16403 -16402 0
-114707 49171 81939 16403 -16402 0
-81939 16402 0
-98327 32791 98323 32787 -32786 0
-98331 32795 98323 32787 -32786 0
-98355 32819 98323 32787 -32786 0
-106515 40979 98323 32787 -32786 0
-114707 49171 98323 32787 -32786 0
-98323 32786 0
-65559 65554 0
-65567 65559 65563 65555 -65554 0
-65591 65559 65587 65555 -65554 0
-65563 65554 0
-65595 65563 65587 65555 -65554 0
-65587 65554 0
-73779 65587 73747 65555 -65554 0
-73747 65554 0
-106515 73747 98323 65555 -65554 0
-81939 65554 0
-114707 81939 98323 65555 -65554 0
-98323 65554 0
-69675 4139 69667 4131 -4130 0
-69683 4147 69667 4131 -4130 0
-90147 24611 73763 8227 -8226 0
-81971 16435 81955 16419 -16418 0
-90147 24611 81955 16419 -16418 0
-114723 49187 81955 16419 -16418 0
-81955 16418 0
-98343 32807 98339 32803 -32802 0
-98347 32811 98339 32803 -32802 0
-98355 32819 98339 32803 -32802 0
-106531 40995 98339 32803 -32802 0
-114723 49187 98339 32803 -32802 0
-98339 32802 0
-65575 65570 0
-65583 65575 65579 65571 -65570 0
-98343 65575 98339 65571 -65570 0
-65579 65570 0
-65595 65579 65587 65571 -65570 0
-98347 65579 98339 65571 -65570 0
-81971 65587 81955 65571 -65570 0
-98355 65587 98339 65571 -65570 0
-73763 65570 0
-106531 73763 98339 65571 -65570 0
-81955 65570 0
-114723 81955 98339 65571 -65570 0
-98339 65570 0
-102419 36883 102403 36867 -36866 0
-73730 73734 0
-73730 73738 0
-73730 73746 0
-90115 73730 0
-81922 81926 0
-81922 81930 0
-81922 81938 0
-81922 81954 0
-90115 81922 0
-98306 98310 0
-98319 98311 98315 98307 -98306 0
-98327 98311 98323 98307 -98306 0
-98343 98311 98339 98307 -98306 0
-98306 98314 0
-98331 98315 98323 98307 -98306 0
-98347 98315 98339 98307 -98306 0
-98306 98322 0
-98355 98323 98339 98307 -98306 0
-98306 98338 0
-106499 98306 0
-69664 4128 65568 32 -31 0
-73760 8224 65568 32 -31 0
-81952 16416 65568 32 -31 0
-98336 32800 65568 32 -31 0
-31 65567 0
-73776 8240 65584 48 -47 0
-81968 16432 65584 48 -47 0
-98352 32816 65584 48 -47 0
-47 65583 0
-69664 4128 69648 4112 -4111 0
-73776 8240 73744 8208 -8207 0
-77840 12304 73744 8208 -8207 0
-106511 40975 73743 8207 -8206 0
-106512 40976 73744 8208 -8207 0
-8207 73743 0
-81952 16416 81936 16400 -16399 0
-90128 24592 81936 16400 -16399 0
-114704 49168 81936 16400 -16399 0
-16399 81935 0
-81936 16399 0
-98336 32800 98320 32784 -32783 0
-98352 32816 98320 32784 -32783 0
-100368 34832 98320 32784 -32783 0
-106512 40976 98320 32784 -32783 0
-114703 49167 98319 32783 -32782 0
-114704 49168 98320 32784 -32783 0
-32783 98319 0
-98320 32783 0
-65568 65551 0
-65600 65568 65584 65552 -65551 0
-81952 65568 81936 65552 -65551 0
-98336 65568 98320 65552 -65551 0
-65584 65551 0
-69680 65584 69648 65552 -65551 0
-81968 65584 81936 65552 -65551 0
-98352 65584 98320 65552 -65551 0
-65551 73743 0
-106511 73743 98319 65551 -65550 0
-65551 81935 0
-81936 65551 0
-114704 81936 98320 65552 -65551 0
-65551 98319 0
-98320 65551 0
-73784 8248 65592 56 -55 0
-81976 16440 65592 56 -55 0
-98360 32824 65592 56 -55 0
-55 65591 0
-69656 4119 0
-90135 24599 73751 8215 -8214 0
-90136 24600 73752 8216 -8215 0
-106519 40983 73751 8215 -8214 0
-106520 40984 73752 8216 -8215 0
-8215 73751 0
-73752 8215 0
-81952 16416 81944 16408 -16407 0
-90135 24599 81943 16407 -16406 0
-90136 24600 81944 16408 -16407 0
-114712 49176 81944 16408 -16407 0
-16407 81943 0
-81944 16407 0
-98336 32800 98328 32792 -32791 0
-98360 32824 98328 32792 -32791 0
-102424 36888 98328 32792 -32791 0
-106519 40983 98327 32791 -32790 0
-106520 40984 98328 32792 -32791 0
-114711 49175 98327 32791 -32790 0
-114712 49176 98328 32792 -32791 0
-32791 98327 0
-98328 32791 0
-65568 65559 0
-65600 65568 65592 65560 -65559 0
-69664 65568 69656 65560 -65559 0
-81952 65568 81944 65560 -65559 0
-98336 65568 98328 65560 -65559 0
-65592 65559 0
-81976 65592 81944 65560 -65559 0
-98360 65592 98328 65560 -65559 0
-102424 69656 98328 65560 -65559 0
-65559 73751 0
-73752 65559 0
-90136 73752 81944 65560 -65559 0
-81944 65559 0
-114711 81943 98327 65559 -65558 0
-114712 81944 98328 65560 -65559 0
-65559 98327 0
-98328 65559 0
-4135 69671 0
-73784 8248 73768 8232 -8231 0
-90151 24615 73767 8231 -8230 0
-90152 24616 73768 8232 -8231 0
-106535 40999 73767 8231 -8230 0
-106536 41000 73768 8232 -8231 0
-8231 73767 0
-73768 8231 0
-81968 16432 81960 16424 -16423 0
-86056 20520 81960 16424 -16423 0
-90152 24616 81960 16424 -16423 0
-114728 49192 81960 16424 -16423 0
-16423 81959 0
-81960 16423 0
-98352 32816 98344 32808 -32807 0
-98360 32824 98344 32808 -32807 0
-106535 40999 98343 32807 -32806 0
-106536 41000 98344 32808 -32807 0
-114727 49191 98343 32807 -32806 0
-114728 49192 98344 32808 -32807 0
-32807 98343 0
-98344 32807 0
-65584 65575 0
-65600 65584 65592 65576 -65575 0
-81968 65584 81960 65576 -65575 0
-98352 65584 98344 65576 -65575 0
-65592 65575 0
-69688 65592 69672 65576 -65575 0
-81976 65592 81960 65576 -65575 0
-98360 65592 98344 65576 -65575 0
-73768 65575 0
-90152 73768 81960 65576 -65575 0
-106536 73768 98344 65576 -65575 0
-81960 65575 0
-114727 81959 98343 65575 -65574 0
-114728 81960 98344 65576 -65575 0
-65575 98343 0
-98344 65575 0
-122888 57352 90120 24584 -24583 0
-90120 24583 0
-106512 40976 106504 40968 -40967 0
-106520 40984 106504 40968 -40967 0
-106536 41000 106504 40968 -40967 0
-122888 57352 106504 40968 -40967 0
-106504 40967 0
-73735 73743 0
-73735 73751 0
-73768 73735 0
-90120 73735 0
-122888 90120 106504 73736 -73735 0
-114704 49168 114696 49160 -49159 0
-114712 49176 114696 49160 -49159 0
-114728 49192 114696 49160 -49159 0
-118792 53256 114696 49160 -49159 0
-122888 57352 114696 49160 -49159 0
-114696 49159 0
-81927 81935 0
-81936 81927 0
-114704 81936 114696 81928 -81927 0
-81927 81943 0
-90136 81944 90120 81928 -81927 0
-114712 81944 114696 81928 -81927 0
-81927 81959 0
-90152 81960 90120 81928 -81927 0
-114728 81960 114696 81928 -81927 0
-90120 81927 0
-122888 90120 114696 81928 -81927 0
-114696 81927 0
-98311 98319 0
-98320 98311 0
-98335 98319 98327 98311 -98310 0
-98336 98320 98328 98312 -98311 0
-98351 98319 98343 98311 -98310 0
-98352 98320 98344 98312 -98311 0
-106512 98320 106504 98312 -98311 0
-114704 98320 114696 98312 -98311 0
-98311 98327 0
-98328 98311 0
-98359 98327 98343 98311 -98310 0
-98360 98328 98344 98312 -98311 0
-114712 98328 114696 98312 -98311 0
-98311 98343 0
-98344 98311 0
-106536 98344 106504 98312 -98311 0
-114728 98344 114696 98312 -98311 0
-106504 98311 0
-122888 106504 114696 98312 -98311 0
-114696 98311 0
-73788 8252 65596 60 -59 0
-81980 16444 65596 60 -59 0
-98364 32828 65596 60 -59 0
-59 65595 0
-90140 24604 73756 8220 -8219 0
-81952 16416 81948 16412 -16411 0
-81980 16444 81948 16412 -16411 0
-90140 24604 81948 16412 -16411 0
-114715 49179 81947 16411 -16410 0
-114716 49180 81948 16412 -16411 0
-16411 81947 0
-81948 16411 0
-98336 32800 98332 32796 -32795 0
-98364 32828 98332 32796 -32795 0
-106523 40987 98331 32795 -32794 0
-106524 40988 98332 32796 -32795 0
-114715 49179 98331 32795 -32794 0
-114716 49180 98332 32796 -32795 0
-32795 98331 0
-98332 32795 0
-65568 65563 0
-65600 65568 65596 65564 -65563 0
-81952 65568 81948 65564 -65563 0
-98336 65568 98332 65564 -65563 0
-65596 65563 0
-73788 65596 73756 65564 -65563 0
-81980 65596 81948 65564 -65563 0
-98364 65596 98332 65564 -65563 0
-73756 65563 0
-65563 81947 0
-81948 65563 0
-114715 81947 98331 65563 -65562 0
-114716 81948 98332 65564 -65563 0
-65563 98331 0
-98332 65563 0
-73772 8235 0
-81968 16432 81964 16428 -16427 0
-81980 16444 81964 16428 -16427 0
-90156 24620 81964 16428 -16427 0
-114732 49196 81964 16428 -16427 0
-16427 81963 0
-81964 16427 0
-98352 32816 98348 32812 -32811 0
-98364 32828 98348 32812 -32811 0
-106540 41004 98348 32812 -32811 0
-114731 49195 98347 32811 -32810 0
-114732 49196 98348 32812 -32811 0
-32811 98347 0
-98348 32811 0
-65584 65579 0
-65600 65584 65596 65580 -65579 0
-81968 65584 81964 65580 -65579 0
-98352 65584 98348 65580 -65579 0
-65596 65579 0
-81980 65596 81964 65580 -65579 0
-98364 65596 98348 65580 -65579 0
-65579 69675 0
-90156 73772 81964 65580 -65579 0
-106539 73771 98347 65579 -65578 0
-65579 81963 0
-81964 65579 0
-114731 81963 98347 65579 -65578 0
-114732 81964 98348 65580 -65579 0
-65579 98347 0
-98348 65579 0
-122892 57356 90124 24588 -24587 0
-90124 24587 0
-106540 41004 106508 40972 -40971 0
-122892 57356 106508 40972 -40971 0
-106508 40971 0
-73739 73755 0
-73739 73771 0
-90124 73739 0
-122892 90124 106508 73740 -73739 0
-114704 49168 114700 49164 -49163 0
-114716 49180 114700 49164 -49163 0
-114732 49196 114700 49164 -49163 0
-116748 51212 114700 49164 -49163 0
-118796 53260 114700 49164 -49163 0
-122892 57356 114700 49164 -49163 0
-114700 49163 0
-81931 81935 0
-81936 81931 0
-90128 81936 90124 81932 -81931 0
-114704 81936 114700 81932 -81931 0
-81931 81947 0
-81948 81931 0
-81980 81948 81964 81932 -81931 0
-114716 81948 114700 81932 -81931 0
-81931 81963 0
-81964 81931 0
-114732 81964 114700 81932 -81931 0
-90124 81931 0
-122892 90124 114700 81932 -81931 0
-114700 81931 0
-98315 98319 0
-98320 98315 0
-98335 98319 98331 98315 -98314 0
-98336 98320 98332 98316 -98315 0
-98352 98320 98348 98316 -98315 0
-106512 98320 106508 98316 -98315 0
-114704 98320 114700 98316 -98315 0
-98315 98331 0
-98332 98315 0
-98363 98331 98347 98315 -98314 0
-98364 98332 98348 98316 -98315 0
-106524 98332 106508 98316 -98315 0
-114716 98332 114700 98316 -98315 0
-98315 98347 0
-98348 98315 0
-100396 98348 100364 98316 -98315 0
-106540 98348 106508 98316 -98315 0
-114732 98348 114700 98316 -98315 0
-102412 98315 0
-106508 98315 0
-122892 106508 114700 98316 -98315 0
-114700 98315 0
-69684 4147 0
-73788 8252 73780 8244 -8243 0
-90163 24627 73779 8243 -8242 0
-90164 24628 73780 8244 -8243 0
-106547 41011 73779 8243 -8242 0
-8243 73779 0
-81976 16440 81972 16436 -16435 0
-81980 16444 81972 16436 -16435 0
-90163 24627 81971 16435 -16434 0
-90164 24628 81972 16436 -16435 0
-114740 49204 81972 16436 -16435 0
-16435 81971 0
-81972 16435 0
-98360 32824 98356 32820 -32819 0
-98364 32828 98356 32820 -32819 0
-106547 41011 98355 32819 -32818 0
-106548 41012 98356 32820 -32819 0
-114739 49203 98355 32819 -32818 0
-114740 49204 98356 32820 -32819 0
-32819 98355 0
-98356 32819 0
-65592 65587 0
-65600 65592 65596 65588 -65587 0
-81976 65592 81972 65588 -65587 0
-98360 65592 98356 65588 -65587 0
-65596 65587 0
-81980 65596 81972 65588 -65587 0
-98364 65596 98356 65588 -65587 0
-65587 69683 0
-73780 65587 0
-65587 81971 0
-81972 65587 0
-114739 81971 98355 65587 -65586 0
-114740 81972 98356 65588 -65587 0
-65587 98355 0
-98356 65587 0
-102420 36883 0
-122900 57364 90132 24596 -24595 0
-90132 24595 0
-106548 41012 106516 40980 -40979 0
-122900 57364 106516 40980 -40979 0
-73747 73755 0
-73747 73779 0
-90132 73747 0
-122900 90132 106516 73748 -73747 0
-106516 73747 0
-114712 49176 114708 49172 -49171 0
-114716 49180 114708 49172 -49171 0
-114740 49204 114708 49172 -49171 0
-122900 57364 114708 49172 -49171 0
-114708 49171 0
-81939 81943 0
-81944 81939 0
-81975 81943 81971 81939 -81938 0
-114712 81944 114708 81940 -81939 0
-81939 81947 0
-81948 81939 0
-114716 81948 114708 81940 -81939 0
-81939 81971 0
-81972 81939 0
-114740 81972 114708 81940 -81939 0
-90132 81939 0
-122900 90132 114708 81940 -81939 0
-114708 81939 0
-98323 98327 0
-98328 98323 0
-98336 98328 98332 98324 -98323 0
-98360 98328 98356 98324 -98323 0
-114712 98328 114708 98324 -98323 0
-98323 98331 0
-98332 98323 0
-98363 98331 98355 98323 -98322 0
-98364 98332 98356 98324 -98323 0
-106524 98332 106516 98324 -98323 0
-114716 98332 114708 98324 -98323 0
-98323 98355 0
-98356 98323 0
-114740 98356 114708 98324 -98323 0
-98323 102419 0
-106516 98323 0
-122900 106516 114708 98324 -98323 0
-114708 98323 0
-69667 102435 0
-122916 57380 90148 24612 -24611 0
-90148 24611 0
-122916 57380 106532 40996 -40995 0
-73763 73767 0
-73763 73771 0
-73763 73779 0
-90148 73763 0
-122916 90148 106532 73764 -73763 0
-114728 49192 114724 49188 -49187 0
-114732 49196 114724 49188 -49187 0
-114740 49204 114724 49188 -49187 0
-122916 57380 114724 49188 -49187 0
-114724 49187 0
-81955 81959 0
-81960 81955 0
-114728 81960 114724 81956 -81955 0
-81955 81963 0
-81964 81955 0
-114732 81964 114724 81956 -81955 0
-81955 81971 0
-81972 81955 0
-90164 81972 90148 81956 -81955 0
-114740 81972 114724 81956 -81955 0
-90148 81955 0
-122916 90148 114724 81956 -81955 0
-114724 81955 0
-98339 98343 0
-98344 98339 0
-98351 98343 98347 98339 -98338 0
-98352 98344 98348 98340 -98339 0
-98359 98343 98355 98339 -98338 0
-98360 98344 98356 98340 -98339 0
-102440 98344 102436 98340 -98339 0
-106536 98344 106532 98340 -98339 0
-114728 98344 114724 98340 -98339 0
-98339 98347 0
-98348 98339 0
-98363 98347 98355 98339 -98338 0
-98364 98348 98356 98340 -98339 0
-106540 98348 106532 98340 -98339 0
-114732 98348 114724 98340 -98339 0
-98339 98355 0
-98356 98339 0
-102452 98356 102436 98340 -98339 0
-114740 98356 114724 98340 -98339 0
-106532 98339 0
-122916 106532 114724 98340 -98339 0
-114724 98339 0
-118792 53256 118788 53252 -53251 0
-53251 118787 0
-90115 90119 0
-90115 90123 0
-90115 90131 0
-90115 90147 0
-122884 90115 0
-106499 106503 0
-106536 106504 106532 106500 -106499 0
-106499 106507 0
-106524 106508 106516 106500 -106499 0
-106499 106515 0
-106499 106531 0
-122884 106499 0
-114691 114695 0
-114704 114696 114700 114692 -114691 0
-114712 114696 114708 114692 -114691 0
-114728 114696 114724 114692 -114691 0
-116744 114696 116740 114692 -114691 0
-114691 114699 0
-114716 114700 114708 114692 -114691 0
-114732 114700 114724 114692 -114691 0
-114691 114707 0
-114740 114708 114724 114692 -114691 0
-114691 114723 0
-118820 114724 118788 114692 -114691 0
-122884 114691 0
-64 65600 0
-4128 69664 0
-90144 24608 81952 16416 -16415 0
-114720 49184 81952 16416 -16415 0
-16415 81951 0
-16416 81952 0
-106528 40992 98336 32800 -32799 0
-114720 49184 98336 32800 -32799 0
-32799 98335 0
-32800 98336 0
-65568 69664 0
-65568 73760 0
-90144 73760 81952 65568 -65567 0
-65568 81952 0
-114720 81952 98336 65568 -65567 0
-65568 98336 0
-4143 69679 0
-4144 69680 0
-90160 24624 81968 16432 -16431 0
-114736 49200 81968 16432 -16431 0
-16432 81968 0
-106544 41008 98352 32816 -32815 0
-114736 49200 98352 32816 -32815 0
-32815 98351 0
-32816 98352 0
-65584 73776 0
-90160 73776 81968 65584 -65583 0
-65584 81968 0
-65584 98352 0
-116752 51216 100368 34832 -34831 0
-102448 36912 102416 36880 -36879 0
-69648 69664 0
-122896 57360 90128 24592 -24591 0
-122896 57360 106512 40976 -40975 0
-73744 73760 0
-77856 73760 77840 73744 -73743 0
-106512 73743 0
-114720 49184 114704 49168 -49167 0
-114736 49200 114704 49168 -49167 0
-122896 57360 114704 49168 -49167 0
-114704 49167 0
-49168 114704 0
-81936 81952 0
-81936 81968 0
-122896 90128 114704 81936 -81935 0
-81936 114704 0
-98336 98319 0
-98320 98336 0
-98368 98336 98352 98320 -98319 0
-106528 98336 106512 98320 -98319 0
-114720 98336 114704 98320 -98319 0
-98352 98319 0
-98320 98352 0
-114704 98319 0
-98320 114704 0
-4152 69688 0
-106552 41016 73784 8248 -8247 0
-114744 49208 81976 16440 -16439 0
-16439 81975 0
-114744 49208 98360 32824 -32823 0
-32823 98359 0
-32824 98360 0
-65592 73784 0
-65592 81976 0
-65592 98360 0
-102432 36896 102424 36888 -36887 0
-122904 57368 90136 24600 -24599 0
-90136 24599 0
-122904 57368 106520 40984 -40983 0
-90136 73751 0
-114720 49184 114712 49176 -49175 0
-114744 49208 114712 49176 -49175 0
-122904 57368 114712 49176 -49175 0
-114712 49175 0
-49176 114712 0
-81944 81952 0
-81984 81952 81976 81944 -81943 0
-90144 81952 90136 81944 -81943 0
-81944 81976 0
-81944 90136 0
-122904 90136 114712 81944 -81943 0
-114712 81943 0
-81944 114712 0
-98336 98327 0
-98328 98336 0
-98368 98336 98360 98328 -98327 0
-98360 98327 0
-98328 98360 0
-114712 98327 0
-98328 114712 0
-36903 102439 0
-69672 86056 0
-122920 57384 90152 24616 -24615 0
-106552 41016 106536 41000 -40999 0
-122920 57384 106536 41000 -40999 0
-41000 106536 0
-73768 73776 0
-90152 73767 0
-114736 49200 114728 49192 -49191 0
-114744 49208 114728 49192 -49191 0
-122920 57384 114728 49192 -49191 0
-114728 49191 0
-49192 114728 0
-81960 81968 0
-81960 81976 0
-81960 90152 0
-122920 90152 114728 81960 -81959 0
-81960 114728 0
-98352 98343 0
-98344 98352 0
-98368 98352 98360 98344 -98343 0
-102448 98352 102440 98344 -98343 0
-106544 98352 106536 98344 -98343 0
-114736 98352 114728 98344 -98343 0
-98360 98343 0
-98344 98360 0
-102456 98360 102440 98344 -98343 0
-114728 98343 0
-98344 114728 0
-51208 116744 0
-90120 90128 0
-90119 90135 0
-90120 90136 0
-90119 90151 0
-90120 90152 0
-106503 106511 0
-106504 106512 0
-106503 106519 0
-106503 106535 0
-106504 106536 0
-114695 114703 0
-114696 114704 0
-114720 114704 114712 114696 -114695 0
-114736 114704 114728 114696 -114695 0
-114695 114711 0
-114696 114712 0
-114744 114712 114728 114696 -114695 0
-114695 114727 0
-114696 114728 0
-114696 118792 0
-2108 67644 0
-8252 73788 0
-114748 49212 81980 16444 -16443 0
-16443 81979 0
-16444 81980 0
-114748 49212 98364 32828 -32827 0
-32827 98363 0
-32828 98364 0
-65596 73788 0
-106556 73788 98364 65596 -65595 0
-65596 81980 0
-114748 81980 98364 65596 -65595 0
-65596 98364 0
-122908 57372 90140 24604 -24603 0
-122908 57372 106524 40988 -40987 0
-40988 106524 0
-90140 73755 0
-114720 49184 114716 49180 -49179 0
-114748 49212 114716 49180 -49179 0
-122908 57372 114716 49180 -49179 0
-114716 49179 0
-49180 114716 0
-81948 81952 0
-114720 81952 114716 81948 -81947 0
-81948 81980 0
-81948 90140 0
-122908 90140 114716 81948 -81947 0
-114716 81947 0
-81948 114716 0
-98336 98331 0
-98332 98336 0
-98368 98336 98364 98332 -98331 0
-114720 98336 114716 98332 -98331 0
-98364 98331 0
-98332 98364 0
-114748 98364 114716 98332 -98331 0
-114716 98331 0
-98332 114716 0
-34860 100396 0
-122924 57388 106540 41004 -41003 0
-41004 106540 0
-114736 49200 114732 49196 -49195 0
-114748 49212 114732 49196 -49195 0
-118828 53292 114732 49196 -49195 0
-122924 57388 114732 49196 -49195 0
-114732 49195 0
-49196 114732 0
-81964 81968 0
-81984 81968 81980 81964 -81963 0
-81964 81980 0
-122924 90156 114732 81964 -81963 0
-114732 81963 0
-81964 114732 0
-98352 98347 0
-98348 98352 0
-98368 98352 98364 98348 -98347 0
-114736 98352 114732 98348 -98347 0
-98364 98347 0
-98348 98364 0
-114748 98364 114732 98348 -98347 0
-98348 100396 0
-106540 98347 0
-114732 98347 0
-98348 114732 0
-100364 116748 0
-118800 53264 118796 53260 -53259 0
-90124 90128 0
-90124 90140 0
-90124 90156 0
-106508 106512 0
-106528 106512 106524 106508 -106507 0
-106507 106523 0
-106508 106524 0
-106556 106524 106540 106508 -106507 0
-106507 106539 0
-106508 106540 0
-114700 114704 0
-114720 114704 114716 114700 -114699 0
-114736 114704 114732 114700 -114699 0
-114699 114715 0
-114700 114716 0
-114699 114731 0
-114700 114732 0
-118828 114732 118796 114700 -114699 0
-90172 24636 90164 24628 -24627 0
-122932 57396 90164 24628 -24627 0
-90164 24627 0
-122932 57396 106548 41012 -41011 0
-73780 73784 0
-90164 73779 0
-122932 90164 106548 73780 -73779 0
-73780 106548 0
-114744 49208 114740 49204 -49203 0
-114748 49212 114740 49204 -49203 0
-122932 57396 114740 49204 -49203 0
-114740 49203 0
-49204 114740 0
-81976 81971 0
-81972 81976 0
-81984 81976 81980 81972 -81971 0
-114744 81976 114740 81972 -81971 0
-81972 81980 0
-90164 81971 0
-81972 90164 0
-122932 90164 114740 81972 -81971 0
-114740 81971 0
-81972 114740 0
-98360 98355 0
-98356 98360 0
-98368 98360 98364 98356 -98355 0
-114744 98360 114740 98356 -98355 0
-98364 98355 0
-98356 98364 0
-114748 98364 114740 98356 -98355 0
-122932 106548 114740 98356 -98355 0
-114740 98355 0
-98356 114740 0
-90132 90136 0
-90132 90140 0
-90131 90163 0
-90132 90164 0
-106516 106520 0
-106528 106520 106524 106516 -106515 0
-106516 106524 0
-106515 106547 0
-106516 106548 0
-114708 114712 0
-114720 114712 114716 114708 -114707 0
-114744 114712 114740 114708 -114707 0
-114708 114716 0
-114748 114716 114740 114708 -114707 0
-114707 114739 0
-114708 114740 0
-116780 51244 116772 51236 -51235 0
-118824 53288 118820 53284 -53283 0
-53283 118819 0
-53284 118820 0
-102436 102444 0
-118836 102452 118820 102436 -102435 0
-90148 90152 0
-90148 90156 0
-90148 90164 0
-106532 106536 0
-106532 106540 0
-106532 106548 0
-114724 114728 0
-114736 114728 114732 114724 -114723 0
-114744 114728 114740 114724 -114723 0
-114724 114732 0
-114748 114732 114740 114724 -114723 0
-114724 114740 0
-116740 116748 0
-118788 118792 0
-118824 118792 118820 118788 -118787 0
-118788 118796 0
-122884 122888 0
-122884 122892 0
-122884 122900 0
-122884 122916 0
-16448 81984 0
-32832 98368 0
-12320 77856 0
-118816 53280 102432 36896 -36895 0
-122912 57376 90144 24608 -24607 0
-122912 57376 106528 40992 -40991 0
-40992 106528 0
-122912 57376 114720 49184 -49183 0
-49184 114720 0
-122912 90144 114720 81952 -81951 0
-81952 114720 0
-98336 114720 0
-36912 102448 0
-69679 102447 0
-122928 57392 106544 41008 -41007 0
-41008 106544 0
-73776 106544 0
-122928 57392 114736 49200 -49199 0
-49200 114736 0
-81968 114736 0
-98352 114736 0
-118832 53296 118800 53264 -53263 0
-102416 118800 0
-90128 90144 0
-90128 90160 0
-106512 106528 0
-106512 106544 0
-114704 114720 0
-114704 114736 0
-114704 116752 0
-114704 118800 0
-36920 102456 0
-122936 57400 114744 49208 -49207 0
-49208 114744 0
-81976 114744 0
-98360 106552 0
-122936 106552 114744 98360 -98359 0
-98360 114744 0
-114712 114720 0
-114712 114744 0
-102440 118824 0
-106536 106544 0
-114728 114736 0
-114752 114736 114744 114728 -114727 0
-114728 114744 0
-122888 122896 0
-122888 122904 0
-122888 122920 0
-20540 86076 0
-122940 57404 106556 41020 -41019 0
-41020 106556 0
-122940 57404 114748 49212 -49211 0
-49212 114748 0
-81980 90172 0
-122940 90172 114748 81980 -81979 0
-81980 114748 0
-122940 106556 114748 98364 -98363 0
-98364 114748 0
-53276 118812 0
-106524 106556 0
-114716 114720 0
-114716 114748 0
-100396 116780 0
-102444 118828 0
-106540 106556 0
-114732 114748 0
-122892 122908 0
-122892 122924 0
-114740 114744 0
-114752 114744 114748 114740 -114739 0
-114740 114748 0
-122900 122932 0
-118820 118828 0
-118844 118828 118836 118820 -118819 0
-81984 114752 0
-118800 118816 0
-122904 122912 0
-122920 122928 0
-122920 122936 0
-86076 118844 0
-118812 118844 0
-122924 122940 0
-131079 0
-131083 0
-131091 0
-131107 0
-196611 0
-131088 0
-131096 0
-131112 0
-147464 0
-163848 0
-196616 0
-131100 0
-131116 0
-147468 0
-163852 0
-196620 0
-131124 0
-147476 0
-163860 0
-196628 0
-147492 0
-163876 0
-196644 0
-204804 0
-212996 0
-229380 0
-147462 16390 131078 6 -5 0
-163846 32774 131078 6 -5 0
-147466 16394 131082 10 -9 0
-163850 32778 131082 10 -9 0
-147474 16402 131090 18 -17 0
-163858 32786 131090 18 -17 0
-147490 16418 131106 34 -33 0
-163874 32802 131106 34 -33 0
-163855 32783 131087 15 -14 0
-196623 65551 131087 15 -14 0
-14 131086 0
-163863 32791 131095 23 -22 0
-147495 16423 131111 39 -38 0
-163879 32807 131111 39 -38 0
-196647 65575 131111 39 -38 0
-38 131110 0
-180231 49159 147463 16391 -16390 0
-147463 16390 0
-163855 32783 163847 32775 -32774 0
-163863 32791 163847 32775 -32774 0
-180231 49159 163847 32775 -32774 0
-163847 32774 0
-196631 65559 196615 65543 -65542 0
-212999 81927 196615 65543 -65542 0
-229383 98311 196615 65543 -65542 0
-196615 65542 0
-131087 131078 0
-131119 131087 131111 131079 -131078 0
-131095 131078 0
-163863 131095 163847 131079 -131078 0
-147463 131078 0
-212999 147463 196615 131079 -131078 0
-229383 163847 196615 131079 -131078 0
-147483 16411 131099 27 -26 0
-163867 32795 131099 27 -26 0
-196635 65563 131099 27 -26 0
-26 131098 0
-163883 32811 131115 43 -42 0
-196651 65579 131115 43 -42 0
-139279 8207 139275 8203 -8202 0
-180235 49163 147467 16395 -16394 0
-147467 16394 0
-163855 32783 163851 32779 -32778 0
-163867 32795 163851 32779 -32778 0
-163883 32811 163851 32779 -32778 0
-180235 49163 163851 32779 -32778 0
-229387 98315 163851 32779 -32778 0
-163851 32778 0
-196623 65551 196619 65547 -65546 0
-196635 65563 196619 65547 -65546 0
-196651 65579 196619 65547 -65546 0
-213003 81931 196619 65547 -65546 0
-229387 98315 196619 65547 -65546 0
-147467 131082 0
-213003 147467 196619 131083 -131082 0
-196619 131082 0
-147507 16435 131123 51 -50 0
-163891 32819 131123 51 -50 0
-196659 65587 131123 51 -50 0
-180243 49171 147475 16403 -16402 0
-147475 16402 0
-163891 32819 163859 32787 -32786 0
-229395 98323 163859 32787 -32786 0
-163859 32786 0
-196631 65559 196627 65555 -65554 0
-196635 65563 196627 65555 -65554 0
-196659 65587 196627 65555 -65554 0
-213011 81939 196627 65555 -65554 0
-229395 98323 196627 65555 -65554 0
-196627 65554 0
-131095 131090 0
-131099 131090 0
-147475 131090 0
-213011 147475 196627 131091 -131090 0
-229395 163859 196627 131091 -131090 0
-196627 131090 0
-180259 49187 147491 16419 -16418 0
-147491 16418 0
-163879 32807 163875 32803 -32802 0
-163883 32811 163875 32803 -32802 0
-180259 49187 163875 32803 -32802 0
-163875 32802 0
-196659 65587 196643 65571 -65570 0
-213027 81955 196643 65571 -65570 0
-229411 98339 196643 65571 -65570 0
-163883 131115 163875 131107 -131106 0
-196659 131123 196643 131107 -131106 0
-147491 131106 0
-213027 147491 196643 131107 -131106 0
-163875 131106 0
-196643 131106 0
-204807 73735 204803 73731 -73730 0
-147458 147462 0
-147458 147466 0
-147458 147474 0
-147458 147490 0
-180227 147458 0
-163842 163846 0
-163842 163850 0
-163842 163858 0
-163842 163874 0
-180227 163842 0
-196610 196614 0
-196623 196615 196619 196611 -196610 0
-196631 196615 196627 196611 -196610 0
-196647 196615 196643 196611 -196610 0
-196610 196618 0
-196635 196619 196627 196611 -196610 0
-196651 196619 196643 196611 -196610 0
-196659 196627 196643 196611 -196610 0
-204819 196627 204803 196611 -196610 0
-200739 196643 200707 196611 -196610 0
-212995 196610 0
-139296 8224 131104 32 -31 0
-163872 32800 131104 32 -31 0
-196640 65568 131104 32 -31 0
-31 131103 0
-147504 16432 131120 48 -47 0
-163888 32816 131120 48 -47 0
-196656 65584 131120 48 -47 0
-47 131119 0
-139280 8207 0
-180240 49168 163856 32784 -32783 0
-229392 98320 163856 32784 -32783 0
-32783 163855 0
-163856 32783 0
-196640 65568 196624 65552 -65551 0
-196656 65584 196624 65552 -65551 0
-200720 69648 196624 65552 -65551 0
-204816 73744 196624 65552 -65551 0
-213007 81935 196623 65551 -65550 0
-213008 81936 196624 65552 -65551 0
-229392 98320 196624 65552 -65551 0
-65551 196623 0
-196624 65551 0
-131104 131087 0
-131136 131104 131120 131088 -131087 0
-163872 131104 163856 131088 -131087 0
-196640 131104 196624 131088 -131087 0
-131120 131087 0
-163888 131120 163856 131088 -131087 0
-196656 131120 196624 131088 -131087 0
-131087 139279 0
-163856 131087 0
-229391 163855 196623 131087 -131086 0
-229392 163856 196624 131088 -131087 0
-131087 196623 0
-196624 131087 0
-163896 32824 131128 56 -55 0
-196664 65592 131128 56 -55 0
-55 131127 0
-155672 24600 139288 8216 -8215 0
-229400 98328 163864 32792 -32791 0
-163864 32791 0
-196640 65568 196632 65560 -65559 0
-196664 65592 196632 65560 -65559 0
-213016 81944 196632 65560 -65559 0
-229400 98328 196632 65560 -65559 0
-65559 196631 0
-196632 65559 0
-131104 131095 0
-147488 131104 147480 131096 -131095 0
-196640 131104 196632 131096 -131095 0
-131128 131095 0
-163896 131128 163864 131096 -131095 0
-196664 131128 196632 131096 -131095 0
-163864 131095 0
-229400 163864 196632 131096 -131095 0
-196632 131095 0
-139304 8231 0
-180264 49192 147496 16424 -16423 0
-213031 81959 147495 16423 -16422 0
-213032 81960 147496 16424 -16423 0
-163888 32816 163880 32808 -32807 0
-163896 32824 163880 32808 -32807 0
-167976 36904 163880 32808 -32807 0
-229416 98344 163880 32808 -32807 0
-32807 163879 0
-163880 32807 0
-196656 65584 196648 65576 -65575 0
-196664 65592 196648 65576 -65575 0
-200744 69672 196648 65576 -65575 0
-213032 81960 196648 65576 -65575 0
-229416 98344 196648 65576 -65575 0
-65575 196647 0
-196648 65575 0
-131120 131111 0
-131136 131120 131128 131112 -131111 0
-163888 131120 163880 131112 -131111 0
-196656 131120 196648 131112 -131111 0
-131128 131111 0
-135224 131128 135208 131112 -131111 0
-163896 131128 163880 131112 -131111 0
-196664 131128 196648 131112 -131111 0
-135208 131111 0
-147496 131111 0
-163880 131111 0
-229415 163879 196647 131111 -131110 0
-229416 163880 196648 131112 -131111 0
-131111 196647 0
-196648 131111 0
-237576 106504 204808 73736 -73735 0
-204808 73735 0
-245768 114696 180232 49160 -49159 0
-180232 49159 0
-245768 114696 213000 81928 -81927 0
-213000 81927 0
-147496 147463 0
-245768 180232 213000 147464 -147463 0
-229392 98320 229384 98312 -98311 0
-229400 98328 229384 98312 -98311 0
-229416 98344 229384 98312 -98311 0
-237576 106504 229384 98312 -98311 0
-245768 114696 229384 98312 -98311 0
-229384 98311 0
-163847 163855 0
-167952 163856 167944 163848 -163847 0
-229392 163856 229384 163848 -163847 0
-163847 163863 0
-163864 163847 0
-229400 163864 229384 163848 -163847 0
-163847 163879 0
-163880 163847 0
-163847 167943 0
-180232 163847 0
-245768 180232 229384 163848 -163847 0
-229384 163847 0
-196615 196623 0
-196624 196615 0
-196639 196623 196631 196615 -196614 0
-196640 196624 196632 196616 -196615 0
-196656 196624 196648 196616 -196615 0
-200720 196624 200712 196616 -196615 0
-213008 196624 213000 196616 -196615 0
-229392 196624 229384 196616 -196615 0
-196615 196631 0
-196632 196615 0
-196663 196631 196647 196615 -196614 0
-196664 196632 196648 196616 -196615 0
-229400 196632 229384 196616 -196615 0
-196615 196647 0
-196648 196615 0
-204840 196648 204808 196616 -196615 0
-229416 196648 229384 196616 -196615 0
-196615 204807 0
-213000 196615 0
-245768 213000 229384 196616 -196615 0
-229384 196615 0
-147516 16444 131132 60 -59 0
-163900 32828 131132 60 -59 0
-196668 65596 131132 60 -59 0
-59 131131 0
-139292 8219 0
-180252 49180 147484 16412 -16411 0
-147484 16411 0
-163900 32828 163868 32796 -32795 0
-180252 49180 163868 32796 -32795 0
-229404 98332 163868 32796 -32795 0
-163868 32795 0
-196640 65568 196636 65564 -65563 0
-196668 65596 196636 65564 -65563 0
-213020 81948 196636 65564 -65563 0
-229404 98332 196636 65564 -65563 0
-65563 196635 0
-196636 65563 0
-131104 131099 0
-131136 131104 131132 131100 -131099 0
-163872 131104 163868 131100 -131099 0
-196640 131104 196636 131100 -131099 0
-131132 131099 0
-196668 131132 196636 131100 -131099 0
-180252 147484 163868 131100 -131099 0
-163868 131099 0
-229403 163867 196635 131099 -131098 0
-229404 163868 196636 131100 -131099 0
-131099 196635 0
-196636 131099 0
-139312 8240 139308 8236 -8235 0
-172076 41004 139308 8236 -8235 0
-139308 8235 0
-163900 32828 163884 32812 -32811 0
-180268 49196 163884 32812 -32811 0
-229420 98348 163884 32812 -32811 0
-163884 32811 0
-196656 65584 196652 65580 -65579 0
-196668 65596 196652 65580 -65579 0
-213035 81963 196651 65579 -65578 0
-213036 81964 196652 65580 -65579 0
-229419 98347 196651 65579 -65578 0
-229420 98348 196652 65580 -65579 0
-65579 196651 0
-196652 65579 0
-131120 131115 0
-163888 131120 163884 131116 -131115 0
-196656 131120 196652 131116 -131115 0
-131132 131115 0
-163900 131132 163884 131116 -131115 0
-196668 131132 196652 131116 -131115 0
-163884 131115 0
-229420 163884 196652 131116 -131115 0
-237580 106508 172044 40972 -40971 0
-172044 40971 0
-172044 139275 0
-180268 49196 180236 49164 -49163 0
-245772 114700 180236 49164 -49163 0
-180236 49163 0
-245772 114700 213004 81932 -81931 0
-213004 81931 0
-147467 147483 0
-180236 147467 0
-245772 180236 213004 147468 -147467 0
-229392 98320 229388 98316 -98315 0
-229404 98332 229388 98316 -98315 0
-229420 98348 229388 98316 -98315 0
-237580 106508 229388 98316 -98315 0
-245772 114700 229388 98316 -98315 0
-229388 98315 0
-163851 163855 0
-163856 163851 0
-163872 163856 163868 163852 -163851 0
-163851 163867 0
-229404 163868 229388 163852 -163851 0
-163851 163883 0
-163884 163851 0
-229420 163884 229388 163852 -163851 0
-237580 172044 229388 163852 -163851 0
-180236 163851 0
-245772 180236 229388 163852 -163851 0
-229388 163851 0
-196619 196623 0
-196624 196619 0
-196640 196624 196636 196620 -196619 0
-196656 196624 196652 196620 -196619 0
-213008 196624 213004 196620 -196619 0
-229392 196624 229388 196620 -196619 0
-196619 196635 0
-196636 196619 0
-196667 196635 196651 196619 -196618 0
-196668 196636 196652 196620 -196619 0
-229404 196636 229388 196620 -196619 0
-196619 196651 0
-196652 196619 0
-229420 196652 229388 196620 -196619 0
-213004 196619 0
-245772 213004 229388 196620 -196619 0
-229388 196619 0
-180275 49203 147507 16435 -16434 0
-180276 49204 147508 16436 -16435 0
-147508 16435 0
-163896 32824 163892 32820 -32819 0
-163900 32828 163892 32820 -32819 0
-180276 49204 163892 32820 -32819 0
-229428 98356 163892 32820 -32819 0
-32819 163891 0
-163892 32819 0
-196664 65592 196660 65588 -65587 0
-196668 65596 196660 65588 -65587 0
-200756 69684 196660 65588 -65587 0
-213044 81972 196660 65588 -65587 0
-229428 98356 196660 65588 -65587 0
-65587 196659 0
-196660 65587 0
-131128 131123 0
-131136 131128 131132 131124 -131123 0
-163896 131128 163892 131124 -131123 0
-196664 131128 196660 131124 -131123 0
-131132 131123 0
-163900 131132 163892 131124 -131123 0
-196668 131132 196660 131124 -131123 0
-213044 147508 196660 131124 -131123 0
-131123 163891 0
-163892 131123 0
-229428 163892 196660 131124 -131123 0
-196660 131123 0
-73747 204819 0
-245780 114708 180244 49172 -49171 0
-180244 49171 0
-213016 81944 213012 81940 -81939 0
-213020 81948 213012 81940 -81939 0
-213044 81972 213012 81940 -81939 0
-245780 114708 213012 81940 -81939 0
-213012 81939 0
-245780 180244 213012 147476 -147475 0
-229400 98328 229396 98324 -98323 0
-229404 98332 229396 98324 -98323 0
-229428 98356 229396 98324 -98323 0
-233492 102420 229396 98324 -98323 0
-237588 106516 229396 98324 -98323 0
-245780 114708 229396 98324 -98323 0
-229396 98323 0
-163859 163863 0
-163872 163864 163868 163860 -163859 0
-163859 163867 0
-163868 163859 0
-163900 163868 163892 163860 -163859 0
-229404 163868 229396 163860 -163859 0
-163859 163891 0
-229428 163892 229396 163860 -163859 0
-245780 180244 229396 163860 -163859 0
-229396 163859 0
-196627 196631 0
-196632 196627 0
-196640 196632 196636 196628 -196627 0
-196664 196632 196660 196628 -196627 0
-200728 196632 200724 196628 -196627 0
-229400 196632 229396 196628 -196627 0
-196627 196635 0
-196636 196627 0
-196668 196636 196660 196628 -196627 0
-200732 196636 200724 196628 -196627 0
-229404 196636 229396 196628 -196627 0
-196627 196659 0
-196660 196627 0
-213044 196660 213012 196628 -196627 0
-229428 196660 229396 196628 -196627 0
-204820 196627 0
-213012 196627 0
-229396 196627 0
-69667 200739 0
-172072 41000 172068 40996 -40995 0
-245796 114724 180260 49188 -49187 0
-180260 49187 0
-245796 114724 213028 81956 -81955 0
-245796 180260 213028 147492 -147491 0
-229416 98344 229412 98340 -98339 0
-229420 98348 229412 98340 -98339 0
-229428 98356 229412 98340 -98339 0
-245796 114724 229412 98340 -98339 0
-229412 98339 0
-163875 163879 0
-163880 163875 0
-163888 163880 163884 163876 -163875 0
-229416 163880 229412 163876 -163875 0
-163875 163883 0
-163884 163875 0
-180268 163884 180260 163876 -163875 0
-163875 163891 0
-163892 163875 0
-245796 180260 229412 163876 -163875 0
-229412 163875 0
-196643 196647 0
-196648 196643 0
-196656 196648 196652 196644 -196643 0
-196664 196648 196660 196644 -196643 0
-229416 196648 229412 196644 -196643 0
-196643 196651 0
-196652 196643 0
-196668 196652 196660 196644 -196643 0
-213036 196652 213028 196644 -196643 0
-229420 196652 229412 196644 -196643 0
-196643 196659 0
-196660 196643 0
-229428 196660 229412 196644 -196643 0
-213028 196643 0
-245796 213028 229412 196644 -196643 0
-229412 196643 0
-233484 102412 233476 102404 -102403 0
-200707 200715 0
-204803 204811 0
-204828 204812 204820 204804 -204803 0
-180227 180231 0
-180227 180235 0
-180227 180243 0
-180227 180259 0
-245764 180227 0
-212995 212999 0
-213008 213000 213004 212996 -212995 0
-212995 213003 0
-213036 213004 213028 212996 -212995 0
-212995 213011 0
-212995 213027 0
-245764 212995 0
-229379 229383 0
-229392 229384 229388 229380 -229379 0
-229400 229384 229396 229380 -229379 0
-229416 229384 229412 229380 -229379 0
-229379 229387 0
-229404 229388 229396 229380 -229379 0
-229420 229388 229412 229380 -229379 0
-237580 229388 237572 229380 -229379 0
-229379 229395 0
-229428 229396 229412 229380 -229379 0
-237588 229396 237572 229380 -229379 0
-229379 229411 0
-233508 229412 233476 229380 -229379 0
-237604 229412 237572 229380 -229379 0
-245764 229379 0
-64 131136 0
-16416 147488 0
-229408 98336 163872 32800 -32799 0
-229408 98336 196640 65568 -65567 0
-65567 196639 0
-65568 196640 0
-131104 196640 0
-4144 135216 0
-172080 41008 139312 8240 -8239 0
-229424 98352 163888 32816 -32815 0
-32815 163887 0
-213040 81968 196656 65584 -65583 0
-229424 98352 196656 65584 -65583 0
-65584 196656 0
-131120 139312 0
-131120 147504 0
-180272 147504 163888 131120 -131119 0
-131120 163888 0
-131120 196656 0
-69648 200720 0
-81936 213008 0
-229408 98336 229392 98320 -98319 0
-245776 114704 229392 98320 -98319 0
-229392 98319 0
-98320 229392 0
-163856 163872 0
-163856 163888 0
-163856 180240 0
-245776 180240 229392 163856 -163855 0
-229392 163855 0
-163856 229392 0
-196640 196623 0
-196624 196640 0
-229408 196640 229392 196624 -196623 0
-196624 196656 0
-229424 196656 229392 196624 -196623 0
-229392 196623 0
-196624 229392 0
-4152 135224 0
-180280 49208 163896 32824 -32823 0
-229432 98360 163896 32824 -32823 0
-32823 163895 0
-32824 163896 0
-213048 81976 196664 65592 -65591 0
-229432 98360 196664 65592 -65591 0
-65591 196663 0
-65592 196664 0
-229432 163896 196664 131128 -131127 0
-131128 196664 0
-69656 200728 0
-139288 139296 0
-245784 114712 213016 81944 -81943 0
-147480 155672 0
-229432 98360 229400 98328 -98327 0
-233496 102424 229400 98328 -98327 0
-237592 106520 229400 98328 -98327 0
-245784 114712 229400 98328 -98327 0
-98328 229400 0
-163864 163872 0
-163864 163896 0
-229400 163863 0
-196632 196640 0
-196672 196640 196664 196632 -196631 0
-196664 196631 0
-196632 196664 0
-196632 213016 0
-229400 196631 0
-196632 229400 0
-217128 86056 200744 69672 -69671 0
-135208 167976 0
-237608 106536 172072 41000 -40999 0
-41000 172072 0
-73768 204840 0
-245800 114728 213032 81960 -81959 0
-229424 98352 229416 98344 -98343 0
-229432 98360 229416 98344 -98343 0
-233512 102440 229416 98344 -98343 0
-245800 114728 229416 98344 -98343 0
-98344 229416 0
-163888 163879 0
-163880 163888 0
-163880 163896 0
-229432 163896 229416 163880 -163879 0
-163880 180264 0
-245800 180264 229416 163880 -163879 0
-163880 229416 0
-196648 196656 0
-196672 196656 196664 196648 -196647 0
-196664 196647 0
-196648 196664 0
-229416 196647 0
-196648 229416 0
-167984 167952 167976 167944 -167943 0
-167944 167976 0
-200712 200728 0
-204808 204816 0
-212999 213007 0
-213000 213008 0
-213000 213016 0
-212999 213031 0
-213000 213032 0
-229383 229391 0
-229384 229392 0
-229408 229392 229400 229384 -229383 0
-229424 229392 229416 229384 -229383 0
-229384 229400 0
-229432 229400 229416 229384 -229383 0
-229383 229415 0
-229384 229416 0
-229384 237576 0
-8252 139324 0
-180284 49212 163900 32828 -32827 0
-229436 98364 163900 32828 -32827 0
-32828 163900 0
-213052 81980 196668 65596 -65595 0
-229436 98364 196668 65596 -65595 0
-65595 196667 0
-65596 196668 0
-131132 139324 0
-131132 163900 0
-131132 196668 0
-73756 204828 0
-245788 114716 180252 49180 -49179 0
-245788 114716 213020 81948 -81947 0
-147484 147516 0
-229408 98336 229404 98332 -98331 0
-229436 98364 229404 98332 -98331 0
-245788 114716 229404 98332 -98331 0
-98332 229404 0
-163868 163872 0
-163868 163900 0
-163868 229404 0
-196636 196640 0
-196672 196640 196668 196636 -196635 0
-229408 196640 229404 196636 -196635 0
-196636 196668 0
-196636 229404 0
-245804 114732 180268 49196 -49195 0
-213052 81980 213036 81964 -81963 0
-245804 114732 213036 81964 -81963 0
-81964 213036 0
-229424 98352 229420 98348 -98347 0
-229436 98364 229420 98348 -98347 0
-245804 114732 229420 98348 -98347 0
-98348 229420 0
-163884 163888 0
-163884 163900 0
-163884 229420 0
-196652 196656 0
-196668 196651 0
-196652 196668 0
-229436 196668 229420 196652 -196651 0
-213036 196651 0
-196652 213036 0
-196652 229420 0
-200736 200720 200732 200716 -200715 0
-200716 200732 0
-237584 106512 237580 106508 -106507 0
-237612 106540 237580 106508 -106507 0
-106508 237580 0
-180236 180252 0
-180236 180268 0
-213004 213020 0
-213003 213035 0
-213004 213036 0
-229388 229392 0
-229408 229392 229404 229388 -229387 0
-229424 229392 229420 229388 -229387 0
-229387 229403 0
-229388 229404 0
-229436 229404 229420 229388 -229387 0
-229387 229419 0
-229388 229420 0
-180276 49203 0
-245812 114740 213044 81972 -81971 0
-81972 213044 0
-245812 180276 213044 147508 -147507 0
-147508 213044 0
-229432 98360 229428 98356 -98355 0
-229436 98364 229428 98356 -98355 0
-245812 114740 229428 98356 -98355 0
-229428 98355 0
-98356 229428 0
-163892 163896 0
-229432 163896 229428 163892 -163891 0
-163892 163900 0
-229436 163900 229428 163892 -163891 0
-245812 180276 229428 163892 -163891 0
-229428 163891 0
-163892 229428 0
-196664 196659 0
-196660 196664 0
-196672 196664 196668 196660 -196659 0
-229432 196664 229428 196660 -196659 0
-196668 196659 0
-196660 196668 0
-229436 196668 229428 196660 -196659 0
-229428 196659 0
-196660 229428 0
-200724 200756 0
-106516 237588 0
-180244 180252 0
-180243 180275 0
-180244 180276 0
-213012 213016 0
-213012 213020 0
-213012 213044 0
-229396 229400 0
-229408 229400 229404 229396 -229395 0
-229432 229400 229428 229396 -229395 0
-229396 229404 0
-229436 229404 229428 229396 -229395 0
-229395 229427 0
-229396 229428 0
-102436 233508 0
-106532 237604 0
-172068 172076 0
-180260 180268 0
-180260 180276 0
-213028 213032 0
-213028 213036 0
-213028 213044 0
-229412 229416 0
-229424 229416 229420 229412 -229411 0
-229432 229416 229428 229412 -229411 0
-229412 229420 0
-229436 229420 229428 229412 -229411 0
-229412 229428 0
-233476 233484 0
-233476 233492 0
-237572 237576 0
-237572 237580 0
-237572 237588 0
-245764 245768 0
-245764 245772 0
-245764 245780 0
-245764 245796 0
-32832 163904 0
-65600 196672 0
-245792 114720 229408 98336 -98335 0
-98336 229408 0
-196640 200736 0
-69680 200752 0
-135216 167984 0
-237616 106544 172080 41008 -41007 0
-245808 114736 229424 98352 -98351 0
-98352 229424 0
-245808 180272 229424 163888 -163887 0
-163888 229424 0
-229392 229408 0
-229440 229408 229424 229392 -229391 0
-229392 229424 0
-229392 237584 0
-245816 114744 213048 81976 -81975 0
-245816 114744 229432 98360 -98359 0
-98360 229432 0
-245816 180280 229432 163896 -163895 0
-163896 229432 0
-196664 229432 0
-200728 233496 0
-213016 213048 0
-229400 229408 0
-229400 229432 0
-233520 102448 233512 102440 -102439 0
-213032 213040 0
-213032 217128 0
-229416 229424 0
-229440 229424 229432 229416 -229415 0
-229416 229432 0
-229416 237608 0
-237576 237592 0
-245768 245776 0
-245768 245784 0
-245768 245800 0
-245768 249864 0
-245820 114748 213052 81980 -81979 0
-81980 213052 0
-98364 229436 0
-245820 213052 229436 196668 -196667 0
-196668 229436 0
-180252 180284 0
-213020 213052 0
-229404 229436 0
-229440 229424 229436 229420 -229419 0
-229420 229436 0
-229420 237612 0
-245772 245788 0
-245772 245804 0
-213044 213052 0
-229428 229432 0
-229440 229432 229436 229428 -229427 0
-229428 229436 0
-245780 245812 0
-163904 229440 0
-249904 118832 233520 102448 -102447 0
-237584 237616 0
-245784 245792 0
-245800 245808 0
-245800 245816 0
-249864 249896 0
-245804 245820 0
-249896 249904 0
-262155 0
-262179 0
-393219 0
-262160 0
-262168 0
-262184 0
-294920 0
-327688 0
-393224 0
-262172 0
-262188 0
-294924 0
-327692 0
-393228 0
-294932 0
-327700 0
-393236 0
-327716 0
-393252 0
-425988 0
-458756 0
-294922 32778 262154 10 -9 0
-294946 32802 262178 34 -33 0
-327695 65551 262159 15 -14 0
-294935 32791 262167 23 -22 0
-327719 65575 262183 39 -38 0
-38 262182 0
-360455 98311 294919 32775 -32774 0
-360455 98311 327687 65543 -65542 0
-458759 196615 327687 65543 -65542 0
-425991 163847 393223 131079 -131078 0
-327723 65579 262187 43 -42 0
-360459 98315 294923 32779 -32778 0
-294923 32778 0
-327695 65551 327691 65547 -65546 0
-360459 98315 327691 65547 -65546 0
-425995 163851 393227 131083 -131082 0
-360459 294923 327691 262155 -262154 0
-360467 98323 294931 32787 -32786 0
-360467 98323 327699 65555 -65554 0
-426003 163859 393235 131091 -131090 0
-294947 32802 0
-426019 163875 393251 131107 -131106 0
-393251 131106 0
-360483 294947 327715 262179 -262178 0
-294914 294922 0
-294914 294946 0
-360451 294914 0
-393231 393223 393227 393219 -393218 0
-393239 393223 393235 393219 -393218 0
-393255 393223 393251 393219 -393218 0
-393243 393227 393235 393219 -393218 0
-393259 393227 393251 393219 -393218 0
-393267 393235 393251 393219 -393218 0
-425987 393218 0
-327712 65568 262176 32 -31 0
-31 262175 0
-327728 65584 262192 48 -47 0
-327712 65568 327696 65552 -65551 0
-327728 65584 327696 65552 -65551 0
-360464 98320 327696 65552 -65551 0
-458768 196624 327696 65552 -65551 0
-65551 327695 0
-327696 65551 0
-401424 139280 393232 131088 -131087 0
-426000 163856 393232 131088 -131087 0
-458768 196624 393232 131088 -131087 0
-131087 393231 0
-458768 327696 393232 262160 -262159 0
-294936 32791 0
-327712 65568 327704 65560 -65559 0
-458776 196632 327704 65560 -65559 0
-65559 327703 0
-426008 163864 393240 131096 -131095 0
-458776 196632 393240 131096 -131095 0
-131095 393239 0
-393240 131095 0
-360472 294936 327704 262168 -262167 0
-327720 65575 0
-393264 131120 393256 131112 -131111 0
-458792 196648 393256 131112 -131111 0
-131111 393255 0
-393256 131111 0
-458791 327719 393255 262183 -262182 0
-458792 327720 393256 262184 -262183 0
-262183 393255 0
-491528 229384 360456 98312 -98311 0
-360456 98311 0
-425992 163847 0
-491528 360456 425992 294920 -294919 0
-458768 196624 458760 196616 -196615 0
-458776 196632 458760 196616 -196615 0
-458792 196648 458760 196616 -196615 0
-466952 204808 458760 196616 -196615 0
-475144 213000 458760 196616 -196615 0
-491528 229384 458760 196616 -196615 0
-458760 196615 0
-327687 327695 0
-327728 327696 327720 327688 -327687 0
-327704 327687 0
-360456 327687 0
-491528 360456 458760 327688 -327687 0
-458760 327687 0
-393232 393223 0
-393248 393232 393240 393224 -393223 0
-393264 393232 393256 393224 -393223 0
-426000 393232 425992 393224 -393223 0
-458768 393232 458760 393224 -393223 0
-393223 393239 0
-393240 393223 0
-393272 393240 393256 393224 -393223 0
-458776 393240 458760 393224 -393223 0
-393256 393223 0
-426024 393256 425992 393224 -393223 0
-458792 393256 458760 393224 -393223 0
-425992 393223 0
-491528 425992 458760 393224 -393223 0
-458760 393223 0
-327740 65596 262204 60 -59 0
-59 262203 0
-327740 65596 327708 65564 -65563 0
-458780 196636 327708 65564 -65563 0
-327708 65563 0
-393276 131132 393244 131100 -131099 0
-458780 196636 393244 131100 -131099 0
-131099 393243 0
-262176 262171 0
-458780 327708 393244 262172 -262171 0
-458796 196652 327724 65580 -65579 0
-327724 65579 0
-393276 131132 393260 131116 -131115 0
-458796 196652 393260 131116 -131115 0
-131115 393259 0
-393260 131115 0
-458796 327724 393260 262188 -262187 0
-139275 401419 0
-360460 98315 0
-426000 163856 425996 163852 -163851 0
-491532 229388 425996 163852 -163851 0
-425996 163851 0
-491532 360460 425996 294924 -294923 0
-458768 196624 458764 196620 -196619 0
-458780 196636 458764 196620 -196619 0
-458796 196652 458764 196620 -196619 0
-475148 213004 458764 196620 -196619 0
-491532 229388 458764 196620 -196619 0
-458764 196619 0
-458768 327696 458764 327692 -327691 0
-491532 360460 458764 327692 -327691 0
-393232 393227 0
-393248 393232 393244 393228 -393227 0
-393264 393232 393260 393228 -393227 0
-458768 393232 458764 393228 -393227 0
-393227 393243 0
-393244 393227 0
-393276 393244 393260 393228 -393227 0
-458780 393244 458764 393228 -393227 0
-393260 393227 0
-401452 393260 401420 393228 -393227 0
-458796 393260 458764 393228 -393227 0
-425996 393227 0
-458764 393227 0
-360500 98356 294964 32820 -32819 0
-327736 65592 327732 65588 -65587 0
-360500 98356 327732 65588 -65587 0
-65587 327731 0
-458804 196660 393268 131124 -131123 0
-131123 393267 0
-491540 229396 360468 98324 -98323 0
-360468 98323 0
-426008 163864 426004 163860 -163859 0
-426004 163859 0
-294931 294935 0
-294964 294931 0
-360468 294931 0
-491540 360468 426004 294932 -294931 0
-458776 196632 458772 196628 -196627 0
-458780 196636 458772 196628 -196627 0
-458804 196660 458772 196628 -196627 0
-475156 213012 458772 196628 -196627 0
-491540 229396 458772 196628 -196627 0
-458772 196627 0
-327712 327704 327708 327700 -327699 0
-327736 327704 327732 327700 -327699 0
-327740 327708 327732 327700 -327699 0
-327699 327731 0
-360468 327699 0
-491540 360468 458772 327700 -327699 0
-393240 393235 0
-393248 393240 393244 393236 -393235 0
-393272 393240 393268 393236 -393235 0
-458776 393240 458772 393236 -393235 0
-393244 393235 0
-393276 393244 393268 393236 -393235 0
-458780 393244 458772 393236 -393235 0
-393268 393235 0
-458804 393268 458772 393236 -393235 0
-426004 393235 0
-491540 426004 458772 393236 -393235 0
-458772 393235 0
-491556 229412 360484 98340 -98339 0
-360484 98339 0
-426020 163875 0
-458792 196648 458788 196644 -196643 0
-458796 196652 458788 196644 -196643 0
-458804 196660 458788 196644 -196643 0
-475172 213028 458788 196644 -196643 0
-491556 229412 458788 196644 -196643 0
-458788 196643 0
-327715 327719 0
-491556 360484 458788 327716 -327715 0
-458788 327715 0
-393256 393251 0
-393264 393256 393260 393252 -393251 0
-393272 393256 393268 393252 -393251 0
-458792 393256 458788 393252 -393251 0
-393260 393251 0
-393276 393260 393268 393252 -393251 0
-458796 393260 458788 393252 -393251 0
-393268 393251 0
-458804 393268 458788 393252 -393251 0
-491556 426020 458788 393252 -393251 0
-458788 393251 0
-475148 213004 475140 212996 -212995 0
-360451 360455 0
-360451 360459 0
-360451 360467 0
-360451 360483 0
-491524 360451 0
-425987 425991 0
-425987 425995 0
-425987 426003 0
-425987 426019 0
-491524 425987 0
-458755 458759 0
-458768 458760 458764 458756 -458755 0
-458776 458760 458772 458756 -458755 0
-458792 458760 458788 458756 -458755 0
-458755 458763 0
-458780 458764 458772 458756 -458755 0
-458796 458764 458788 458756 -458755 0
-466956 458764 466948 458756 -458755 0
-458755 458771 0
-458804 458772 458788 458756 -458755 0
-475156 458772 475140 458756 -458755 0
-458755 458787 0
-475172 458788 475140 458756 -458755 0
-491524 458755 0
-65568 327712 0
-458784 196640 393248 131104 -131103 0
-131104 393248 0
-65584 327728 0
-458800 196656 393264 131120 -131119 0
-131120 393264 0
-262192 393264 0
-491536 229392 426000 163856 -163855 0
-458784 196640 458768 196624 -196623 0
-458800 196656 458768 196624 -196623 0
-491536 229392 458768 196624 -196623 0
-196624 458768 0
-327696 327712 0
-458800 327728 458768 327696 -327695 0
-458768 327695 0
-327696 458768 0
-458784 393248 458768 393232 -393231 0
-458768 393231 0
-393232 458768 0
-360504 98360 327736 65592 -65591 0
-65592 327736 0
-131128 393272 0
-458784 196640 458776 196632 -196631 0
-458808 196664 458776 196632 -196631 0
-491544 229400 458776 196632 -196631 0
-196632 458776 0
-458784 327712 458776 327704 -327703 0
-327704 458776 0
-393280 393248 393272 393240 -393239 0
-393240 393272 0
-393240 426008 0
-393240 458776 0
-163880 426024 0
-458808 196664 458792 196648 -196647 0
-491560 229416 458792 196648 -196647 0
-196648 458792 0
-327720 458792 0
-393256 458792 0
-360456 360464 0
-426040 426008 426024 425992 -425991 0
-458759 458767 0
-458760 458768 0
-458784 458768 458776 458760 -458759 0
-458800 458768 458792 458760 -458759 0
-458760 458776 0
-458808 458776 458792 458760 -458759 0
-458759 458791 0
-458760 458792 0
-360508 98364 327740 65596 -65595 0
-65596 327740 0
-426044 163900 393276 131132 -131131 0
-131131 393275 0
-131132 393276 0
-262204 327740 0
-262204 393276 0
-458784 196640 458780 196636 -196635 0
-491548 229404 458780 196636 -196635 0
-196636 458780 0
-327708 327712 0
-327708 458780 0
-458784 393248 458780 393244 -393243 0
-393244 393276 0
-458812 393276 458780 393244 -393243 0
-393244 458780 0
-139308 401452 0
-458812 196668 458796 196652 -196651 0
-491564 229420 458796 196652 -196651 0
-196652 458796 0
-327724 327728 0
-458796 327723 0
-393260 393276 0
-458796 393259 0
-393260 458796 0
-204812 466956 0
-401420 401424 0
-401468 401436 401452 401420 -401419 0
-466988 401452 466956 401420 -401419 0
-401420 466956 0
-475180 213036 475148 213004 -213003 0
-425996 426000 0
-458764 458768 0
-458784 458768 458780 458764 -458763 0
-458800 458768 458796 458764 -458763 0
-458763 458779 0
-458764 458780 0
-458812 458780 458796 458764 -458763 0
-466972 458780 466956 458764 -458763 0
-458764 458796 0
-458764 475148 0
-163892 426036 0
-458812 196668 458804 196660 -196659 0
-491572 229428 458804 196660 -196659 0
-196660 458804 0
-458808 327736 458804 327732 -327731 0
-327732 327740 0
-327732 458804 0
-393268 458804 0
-213012 475156 0
-360468 360472 0
-360468 360476 0
-360468 360500 0
-458772 458776 0
-458784 458776 458780 458772 -458771 0
-458808 458776 458804 458772 -458771 0
-458772 458780 0
-458812 458780 458804 458772 -458771 0
-458772 458804 0
-213028 475172 0
-360484 360500 0
-458788 458792 0
-458808 458792 458804 458788 -458787 0
-458788 458796 0
-458812 458796 458804 458788 -458787 0
-458788 458804 0
-466948 466952 0
-475140 475144 0
-475140 475156 0
-475140 475172 0
-491524 491528 0
-491524 491532 0
-491524 491540 0
-491524 491556 0
-65600 327744 0
-131136 393280 0
-491552 229408 458784 196640 -196639 0
-196640 458784 0
-196656 458800 0
-458768 458784 0
-458816 458784 458800 458768 -458767 0
-458768 458800 0
-491576 229432 426040 163896 -163895 0
-163896 426040 0
-491576 229432 458808 196664 -196663 0
-196664 458808 0
-327736 458808 0
-393272 458808 0
-360472 360504 0
-458776 458784 0
-458776 458808 0
-458792 458800 0
-458792 458808 0
-491528 491536 0
-491528 491544 0
-491528 491560 0
-139324 401468 0
-491580 229436 458812 196668 -196667 0
-196668 458812 0
-327740 458812 0
-491580 426044 458812 393276 -393275 0
-393276 458812 0
-401436 466972 0
-360476 360508 0
-458780 458784 0
-458816 458784 458812 458780 -458779 0
-458796 466988 0
-458796 475180 0
-491532 491548 0
-491532 491564 0
-458804 458808 0
-458804 458812 0
-491540 491572 0
-327744 458816 0
-491544 491552 0
-491560 491576 0
-491564 491580 0
-524328 0
-655396 0
-917508 0
-589863 65575 524327 39 -38 0
-655403 131115 655395 131107 -131106 0
-589856 65568 524320 32 -31 0
-31 524319 0
-720912 196624 655376 131088 -131087 0
-131087 655375 0
-720920 196632 655384 131096 -131095 0
-589864 65575 0
-720936 196648 655400 131112 -131111 0
-720936 589864 655400 524328 -524327 0
-983048 458760 720904 196616 -196615 0
-917520 393232 917512 393224 -393223 0
-917528 393240 917512 393224 -393223 0
-917544 393256 917512 393224 -393223 0
-950280 425992 917512 393224 -393223 0
-983048 458760 917512 393224 -393223 0
-917512 393223 0
-720924 196636 655388 131100 -131099 0
-720940 196652 655404 131116 -131115 0
-655404 131115 0
-983052 458764 720908 196620 -196619 0
-917520 393232 917516 393228 -393227 0
-917532 393244 917516 393228 -393227 0
-917548 393260 917516 393228 -393227 0
-950284 425996 917516 393228 -393227 0
-983052 458764 917516 393228 -393227 0
-917516 393227 0
-655371 655403 0
-917516 655371 0
-720948 196660 655412 131124 -131123 0
-983060 458772 720916 196628 -196627 0
-917528 393240 917524 393236 -393235 0
-917532 393244 917524 393236 -393235 0
-917556 393268 917524 393236 -393235 0
-983060 458772 917524 393236 -393235 0
-917524 393235 0
-720916 655379 0
-983076 458788 720932 196644 -196643 0
-589859 589863 0
-720932 589859 0
-917544 393256 917540 393252 -393251 0
-917548 393260 917540 393252 -393251 0
-917556 393268 917540 393252 -393251 0
-983076 458788 917540 393252 -393251 0
-917540 393251 0
-917548 655404 917540 655396 -655395 0
-950280 425992 950276 425988 -425987 0
-425987 950275 0
-917507 917511 0
-917520 917512 917516 917508 -917507 0
-917528 917512 917524 917508 -917507 0
-917544 917512 917540 917508 -917507 0
-950280 917512 950276 917508 -917507 0
-917507 917515 0
-917532 917516 917524 917508 -917507 0
-917548 917516 917540 917508 -917507 0
-917507 917523 0
-917556 917524 917540 917508 -917507 0
-950292 917524 950276 917508 -917507 0
-917507 917539 0
-950308 917540 950276 917508 -917507 0
-983044 917507 0
-262175 786463 0
-852000 589856 786464 524320 -524319 0
-524320 786464 0
-983056 458768 720912 196624 -196623 0
-196624 720912 0
-983056 458768 917520 393232 -393231 0
-917520 393231 0
-393232 917520 0
-983056 720912 917520 655376 -655375 0
-655376 917520 0
-983064 458776 917528 393240 -393239 0
-917528 393239 0
-393240 917528 0
-655384 917528 0
-983080 458792 917544 393256 -393255 0
-393256 917544 0
-655400 917544 0
-720904 720912 0
-720904 720920 0
-720904 720936 0
-917512 917520 0
-917536 917520 917528 917512 -917511 0
-917552 917520 917544 917512 -917511 0
-917512 917528 0
-917560 917528 917544 917512 -917511 0
-917512 917544 0
-917512 950280 0
-852028 327740 786492 262204 -262203 0
-262203 786491 0
-983068 458780 917532 393244 -393243 0
-393244 917532 0
-655388 917532 0
-917564 393276 917548 393260 -393259 0
-983084 458796 917548 393260 -393259 0
-393260 917548 0
-655404 917548 0
-720908 720912 0
-917516 917520 0
-917536 917520 917532 917516 -917515 0
-917552 917520 917548 917516 -917515 0
-917516 917532 0
-917564 917532 917548 917516 -917515 0
-917516 917548 0
-983092 458804 917556 393268 -393267 0
-393268 917556 0
-655412 917556 0
-426004 950292 0
-720916 720920 0
-720916 720924 0
-720916 720948 0
-917524 917528 0
-917536 917528 917532 917524 -917523 0
-917560 917528 917556 917524 -917523 0
-917524 917532 0
-917564 917532 917556 917524 -917523 0
-917524 917556 0
-720932 720936 0
-720932 720940 0
-720932 720948 0
-917540 917544 0
-917552 917544 917548 917540 -917539 0
-917560 917544 917556 917540 -917539 0
-917540 917548 0
-917564 917548 917556 917540 -917539 0
-917540 917556 0
-950276 950280 0
-950312 950280 950308 950276 -950275 0
-950276 950284 0
-950324 950292 950308 950276 -950275 0
-983044 983048 0
-983044 983052 0
-983044 983060 0
-983044 983076 0
-393248 917536 0
-983072 852000 917536 786464 -786463 0
-786464 917536 0
-393264 917552 0
-393272 917560 0
-426024 950312 0
-983048 983056 0
-983048 983064 0
-983048 983080 0
-393276 917564 0
-983100 852028 917564 786492 -786491 0
-786492 917564 0
-983052 983068 0
-983052 983084 0
-426036 950324 0
-983060 983092 0
-983064 983072 0
-983084 983100 0
64 0
964 0
1924 0
3844 0
7684 0
15364 0
30724 0
61444 0
122884 0
245764 0
491524 0
983044 0
-456 -400 -288 -64 -572 -1588 -3620 0
-456 -400 -784 -544 -1564 -3604 -7188 -14372 -28708 -57380 -114724 0
-456 -400 -784 -544 -1564 -3604 -7188 -57380 -114724 -229412 -458788 0
-456 -904 -1800 -1552 -3596 -7180 -6172 -14356 -28692 -24628 -57380 -114724 -229412 0
-904 -784 -544 -64 -1084 -3124 -7204 0
-904 -784 -544 -1056 -1084 -3124 -7204 -14372 0
-904 -784 -544 -1056 -3100 -3124 -7204 -14372 -28708 0
-904 -784 -544 -1056 -3100 -7188 -7204 -14372 -28708 -57380 0
-904 -784 -1552 -1056 -3100 -3124 -6196 -14372 -28708 0
-904 -784 -1552 -1056 -3100 -7188 -14356 -14372 -28708 -57380 -114724 0
-904 -784 -1552 -1056 -3100 -7188 -14356 -114724 -229412 -458788 -917540 0
-904 -1800 -1552 -1056 -3100 -2108 -6196 -14372 -28708 0
-904 -1800 -1552 -1056 -3100 -6172 -14356 -14372 -28708 -57380 -114724 0
-904 -1800 -1552 -3088 -7180 -6172 -6196 -12340 -24628 -57380 0
-904 -1800 -3592 -3088 -3100 -2108 -4156 -12340 -28708 0
-904 -1800 -3592 -3088 -7180 -6172 -4156 -12340 -24628 -57380 0
-904 -1800 -3592 -3088 -7180 -14348 -12316 -28692 -57364 -49204 -114724 -229412 -458788 0
-904 -1800 -3592 -7176 -7180 -6172 -4156 -8252 -24628 -57380 0
-904 -1800 -3592 -7176 -7180 -6172 -12316 -8252 -24628 -57380 -114724 0
-904 -1800 -3592 -7176 -14348 -28684 -24604 -16444 -49204 -98356 -229412 0
-1800 -1552 -1056 -64 -2108 -6196 -14372 0
-1800 -1552 -1056 -2080 -2108 -6196 -14372 -28708 0
-1800 -1552 -1056 -2080 -6172 -6196 -14372 -28708 -57380 0
-1800 -1552 -1056 -2080 -6172 -14356 -14372 -28708 -57380 -114724 0
-1800 -1552 -3088 -2080 -2108 -6196 -12340 -28708 0
-1800 -1552 -3088 -2080 -6172 -14356 -12340 -28708 -57380 -114724 0
-1800 -3592 -3088 -2080 -2108 -4156 -12340 -28708 0
-1800 -3592 -3088 -2080 -6172 -12316 -28692 -28708 -57380 -114724 -229412 0
-1800 -3592 -3088 -6160 -14348 -28684 -28692 -57364 -114708 -98356 -229412 -458788 -917540 0
-1800 -3592 -7176 -6160 -6172 -4156 -8252 -24628 -57380 0
-1800 -3592 -7176 -6160 -14348 -12316 -8252 -24628 -49204 -114724 0
-1800 -3592 -7176 -6160 -14348 -28684 -24604 -57364 -114708 -98356 -229412 -458788 -917540 0
-1800 -3592 -7176 -14344 -14348 -12316 -8252 -16444 -49204 -114724 0
-1800 -3592 -7176 -14344 -14348 -12316 -24604 -16444 -49204 -114724 -229412 0
-1800 -3592 -7176 -14344 -28684 -24604 -16444 -32828 -98356 -229412 0
-3592 -3088 -2080 -64 -4156 -12340 -28708 0
-3592 -3088 -2080 -4128 -12316 -12340 -28708 -57380 -114724 0
-3592 -3088 -2080 -4128 -12316 -28692 -28708 -57380 -114724 -229412 0
-3592 -3088 -2080 -4128 -12316 -28692 -57380 -114724 -229412 -458788 0
-3592 -7176 -6160 -4128 -12316 -24604 -57364 -57380 -114724 -229412 -458788 0
-3592 -7176 -14344 -12304 -12316 -8252 -16444 -49204 -114724 0
-3592 -7176 -14344 -28680 -28684 -24604 -16444 -32828 -98356 -229412 0
-3592 -7176 -14344 -28680 -28684 -24604 -49180 -32828 -98356 -229412 -458788 0
-3592 -7176 -14344 -28680 -57356 -49180 -32828 -65596 -196660 -458788 0
-3592 -7176 -14344 -28680 -57356 -114700 -98332 -65596 -196660 -393268 -917540 0
-7176 -6160 -4128 -64 -8252 -24628 -57380 0
-7176 -6160 -4128 -8224 -24604 -24628 -57380 -114724 -229412 0
-7176 -6160 -4128 -8224 -24604 -57364 -57380 -114724 -229412 -458788 0
-7176 -6160 -12304 -8224 -8252 -24628 -49204 -114724 0
-7176 -6160 -12304 -8224 -24604 -24628 -49204 -114724 -229412 0
-7176 -6160 -12304 -24592 -24604 -57364 -49204 -98356 -229412 -458788 0
-7176 -14344 -12304 -8224 -8252 -16444 -49204 -114724 0
-7176 -14344 -12304 -24592 -24604 -16444 -49204 -98356 -229412 0
-7176 -14344 -28680 -24592 -24604 -16444 -32828 -98356 -229412 0
-7176 -14344 -28680 -57352 -57356 -49180 -32828 -65596 -196660 -458788 0
-7176 -14344 -28680 -57352 -57356 -49180 -98332 -65596 -196660 -458788 -917540 0
-14344 -12304 -8224 -64 -16444 -49204 -114724 0
-14344 -12304 -8224 -16416 -49180 -49204 -114724 -229412 -458788 0
-14344 -28680 -24592 -16416 -16444 -32828 -98356 -229412 0
-28680 -24592 -16416 -64 -32828 -98356 -229412 0
-28680 -24592 -16416 -32800 -32828 -98356 -229412 -458788 0
-28680 -24592 -16416 -32800 -98332 -98356 -229412 -458788 -917540 0
-57352 -49168 -32800 -64 -65596 -196660 -458788 0
-114696 -98320 -65568 -64 -131132 -393268 -917540 0
-456 -400 -304 -64 -572 -1588 -3604 0
-456 -400 -784 -560 -1580 -3620 -7204 -57364 -114708 -229396 -458772 0
-456 -904 -1800 -1552 -3596 -7180 -6188 -14372 -28708 -24628 -57364 -114708 -229396 0
-456 -904 -1800 -3592 -3596 -3116 -2108 -4156 -12340 -28692 0
-456 -904 -1800 -3592 -28684 -57356 -49196 -32828 -98356 -196660 -458772 0
-904 -784 -560 -64 -1084 -3124 -7188 0
-904 -784 -560 -1072 -3116 -3124 -7188 -14356 -28692 0
-904 -784 -560 -1072 -3116 -7204 -28692 -57364 -114708 -229396 0
-904 -784 -560 -1072 -3116 -7204 -114708 -229396 -458772 -917524 0
-904 -784 -1552 -1072 -3116 -7204 -14372 -57364 -114708 -229396 -458772 0
-904 -784 -1552 -1072 -3116 -7204 -14372 -114708 -229396 -458772 -917524 0
-904 -784 -1552 -3088 -7180 -7204 -14372 -28708 -24628 -57364 -114708 -229396 0
-904 -1800 -1552 -3088 -7180 -6188 -6196 -12340 -24628 -57364 0
-904 -1800 -3592 -3088 -3116 -2108 -4156 -12340 -28692 0
-904 -1800 -3592 -3088 -7180 -6188 -4156 -12340 -24628 -57364 0
-904 -1800 -3592 -3088 -7180 -14348 -12332 -28708 -57380 -49204 -114708 -229396 -458772 0
-904 -1800 -3592 -7176 -7180 -6188 -4156 -8252 -24628 -57364 0
-904 -1800 -3592 -7176 -7180 -6188 -12332 -8252 -24628 -57364 -114708 0
-904 -1800 -3592 -7176 -28684 -57356 -49196 -32828 -98356 -196660 -458772 0
-904 -1800 -3592 -7176 -28684 -57356 -114700 -98348 -98356 -196660 -393268 -917524 0
-904 -1800 -3592 -7176 -57356 -114700 -98348 -65596 -196660 -393268 -917524 0
-1800 -1552 -1072 -64 -2108 -6196 -14356 0
-1800 -1552 -1072 -2096 -6188 -6196 -14356 -28692 -57364 0
-1800 -1552 -1072 -2096 -6188 -14372 -14356 -28692 -57364 -114708 0
-1800 -1552 -1072 -2096 -6188 -14372 -57364 -114708 -229396 -458772 0
-1800 -1552 -3088 -2096 -2108 -6196 -12340 -28692 0
-1800 -1552 -3088 -2096 -6188 -14372 -12340 -28692 -57364 -114708 0
-1800 -3592 -3088 -2096 -2108 -4156 -12340 -28692 0
-1800 -3592 -3088 -2096 -6188 -4156 -12340 -28692 -57364 0
-1800 -3592 -3088 -2096 -6188 -12332 -28708 -28692 -57364 -114708 -229396 0
-1800 -3592 -3088 -6160 -14348 -12332 -12340 -24628 -49204 -114708 0
-1800 -3592 -3088 -6160 -14348 -28684 -28708 -57380 -114724 -98356 -229396 -458772 -917524 0
-1800 -3592 -7176 -6160 -6188 -4156 -8252 -24628 -57364 0
-1800 -3592 -7176 -6160 -14348 -28684 -24620 -57380 -114724 -98356 -229396 -458772 -917524 0
-1800 -3592 -7176 -14344 -14348 -12332 -8252 -16444 -49204 -114708 0
-1800 -3592 -7176 -14344 -28684 -57356 -49196 -32828 -98356 -196660 -458772 0
-1800 -3592 -7176 -14344 -57356 -49196 -32828 -65596 -196660 -458772 0
-3592 -3088 -2096 -64 -4156 -12340 -28692 0
-3592 -3088 -2096 -4144 -4156 -12340 -28692 -57364 0
-3592 -3088 -2096 -4144 -12332 -12340 -28692 -57364 -114708 0
-3592 -3088 -6160 -12304 -12332 -28708 -24628 -49204 -114708 -229396 0
-3592 -7176 -6160 -4144 -12332 -24620 -57380 -57364 -114708 -229396 -458772 0
-3592 -7176 -6160 -12304 -12332 -8252 -24628 -49204 -114708 0
-3592 -7176 -6160 -12304 -28684 -57356 -57380 -49204 -98356 -196660 -458772 0
-3592 -7176 -14344 -12304 -12332 -8252 -16444 -49204 -114708 0
-3592 -7176 -14344 -12304 -28684 -57356 -49196 -49204 -98356 -196660 -458772 0
-3592 -7176 -14344 -28680 -28684 -24620 -16444 -32828 -98356 -229396 0
-7176 -6160 -4144 -64 -8252 -24628 -57364 0
-7176 -6160 -4144 -8240 -24620 -24628 -57364 -114708 -229396 0
-7176 -6160 -4144 -8240 -24620 -57380 -57364 -114708 -229396 -458772 0
-7176 -6160 -12304 -8240 -8252 -24628 -49204 -114708 0
-7176 -14344 -28680 -24592 -24620 -16444 -32828 -98356 -229396 0
-7176 -14344 -28680 -57352 -57356 -49196 -98348 -65596 -196660 -458772 -917524 0
-14344 -12304 -8240 -64 -16444 -49204 -114708 0
-14344 -12304 -8240 -16432 -16444 -49204 -114708 -229396 0
-14344 -12304 -8240 -16432 -49196 -49204 -114708 -229396 -458772 0
-14344 -12304 -8240 -16432 -49196 -114724 -114708 -229396 -458772 -917524 0
-14344 -12304 -24592 -16432 -16444 -49204 -98356 -229396 0
-14344 -28680 -57352 -49168 -49196 -32828 -65596 -196660 -458772 0
-28680 -24592 -16432 -64 -32828 -98356 -229396 0
-28680 -24592 -16432 -32816 -98348 -98356 -229396 -458772 -917524 0
-28680 -24592 -49168 -32816 -32828 -98356 -196660 -458772 0
-57352 -49168 -32816 -64 -65596 -196660 -458772 0
-114696 -98320 -65584 -64 -131132 -393268 -917524 0
-456 -408 -288 -64 -572 -1580 -3620 0
-456 -408 -288 -544 -572 -1580 -3620 -7204 0
-456 -408 -288 -544 -1564 -3596 -57380 -114724 -229412 -458788 0
-456 -408 -792 -544 -1564 -3596 -7180 -57380 -114724 -229412 -458788 0
-456 -904 -792 -544 -1564 -3100 -7180 -7204 -14372 -28708 -57380 0
-456 -904 -792 -1560 -3604 -7188 -7180 -14348 -28684 -24620 -57380 -114724 -229412 0
-456 -904 -1800 -1560 -1564 -1084 -2108 -6188 -14372 0
-456 -904 -1800 -1560 -3604 -3100 -2108 -6188 -12332 -28708 0
-456 -904 -1800 -1560 -3604 -7188 -6172 -14348 -28684 -24620 -57380 -114724 -229412 0
-456 -904 -1800 -3592 -7188 -6172 -4156 -8252 -24620 -57380 0
-456 -904 -1800 -3592 -7188 -14356 -12316 -8252 -24620 -49196 -114724 0
-456 -904 -1800 -3592 -28692 -57364 -49180 -32828 -98348 -196652 -458788 0
-904 -792 -544 -64 -1084 -3116 -7204 0
-904 -792 -544 -1056 -1084 -3116 -7204 -14372 0
-904 -792 -544 -1056 -3100 -3116 -7204 -14372 -28708 0
-904 -792 -544 -1056 -3100 -7180 -14372 -28708 -57380 -114724 0
-904 -792 -1560 -1056 -1084 -3116 -6188 -14372 0
-904 -792 -1560 -1056 -3100 -3116 -6188 -14372 -28708 0
-904 -792 -1560 -1056 -3100 -7180 -6188 -14372 -28708 -57380 0
-904 -792 -1560 -1056 -3100 -7180 -14348 -14372 -28708 -57380 -114724 0
-904 -792 -1560 -1056 -3100 -7180 -14348 -114724 -229412 -458788 -917540 0
-904 -792 -1560 -3096 -3100 -3116 -6188 -12332 -28708 0
-904 -1800 -1560 -1056 -3100 -6172 -14348 -28708 -57380 -114724 -229412 0
-904 -1800 -3592 -3096 -3100 -2108 -4156 -12332 -28708 0
-904 -1800 -3592 -3096 -7188 -6172 -4156 -12332 -24620 -57380 0
-904 -1800 -3592 -3096 -7188 -14356 -12316 -28684 -57356 -49196 -114724 -229412 -458788 0
-904 -1800 -3592 -7176 -7188 -6172 -12316 -8252 -24620 -57380 -114724 0
-904 -1800 -3592 -7176 -7188 -14356 -28692 -24604 -57356 -114700 -98348 -229412 -458788 -917540 0
-1800 -1560 -1056 -64 -2108 -6188 -14372 0
-1800 -1560 -1056 -2080 -6172 -6188 -14372 -28708 -57380 0
-1800 -1560 -1056 -2080 -6172 -14348 -14372 -28708 -57380 -114724 0
-1800 -1560 -3096 -2080 -2108 -6188 -12332 -28708 0
-1800 -3592 -3096 -2080 -2108 -4156 -12332 -28708 0
-1800 -3592 -3096 -2080 -6172 -12316 -28684 -28708 -57380 -114724 -229412 0
-1800 -3592 -3096 -6168 -14356 -28692 -28684 -57356 -49196 -98348 -229412 -458788 0
-1800 -3592 -7176 -6168 -6172 -4156 -8252 -24620 -57380 0
-1800 -3592 -7176 -6168 -14356 -12316 -8252 -24620 -49196 -114724 0
-1800 -3592 -7176 -6168 -14356 -28692 -24604 -57356 -114700 -98348 -229412 -458788 -917540 0
-1800 -3592 -7176 -14344 -14356 -12316 -8252 -16444 -49196 -114724 0
-1800 -3592 -7176 -14344 -14356 -12316 -24604 -16444 -49196 -114724 -229412 0
-3592 -3096 -2080 -64 -4156 -12332 -28708 0
-3592 -3096 -2080 -4128 -12316 -12332 -28708 -57380 -114724 0
-3592 -3096 -6168 -4128 -4156 -12332 -24620 -57380 0
-3592 -3096 -6168 -4128 -12316 -12332 -24620 -57380 -114724 0
-3592 -3096 -6168 -4128 -12316 -28684 -24620 -57380 -114724 -229412 0
-3592 -7176 -6168 -4128 -12316 -24604 -57356 -57380 -114724 -229412 -458788 0
-3592 -7176 -14344 -12312 -12316 -8252 -16444 -49196 -114724 0
-3592 -7176 -14344 -12312 -28692 -24604 -16444 -49196 -98348 -229412 0
-3592 -7176 -14344 -28680 -28692 -24604 -16444 -32828 -98348 -229412 0
-3592 -7176 -14344 -28680 -28692 -24604 -49180 -32828 -98348 -229412 -458788 0
-3592 -7176 -14344 -28680 -57364 -49180 -32828 -65596 -196652 -458788 0
-7176 -6168 -4128 -64 -8252 -24620 -57380 0
-7176 -6168 -4128 -8224 -8252 -24620 -57380 -114724 0
-7176 -6168 -4128 -8224 -24604 -24620 -57380 -114724 -229412 0
-7176 -14344 -28680 -24600 -24604 -16444 -32828 -98348 -229412 0
-7176 -14344 -28680 -57352 -57364 -49180 -98332 -65596 -196652 -458788 -917540 0
-14344 -12312 -8224 -64 -16444 -49196 -114724 0
-14344 -12312 -8224 -16416 -49180 -49196 -114724 -229412 -458788 0
-14344 -12312 -24600 -16416 -16444 -49196 -98348 -229412 0
-14344 -28680 -24600 -16416 -16444 -32828 -98348 -229412 0
-14344 -28680 -57352 -49176 -49180 -32828 -65596 -196652 -458788 0
-28680 -24600 -16416 -64 -32828 -98348 -229412 0
-57352 -49176 -32800 -64 -65596 -196652 -458788 0
-114696 -98328 -65568 -64 -131132 -393260 -917540 0
-456 -408 -312 -64 -572 -1580 -3596 0
-456 -904 -792 -568 -1588 -3124 -7204 -7180 -14348 -28684 -57356 0
-456 -904 -1800 -1560 -3604 -3124 -2108 -6188 -12332 -28684 0
-456 -904 -1800 -1560 -3604 -7188 -6196 -14372 -28708 -24620 -57356 -114700 -229388 0
-456 -904 -1800 -3592 -7188 -6196 -4156 -8252 -24620 -57356 0
-456 -904 -1800 -3592 -7188 -14356 -12340 -8252 -24620 -49196 -114700 0
-904 -792 -568 -64 -1084 -3116 -7180 0
-904 -792 -568 -1080 -1084 -3116 -7180 -14348 0
-904 -792 -568 -1080 -3124 -3116 -7180 -14348 -28684 0
-904 -792 -568 -1080 -3124 -7204 -14348 -28684 -57356 -114700 0
-904 -792 -1560 -1080 -3124 -7204 -6188 -14348 -28684 -57356 0
-904 -792 -1560 -3096 -3124 -7204 -6188 -12332 -28684 -57356 0
-904 -1800 -1560 -1080 -3124 -6196 -14372 -14348 -28684 -57356 -114700 0
-904 -1800 -1560 -3096 -3124 -2108 -6188 -12332 -28684 0
-904 -1800 -1560 -3096 -7188 -6196 -6188 -12332 -24620 -57356 0
-904 -1800 -3592 -3096 -7188 -6196 -4156 -12332 -24620 -57356 0
-904 -1800 -3592 -3096 -7188 -14356 -12340 -28708 -57380 -49196 -114700 -229388 -458764 0
-904 -1800 -3592 -7176 -7188 -6196 -12340 -8252 -24620 -57356 -114700 0
-904 -1800 -3592 -7176 -28692 -24628 -16444 -32828 -98348 -229388 0
-1800 -1560 -1080 -64 -2108 -6188 -14348 0
-1800 -1560 -1080 -2104 -2108 -6188 -14348 -28684 0
-1800 -1560 -1080 -2104 -6196 -6188 -14348 -28684 -57356 0
-1800 -1560 -1080 -2104 -6196 -14372 -14348 -28684 -57356 -114700 0
-1800 -1560 -1080 -2104 -6196 -14372 -28684 -57356 -114700 -229388 0
-1800 -1560 -3096 -2104 -2108 -6188 -12332 -28684 0
-1800 -1560 -3096 -2104 -6196 -14372 -12332 -28684 -57356 -114700 0
-1800 -3592 -3096 -2104 -2108 -4156 -12332 -28684 0
-1800 -3592 -3096 -2104 -6196 -4156 -12332 -28684 -57356 0
-1800 -3592 -3096 -2104 -6196 -12340 -28708 -28684 -57356 -114700 -229388 0
-1800 -3592 -3096 -6168 -14356 -12340 -12332 -24620 -49196 -114700 0
-1800 -3592 -7176 -6168 -6196 -4156 -8252 -24620 -57356 0
-1800 -3592 -7176 -6168 -14356 -12340 -8252 -24620 -49196 -114700 0
-1800 -3592 -7176 -6168 -14356 -28692 -24628 -57380 -114724 -98348 -229388 -458764 -917516 0
-1800 -3592 -7176 -14344 -14356 -12340 -8252 -16444 -49196 -114700 0
-1800 -3592 -7176 -14344 -14356 -12340 -24628 -16444 -49196 -114700 -229388 0
-1800 -3592 -7176 -14344 -14356 -28692 -24628 -16444 -49196 -98348 -229388 0
-1800 -3592 -7176 -14344 -28692 -57364 -49204 -32828 -98348 -196652 -458764 0
-3592 -3096 -2104 -64 -4156 -12332 -28684 0
-3592 -3096 -2104 -4152 -12340 -12332 -28684 -57356 -114700 0
-3592 -3096 -2104 -4152 -12340 -28708 -28684 -57356 -114700 -229388 0
-3592 -3096 -2104 -4152 -12340 -28708 -57356 -114700 -229388 -458764 0
-3592 -3096 -6168 -4152 -12340 -12332 -24620 -57356 -114700 0
-3592 -3096 -6168 -4152 -12340 -28708 -24620 -57356 -114700 -229388 0
-3592 -3096 -6168 -4152 -12340 -28708 -57380 -114700 -229388 -458764 -917516 0
-3592 -3096 -6168 -12312 -12340 -28708 -24620 -49196 -114700 -229388 0
-3592 -3096 -6168 -12312 -12340 -28708 -57380 -49196 -114700 -229388 -458764 0
-3592 -3096 -6168 -12312 -28692 -28708 -57380 -49196 -98348 -229388 -458764 0
-3592 -7176 -6168 -4152 -12340 -24628 -57380 -57356 -114700 -229388 -458764 0
-3592 -7176 -14344 -12312 -12340 -8252 -16444 -49196 -114700 0
-3592 -7176 -14344 -12312 -28692 -24628 -16444 -49196 -98348 -229388 0
-3592 -7176 -14344 -28680 -28692 -24628 -16444 -32828 -98348 -229388 0
-3592 -7176 -14344 -28680 -28692 -24628 -49204 -32828 -98348 -229388 -458764 0
-7176 -6168 -4152 -64 -8252 -24620 -57356 0
-7176 -6168 -4152 -8248 -24628 -24620 -57356 -114700 -229388 0
-7176 -14344 -28680 -24600 -24628 -16444 -32828 -98348 -229388 0
-7176 -14344 -28680 -24600 -57364 -49204 -32828 -98348 -196652 -458764 0
-7176 -14344 -28680 -57352 -57364 -49204 -98356 -65596 -196652 -458764 -917516 0
-14344 -12312 -8248 -64 -16444 -49196 -114700 0
-14344 -12312 -8248 -16440 -49204 -49196 -114700 -229388 -458764 0
-14344 -12312 -24600 -16440 -16444 -49196 -98348 -229388 0
-14344 -28680 -57352 -49176 -49204 -32828 -65596 -196652 -458764 0
-28680 -24600 -16440 -64 -32828 -98348 -229388 0
-57352 -49176 -32824 -64 -65596 -196652 -458764 0
-114696 -98328 -65592 -64 -131132 -393260 -917516 0
-456 -424 -304 -64 -572 -1564 -3604 0
-456 -424 -304 -560 -572 -1564 -3604 -7188 0
-456 -424 -808 -560 -1580 -3596 -7180 -57364 -114708 -229396 -458772 0
-456 -424 -808 -1576 -3620 -3596 -7180 -14348 -12316 -28692 -57364 -114708 0
-456 -904 -808 -1576 -3620 -7204 -14348 -28684 -57356 -49180 -114708 -229396 -458772 0
-456 -904 -1800 -1576 -3620 -3116 -2108 -6172 -12316 -28692 0
-456 -904 -1800 -1576 -3620 -7204 -6188 -14348 -28684 -24604 -57364 -114708 -229396 0
-456 -904 -1800 -3592 -3620 -7204 -6188 -4156 -12316 -24604 -57364 0
-456 -904 -1800 -3592 -7204 -6188 -4156 -8252 -24604 -57364 0
-456 -904 -1800 -3592 -28708 -57380 -49196 -32828 -98332 -196636 -458772 0
-904 -808 -560 -64 -1084 -3100 -7188 0
-904 -808 -560 -1072 -3116 -3100 -7188 -14356 -28692 0
-904 -808 -560 -1072 -3116 -7180 -7188 -14356 -28692 -57364 0
-904 -808 -560 -1072 -3116 -7180 -14356 -28692 -57364 -114708 0
-904 -808 -560 -1072 -3116 -7180 -114708 -229396 -458772 -917524 0
-904 -808 -1576 -1072 -3116 -3100 -6172 -14356 -28692 0
-904 -808 -1576 -1072 -3116 -7180 -6172 -14356 -28692 -57364 0
-904 -808 -1576 -1072 -3116 -7180 -14348 -14356 -28692 -57364 -114708 0
-904 -808 -1576 -1072 -3116 -7180 -14348 -114708 -229396 -458772 -917524 0
-904 -1800 -1576 -1072 -3116 -6188 -14348 -14356 -28692 -57364 -114708 0
-904 -1800 -1576 -3112 -7204 -14372 -14348 -12316 -24604 -49180 -114708 0
-904 -1800 -1576 -3112 -7204 -14372 -14348 -28684 -57356 -49180 -114708 -229396 -458772 0
-904 -1800 -3592 -3112 -3116 -2108 -4156 -12316 -28692 0
-904 -1800 -3592 -3112 -7204 -6188 -4156 -12316 -24604 -57364 0
-904 -1800 -3592 -3112 -7204 -14372 -12332 -28684 -57356 -49180 -114708 -229396 -458772 0
-904 -1800 -3592 -3112 -7204 -14372 -28708 -28684 -24604 -49180 -98332 -229396 0
-904 -1800 -3592 -7176 -7204 -6188 -4156 -8252 -24604 -57364 0
-904 -1800 -3592 -7176 -7204 -14372 -28708 -57380 -57356 -114700 -98332 -196636 -458772 -917524 0
-904 -1800 -3592 -7176 -7204 -14372 -28708 -57380 -114700 -98332 -196636 -393244 -917524 0
-904 -1800 -3592 -7176 -14372 -12332 -8252 -16444 -49180 -114708 0
-904 -1800 -3592 -7176 -28708 -24620 -16444 -32828 -98332 -229396 0
-904 -1800 -3592 -7176 -57380 -114724 -98348 -65596 -196636 -393244 -917524 0
-1800 -1576 -1072 -64 -2108 -6172 -14356 0
-1800 -1576 -1072 -2096 -6188 -6172 -14356 -28692 -57364 0
-1800 -1576 -1072 -2096 -6188 -14348 -14356 -28692 -57364 -114708 0
-1800 -1576 -3112 -2096 -2108 -6172 -12316 -28692 0
-1800 -1576 -3112 -2096 -6188 -14348 -12316 -28692 -57364 -114708 0
-1800 -1576 -3112 -6184 -6188 -14348 -28684 -24604 -57364 -114708 -229396 0
-1800 -3592 -3112 -6184 -6188 -4156 -12316 -24604 -57364 0
-1800 -3592 -3112 -6184 -14372 -12332 -12316 -24604 -49180 -114708 0
-1800 -3592 -3112 -6184 -14372 -12332 -28684 -57356 -49180 -114708 -229396 -458772 0
-1800 -3592 -3112 -6184 -14372 -28708 -57356 -114700 -98332 -196636 -458772 -917524 0
-1800 -3592 -7176 -6184 -6188 -4156 -8252 -24604 -57364 0
-1800 -3592 -7176 -6184 -14372 -12332 -8252 -24604 -49180 -114708 0
-1800 -3592 -7176 -6184 -14372 -28708 -24620 -57356 -114700 -98332 -229396 -458772 -917524 0
-1800 -3592 -7176 -14344 -14372 -12332 -8252 -16444 -49180 -114708 0
-1800 -3592 -7176 -14344 -14372 -12332 -24620 -16444 -49180 -114708 -229396 0
-3592 -3112 -2096 -64 -4156 -12316 -28692 0
-3592 -3112 -2096 -4144 -12332 -12316 -28692 -57364 -114708 0
-3592 -3112 -6184 -4144 -12332 -12316 -24604 -57364 -114708 0
-3592 -3112 -6184 -4144 -12332 -28684 -24604 -57364 -114708 -229396 0
-3592 -3112 -6184 -12328 -12332 -28684 -57356 -49180 -114708 -229396 -458772 0
-3592 -7176 -6184 -4144 -12332 -24620 -57356 -57364 -114708 -229396 -458772 0
-3592 -7176 -14344 -12328 -12332 -8252 -16444 -49180 -114708 0
-3592 -7176 -14344 -12328 -28708 -24620 -16444 -49180 -98332 -229396 0
-3592 -7176 -14344 -28680 -28708 -24620 -49196 -32828 -98332 -229396 -458772 0
-3592 -7176 -14344 -28680 -57380 -49196 -32828 -65596 -196636 -458772 0
-7176 -6184 -4144 -64 -8252 -24604 -57364 0
-7176 -6184 -4144 -8240 -24620 -24604 -57364 -114708 -229396 0
-7176 -6184 -4144 -8240 -24620 -57356 -57364 -114708 -229396 -458772 0
-7176 -6184 -12328 -8240 -8252 -24604 -49180 -114708 0
-7176 -14344 -12328 -24616 -57380 -49196 -49180 -98332 -196636 -458772 0
-7176 -14344 -28680 -24616 -24620 -16444 -32828 -98332 -229396 0
-7176 -14344 -28680 -24616 -57380 -49196 -32828 -98332 -196636 -458772 0
-7176 -14344 -28680 -57352 -57380 -49196 -98348 -65596 -196636 -458772 -917524 0
-14344 -12328 -8240 -64 -16444 -49180 -114708 0
-14344 -12328 -8240 -16432 -49196 -49180 -114708 -229396 -458772 0
-14344 -12328 -8240 -16432 -49196 -114700 -114708 -229396 -458772 -917524 0
-14344 -28680 -24616 -16432 -16444 -32828 -98332 -229396 0
-28680 -24616 -16432 -64 -32828 -98332 -229396 0
-28680 -57352 -114696 -98344 -98348 -65596 -131132 -393244 -917524 0
-57352 -49192 -32816 -64 -65596 -196636 -458772 0
-114696 -98344 -65584 -64 -131132 -393244 -917524 0
-456 -424 -312 -64 -572 -1564 -3596 0
-456 -424 -312 -568 -1588 -1564 -3596 -7180 -14348 0
-456 -424 -808 -568 -1588 -3604 -7188 -7180 -14348 -28684 -57356 0
-456 -904 -1800 -1576 -3620 -7204 -6196 -14356 -28692 -24604 -57356 -114700 -229388 0
-456 -904 -1800 -3592 -3620 -3124 -6196 -4156 -12316 -28684 -57356 0
-456 -904 -1800 -3592 -28708 -57380 -49204 -32828 -98332 -196636 -458764 0
-904 -808 -568 -64 -1084 -3100 -7180 0
-904 -808 -568 -1080 -1084 -3100 -7180 -14348 0
-904 -808 -568 -1080 -3124 -3100 -7180 -14348 -28684 0
-904 -808 -568 -1080 -3124 -7188 -7180 -14348 -28684 -57356 0
-904 -808 -568 -1080 -3124 -7188 -14348 -28684 -57356 -114700 0
-904 -808 -1576 -1080 -1084 -3100 -6172 -14348 0
-904 -808 -1576 -1080 -3124 -3100 -6172 -14348 -28684 0
-904 -808 -1576 -1080 -3124 -7188 -6172 -14348 -28684 -57356 0
-904 -808 -1576 -1080 -3124 -7188 -14356 -114700 -229388 -458764 -917516 0
-904 -1800 -1576 -1080 -3124 -2108 -6172 -14348 -28684 0
-904 -1800 -1576 -1080 -3124 -6196 -14356 -14348 -28684 -57356 -114700 0
-904 -1800 -1576 -3112 -3124 -2108 -6172 -12316 -28684 0
-904 -1800 -1576 -3112 -7204 -6196 -6172 -12316 -24604 -57356 0
-904 -1800 -3592 -3112 -3124 -2108 -4156 -12316 -28684 0
-904 -1800 -3592 -3112 -7204 -6196 -4156 -12316 -24604 -57356 0
-904 -1800 -3592 -3112 -7204 -14372 -12340 -28692 -57364 -49180 -114700 -229388 -458764 0
-904 -1800 -3592 -7176 -7204 -6196 -12340 -8252 -24604 -57356 -114700 0
-904 -1800 -3592 -7176 -28708 -24628 -16444 -32828 -98332 -229388 0
-904 -1800 -3592 -7176 -57380 -114724 -98356 -65596 -196636 -393244 -917516 0
-1800 -1576 -1080 -64 -2108 -6172 -14348 0
-1800 -1576 -1080 -2104 -2108 -6172 -14348 -28684 0
-1800 -1576 -1080 -2104 -6196 -6172 -14348 -28684 -57356 0
-1800 -1576 -1080 -2104 -6196 -14356 -14348 -28684 -57356 -114700 0
-1800 -1576 -3112 -2104 -2108 -6172 -12316 -28684 0
-1800 -1576 -3112 -2104 -6196 -6172 -12316 -28684 -57356 0
-1800 -1576 -3112 -6184 -6196 -6172 -12316 -24604 -57356 0
-1800 -1576 -3112 -6184 -6196 -14356 -12316 -24604 -57356 -114700 0
-1800 -1576 -3112 -6184 -6196 -14356 -28692 -24604 -57356 -114700 -229388 0
-1800 -3592 -3112 -2104 -2108 -4156 -12316 -28684 0
-1800 -3592 -3112 -2104 -6196 -4156 -12316 -28684 -57356 0
-1800 -3592 -3112 -2104 -6196 -12340 -28692 -28684 -57356 -114700 -229388 0
-1800 -3592 -7176 -6184 -6196 -4156 -8252 -24604 -57356 0
-1800 -3592 -7176 -6184 -14372 -28708 -24628 -57364 -114708 -98332 -229388 -458764 -917516 0
-1800 -3592 -7176 -14344 -14372 -12340 -8252 -16444 -49180 -114700 0
-1800 -3592 -7176 -14344 -14372 -12340 -24628 -16444 -49180 -114700 -229388 0
-1800 -3592 -7176 -14344 -28708 -24628 -16444 -32828 -98332 -229388 0
-3592 -3112 -2104 -64 -4156 -12316 -28684 0
-3592 -3112 -2104 -4152 -12340 -12316 -28684 -57356 -114700 0
-3592 -3112 -2104 -4152 -12340 -28692 -28684 -57356 -114700 -229388 0
-3592 -3112 -6184 -4152 -12340 -12316 -24604 -57356 -114700 0
-3592 -3112 -6184 -4152 -12340 -28692 -24604 -57356 -114700 -229388 0
-3592 -3112 -6184 -12328 -12340 -28692 -24604 -49180 -114700 -229388 0
-3592 -3112 -6184 -12328 -12340 -28692 -57364 -49180 -114700 -229388 -458764 0
-3592 -7176 -6184 -4152 -4156 -8252 -24604 -57356 0
-3592 -7176 -6184 -4152 -12340 -24628 -57364 -57356 -114700 -229388 -458764 0
-3592 -7176 -14344 -12328 -12340 -8252 -16444 -49180 -114700 0
-3592 -7176 -14344 -12328 -28708 -24628 -16444 -49180 -98332 -229388 0
-3592 -7176 -14344 -28680 -28708 -24628 -49204 -32828 -98332 -229388 -458764 0
-7176 -6184 -4152 -64 -8252 -24604 -57356 0
-7176 -6184 -4152 -8248 -24628 -24604 -57356 -114700 -229388 0
-7176 -6184 -12328 -8248 -8252 -24604 -49180 -114700 0
-7176 -6184 -12328 -24616 -24628 -24604 -49180 -98332 -229388 0
-7176 -14344 -12328 -8248 -24628 -16444 -49180 -114700 -229388 0
-7176 -14344 -12328 -24616 -57380 -49204 -49180 -98332 -196636 -458764 0
-7176 -14344 -28680 -24616 -24628 -16444 -32828 -98332 -229388 0
-7176 -14344 -28680 -57352 -57380 -49204 -32828 -65596 -196636 -458764 0
-7176 -14344 -28680 -57352 -57380 -49204 -98356 -65596 -196636 -458764 -917516 0
-14344 -12328 -8248 -64 -16444 -49180 -114700 0
-14344 -12328 -8248 -16440 -49204 -49180 -114700 -229388 -458764 0
-14344 -12328 -24616 -16440 -16444 -49180 -98332 -229388 0
-28680 -24616 -16440 -64 -32828 -98332 -229388 0
-57352 -49192 -32824 -64 -65596 -196636 -458764 0
-114696 -98344 -65592 -64 -131132 -393244 -917516 0
-460 -400 -288 -64 -568 -1588 -3620 0
-460 -400 -288 -544 -1560 -1588 -3620 -7204 -14372 0
-460 -400 -288 -544 -1560 -3604 -3620 -7204 -14372 -28708 0
-460 -400 -784 -544 -1560 -1588 -3124 -7204 -14372 0
-460 -400 -784 -544 -1560 -3604 -3124 -7204 -14372 -28708 0
-460 -400 -784 -544 -1560 -3604 -7188 -14372 -28708 -57380 -114724 0
-460 -400 -784 -544 -1560 -3604 -7188 -57380 -114724 -229412 -458788 0
-460 -400 -784 -1552 -1560 -1588 -3124 -6196 -14372 0
-460 -908 -784 -544 -568 -1080 -3124 -7204 0
-460 -908 -784 -1552 -3592 -3096 -3124 -6196 -12340 -28708 0
-460 -908 -1804 -1552 -1560 -1080 -2104 -6196 -14372 0
-460 -908 -1804 -1552 -3592 -7176 -6168 -14356 -28692 -24628 -57380 -114724 -229412 0
-460 -908 -1804 -3596 -14344 -28680 -57352 -49176 -49204 -98356 -196660 -458788 0
-460 -908 -1804 -3596 -28680 -24600 -16440 -32824 -98356 -229412 0
-460 -908 -1804 -3596 -28680 -57352 -49176 -32824 -98356 -196660 -458788 0
-908 -784 -544 -64 -1080 -3124 -7204 0
-908 -784 -544 -1056 -3096 -7188 -7204 -14372 -28708 -57380 0
-908 -784 -1552 -1056 -1080 -3124 -6196 -14372 0
-908 -784 -1552 -1056 -3096 -7188 -14356 -14372 -28708 -57380 -114724 0
-908 -1804 -1552 -1056 -3096 -6168 -14356 -14372 -28708 -57380 -114724 0
-908 -1804 -1552 -3088 -7176 -14344 -14356 -12340 -24628 -49204 -114724 0
-908 -1804 -3596 -3088 -3096 -2104 -4152 -12340 -28708 0
-908 -1804 -3596 -3088 -7176 -14344 -12312 -28692 -57364 -49204 -114724 -229412 -458788 0
-908 -1804 -3596 -3088 -7176 -14344 -12312 -28692 -57364 -114708 -114724 -229412 -458788 -917540 0
-908 -1804 -3596 -3088 -7176 -14344 -28680 -28692 -24628 -49204 -98356 -229412 0
-908 -1804 -3596 -7180 -7176 -6168 -4152 -8248 -24628 -57380 0
-908 -1804 -3596 -7180 -7176 -6168 -12312 -8248 -24628 -57380 -114724 0
-908 -1804 -3596 -7180 -14344 -12312 -8248 -16440 -49204 -114724 0
-908 -1804 -3596 -7180 -28680 -24600 -16440 -32824 -98356 -229412 0
-908 -1804 -3596 -7180 -28680 -57352 -49176 -32824 -98356 -196660 -458788 0
-908 -1804 -3596 -7180 -57352 -49176 -32824 -65592 -196660 -458788 0
-908 -1804 -3596 -7180 -57352 -114696 -98328 -65592 -196660 -393268 -917540 0
-1804 -1552 -1056 -64 -2104 -6196 -14372 0
-1804 -1552 -1056 -2080 -2104 -6196 -14372 -28708 0
-1804 -1552 -1056 -2080 -6168 -6196 -14372 -28708 -57380 0
-1804 -1552 -1056 -2080 -6168 -14356 -57380 -114724 -229412 -458788 0
-1804 -1552 -3088 -2080 -2104 -6196 -12340 -28708 0
-1804 -1552 -3088 -2080 -6168 -6196 -12340 -28708 -57380 0
-1804 -1552 -3088 -2080 -6168 -14356 -12340 -28708 -57380 -114724 0
-1804 -1552 -3088 -6160 -6168 -6196 -12340 -24628 -57380 0
-1804 -1552 -3088 -6160 -14344 -14356 -28692 -24628 -49204 -114724 -229412 0
-1804 -3596 -3088 -2080 -2104 -4152 -12340 -28708 0
-1804 -3596 -3088 -2080 -6168 -4152 -12340 -28708 -57380 0
-1804 -3596 -3088 -2080 -6168 -12312 -28692 -28708 -57380 -114724 -229412 0
-1804 -3596 -3088 -6160 -14344 -28680 -28692 -57364 -114708 -98356 -229412 -458788 -917540 0
-1804 -3596 -7180 -6160 -6168 -4152 -8248 -24628 -57380 0
-1804 -3596 -7180 -6160 -6168 -12312 -8248 -24628 -57380 -114724 0
-1804 -3596 -7180 -6160 -14344 -28680 -24600 -57364 -114708 -98356 -229412 -458788 -917540 0
-1804 -3596 -7180 -14348 -14344 -12312 -8248 -16440 -49204 -114724 0
-1804 -3596 -7180 -14348 -28680 -24600 -16440 -32824 -98356 -229412 0
-1804 -3596 -7180 -14348 -57352 -114696 -98328 -65592 -196660 -393268 -917540 0
-3596 -3088 -2080 -64 -4152 -12340 -28708 0
-3596 -3088 -2080 -4128 -4152 -12340 -28708 -57380 0
-3596 -3088 -2080 -4128 -12312 -12340 -28708 -57380 -114724 0
-3596 -3088 -6160 -4128 -4152 -12340 -24628 -57380 0
-3596 -7180 -14348 -12304 -12312 -8248 -16440 -49204 -114724 0
-3596 -7180 -14348 -12304 -12312 -24600 -49176 -49204 -114724 -229412 -458788 0
-3596 -7180 -14348 -12304 -28680 -24600 -16440 -49204 -98356 -229412 0
-3596 -7180 -14348 -28684 -28680 -24600 -49176 -32824 -98356 -229412 -458788 0
-7180 -6160 -4128 -64 -8248 -24628 -57380 0
-7180 -6160 -4128 -8224 -24600 -24628 -57380 -114724 -229412 0
-7180 -14348 -12304 -24592 -24600 -16440 -49204 -98356 -229412 0
-7180 -14348 -28684 -24592 -24600 -16440 -32824 -98356 -229412 0
-7180 -14348 -28684 -24592 -57352 -49176 -32824 -98356 -196660 -458788 0
-7180 -14348 -28684 -57356 -57352 -49176 -32824 -65592 -196660 -458788 0
-7180 -14348 -28684 -57356 -57352 -49176 -98328 -65592 -196660 -458788 -917540 0
-7180 -14348 -28684 -57356 -57352 -114696 -98328 -65592 -196660 -393268 -917540 0
-14348 -12304 -8224 -64 -16440 -49204 -114724 0
-14348 -12304 -8224 -16416 -49176 -49204 -114724 -229412 -458788 0
-14348 -12304 -8224 -16416 -49176 -114708 -114724 -229412 -458788 -917540 0
-14348 -12304 -24592 -16416 -16440 -49204 -98356 -229412 0
-14348 -12304 -24592 -16416 -49176 -49204 -98356 -229412 -458788 0
-14348 -28684 -24592 -16416 -16440 -32824 -98356 -229412 0
-28684 -24592 -16416 -64 -32824 -98356 -229412 0
-28684 -24592 -16416 -32800 -98328 -98356 -229412 -458788 -917540 0
-28684 -57356 -49168 -32800 -32824 -65592 -196660 -458788 0
-57356 -49168 -32800 -64 -65592 -196660 -458788 0
-114700 -98320 -65568 -64 -131128 -393268 -917540 0
-460 -400 -304 -64 -568 -1588 -3604 0
-460 -400 -304 -560 -568 -1588 -3604 -7188 0
-460 -400 -304 -560 -1576 -1588 -3604 -7188 -14356 0
-460 -400 -304 -560 -1576 -3620 -3604 -7188 -14356 -28692 0
-460 -400 -304 -560 -1576 -3620 -14356 -28692 -57364 -114708 0
-460 -400 -304 -560 -1576 -3620 -57364 -114708 -229396 -458772 0
-460 -400 -784 -560 -1576 -3620 -7204 -57364 -114708 -229396 -458772 0
-460 -908 -784 -1552 -1576 -1080 -3124 -6196 -14356 0
-460 -908 -1804 -1552 -3592 -7176 -6184 -6196 -12340 -24628 -57364 0
-460 -908 -1804 -1552 -3592 -7176 -6184 -14372 -28708 -24628 -57364 -114708 -229396 0
-460 -908 -1804 -1552 -3592 -7176 -14344 -14372 -28708 -57380 -49204 -114708 -229396 -458772 0
-460 -908 -1804 -1552 -3592 -7176 -14344 -57380 -49204 -98356 -196660 -458772 0
-460 -908 -1804 -3596 -3592 -3112 -2104 -4152 -12340 -28692 0
-460 -908 -1804 -3596 -28680 -57352 -49192 -32824 -98356 -196660 -458772 0
-460 -908 -1804 -3596 -57352 -49192 -32824 -65592 -196660 -458772 0
-908 -784 -560 -64 -1080 -3124 -7188 0
-908 -784 -560 -1072 -3112 -7204 -7188 -14356 -28692 -57364 0
-908 -784 -560 -1072 -3112 -7204 -28692 -57364 -114708 -229396 0
-908 -784 -1552 -1072 -3112 -7204 -14372 -114708 -229396 -458772 -917524 0
-908 -1804 -1552 -1072 -3112 -6184 -6196 -14356 -28692 -57364 0
-908 -1804 -1552 -1072 -3112 -6184 -14372 -14356 -28692 -57364 -114708 0
-908 -1804 -3596 -3088 -3112 -2104 -4152 -12340 -28692 0
-908 -1804 -3596 -3088 -7176 -14344 -12328 -28708 -57380 -49204 -114708 -229396 -458772 0
-908 -1804 -3596 -7180 -7176 -6184 -4152 -8248 -24628 -57364 0
-908 -1804 -3596 -7180 -7176 -6184 -12328 -8248 -24628 -57364 -114708 0
-908 -1804 -3596 -7180 -14344 -28680 -24616 -16440 -49204 -98356 -229396 0
-1804 -1552 -1072 -64 -2104 -6196 -14356 0
-1804 -1552 -1072 -2096 -6184 -6196 -14356 -28692 -57364 0
-1804 -1552 -1072 -2096 -6184 -14372 -14356 -28692 -57364 -114708 0
-1804 -1552 -3088 -2096 -2104 -6196 -12340 -28692 0
-1804 -1552 -3088 -2096 -6184 -6196 -12340 -28692 -57364 0
-1804 -1552 -3088 -6160 -6184 -6196 -12340 -24628 -57364 0
-1804 -1552 -3088 -6160 -6184 -14372 -12340 -24628 -57364 -114708 0
-1804 -1552 -3088 -6160 -14344 -14372 -28708 -57380 -49204 -114708 -229396 -458772 0
-1804 -1552 -3088 -6160 -14344 -28708 -57380 -49204 -98356 -229396 -458772 0
-1804 -1552 -3088 -6160 -14344 -57380 -49204 -98356 -196660 -458772 0
-1804 -3596 -3088 -2096 -6184 -4152 -12340 -28692 -57364 0
-1804 -3596 -3088 -2096 -6184 -12328 -28708 -28692 -57364 -114708 -229396 0
-1804 -3596 -3088 -6160 -14344 -28680 -28708 -57380 -114724 -98356 -229396 -458772 -917524 0
-1804 -3596 -7180 -6160 -6184 -4152 -8248 -24628 -57364 0
-1804 -3596 -7180 -6160 -14344 -12328 -8248 -24628 -49204 -114708 0
-1804 -3596 -7180 -6160 -14344 -28680 -24616 -24628 -49204 -98356 -229396 0
-1804 -3596 -7180 -6160 -14344 -28680 -24616 -57380 -114724 -98356 -229396 -458772 -917524 0
-1804 -3596 -7180 -14348 -14344 -12328 -8248 -16440 -49204 -114708 0
-1804 -3596 -7180 -14348 -28680 -24616 -16440 -32824 -98356 -229396 0
-1804 -3596 -7180 -14348 -28680 -24616 -49192 -32824 -98356 -229396 -458772 0
-1804 -3596 -7180 -14348 -28680 -57352 -49192 -32824 -98356 -196660 -458772 0
-3596 -3088 -2096 -64 -4152 -12340 -28692 0
-3596 -3088 -2096 -4144 -4152 -12340 -28692 -57364 0
-3596 -3088 -2096 -4144 -12328 -12340 -28692 -57364 -114708 0
-3596 -3088 -2096 -4144 -12328 -28708 -28692 -57364 -114708 -229396 0
-3596 -3088 -6160 -4144 -4152 -12340 -24628 -57364 0
-3596 -7180 -6160 -4144 -4152 -8248 -24628 -57364 0
-3596 -7180 -6160 -4144 -12328 -24616 -57380 -57364 -114708 -229396 -458772 0
-3596 -7180 -6160 -12304 -28680 -24616 -57380 -114724 -98356 -229396 -458772 -917524 0
-3596 -7180 -14348 -12304 -12328 -8248 -16440 -49204 -114708 0
-3596 -7180 -14348 -28684 -28680 -24616 -16440 -32824 -98356 -229396 0
-3596 -7180 -14348 -28684 -28680 -24616 -49192 -32824 -98356 -229396 -458772 0
-3596 -7180 -14348 -28684 -28680 -57352 -49192 -32824 -98356 -196660 -458772 0
-3596 -7180 -14348 -28684 -57352 -49192 -32824 -65592 -196660 -458772 0
-7180 -6160 -4144 -64 -8248 -24628 -57364 0
-7180 -6160 -4144 -8240 -8248 -24628 -57364 -114708 0
-7180 -6160 -4144 -8240 -24616 -24628 -57364 -114708 -229396 0
-7180 -6160 -12304 -8240 -8248 -24628 -49204 -114708 0
-7180 -14348 -12304 -8240 -8248 -16440 -49204 -114708 0
-7180 -14348 -12304 -24592 -57352 -49192 -49204 -98356 -196660 -458772 0
-7180 -14348 -28684 -24592 -24616 -16440 -32824 -98356 -229396 0
-7180 -14348 -28684 -57356 -57352 -114696 -98344 -65592 -196660 -393268 -917524 0
-14348 -12304 -8240 -64 -16440 -49204 -114708 0
-14348 -12304 -8240 -16432 -16440 -49204 -114708 -229396 0
-14348 -12304 -8240 -16432 -49192 -49204 -114708 -229396 -458772 0
-14348 -12304 -8240 -16432 -49192 -114724 -114708 -229396 -458772 -917524 0
-14348 -12304 -24592 -16432 -16440 -49204 -98356 -229396 0
-14348 -12304 -24592 -16432 -49192 -49204 -98356 -229396 -458772 0
-14348 -28684 -57356 -49168 -49192 -32824 -65592 -196660 -458772 0
-28684 -24592 -16432 -64 -32824 -98356 -229396 0
-57356 -49168 -32816 -64 -65592 -196660 -458772 0
-114700 -98320 -65584 -64 -131128 -393268 -917524 0
-460 -412 -288 -64 -568 -1576 -3620 0
-460 -412 -288 -544 -1560 -1576 -3620 -7204 -14372 0
-460 -412 -288 -544 -1560 -3592 -57380 -114724 -229412 -458788 0
-460 -412 -796 -544 -568 -1576 -3112 -7204 0
-460 -412 -796 -544 -1560 -1576 -3112 -7204 -14372 0
-460 -412 -796 -544 -1560 -3592 -7176 -14372 -28708 -57380 -114724 0
-460 -908 -796 -1564 -3604 -3096 -3112 -6184 -12328 -28708 0
-460 -908 -796 -1564 -3604 -3096 -7176 -6184 -12328 -28708 -57380 0
-460 -908 -1804 -1564 -1560 -3096 -2104 -6184 -14372 -28708 0
-460 -908 -1804 -1564 -3604 -7188 -6168 -14344 -28680 -24616 -57380 -114724 -229412 0
-460 -908 -1804 -3596 -28692 -57364 -49176 -32824 -98344 -196648 -458788 0
-908 -796 -544 -64 -1080 -3112 -7204 0
-908 -796 -544 -1056 -3096 -7176 -7204 -14372 -28708 -57380 0
-908 -796 -544 -1056 -3096 -7176 -14372 -28708 -57380 -114724 0
-908 -796 -1564 -1056 -1080 -3112 -6184 -14372 0
-908 -796 -1564 -1056 -3096 -7176 -14344 -114724 -229412 -458788 -917540 0
-908 -796 -1564 -3100 -3096 -7176 -6184 -12328 -28708 -57380 0
-908 -1804 -1564 -1056 -3096 -2104 -6184 -14372 -28708 0
-908 -1804 -1564 -1056 -3096 -6168 -14344 -14372 -28708 -57380 -114724 0
-908 -1804 -3596 -3100 -3096 -2104 -4152 -12328 -28708 0
-908 -1804 -3596 -3100 -7188 -6168 -4152 -12328 -24616 -57380 0
-908 -1804 -3596 -3100 -7188 -14356 -12312 -28680 -57352 -49192 -114724 -229412 -458788 0
-908 -1804 -3596 -7180 -7188 -6168 -12312 -8248 -24616 -57380 -114724 0
-1804 -1564 -1056 -64 -2104 -6184 -14372 0
-1804 -1564 -1056 -2080 -2104 -6184 -14372 -28708 0
-1804 -1564 -1056 -2080 -6168 -6184 -14372 -28708 -57380 0
-1804 -1564 -1056 -2080 -6168 -14344 -14372 -28708 -57380 -114724 0
-1804 -1564 -3100 -2080 -2104 -6184 -12328 -28708 0
-1804 -1564 -3100 -2080 -6168 -6184 -12328 -28708 -57380 0
-1804 -3596 -3100 -2080 -6168 -12312 -28680 -28708 -57380 -114724 -229412 0
-1804 -3596 -3100 -6172 -14356 -12312 -12328 -24616 -49192 -114724 0
-1804 -3596 -7180 -6172 -6168 -4152 -8248 -24616 -57380 0
-1804 -3596 -7180 -6172 -6168 -12312 -8248 -24616 -57380 -114724 0
-1804 -3596 -7180 -6172 -14356 -28692 -24600 -57352 -114696 -98344 -229412 -458788 -917540 0
-1804 -3596 -7180 -14348 -14356 -28692 -24600 -16440 -49192 -98344 -229412 0
-1804 -3596 -7180 -14348 -28692 -24600 -16440 -32824 -98344 -229412 0
-1804 -3596 -7180 -14348 -57364 -49176 -32824 -65592 -196648 -458788 0
-3596 -3100 -2080 -64 -4152 -12328 -28708 0
-3596 -3100 -2080 -4128 -12312 -12328 -28708 -57380 -114724 0
-3596 -3100 -2080 -4128 -12312 -28680 -28708 -57380 -114724 -229412 0
-3596 -3100 -6172 -4128 -4152 -12328 -24616 -57380 0
-3596 -3100 -6172 -4128 -12312 -28680 -24616 -57380 -114724 -229412 0
-3596 -7180 -6172 -4128 -4152 -8248 -24616 -57380 0
-3596 -7180 -6172 -4128 -12312 -24600 -57352 -57380 -114724 -229412 -458788 0
-3596 -7180 -6172 -12316 -28692 -24600 -24616 -49192 -98344 -229412 0
-3596 -7180 -14348 -12316 -12312 -8248 -16440 -49192 -114724 0
-3596 -7180 -14348 -12316 -28692 -24600 -16440 -49192 -98344 -229412 0
-3596 -7180 -14348 -28684 -28692 -24600 -16440 -32824 -98344 -229412 0
-3596 -7180 -14348 -28684 -28692 -24600 -49176 -32824 -98344 -229412 -458788 0
-3596 -7180 -14348 -28684 -28692 -57364 -49176 -32824 -98344 -196648 -458788 0
-3596 -7180 -14348 -28684 -57364 -49176 -32824 -65592 -196648 -458788 0
-7180 -6172 -4128 -64 -8248 -24616 -57380 0
-7180 -6172 -4128 -8224 -24600 -24616 -57380 -114724 -229412 0
-7180 -6172 -4128 -8224 -24600 -57352 -57380 -114724 -229412 -458788 0
-7180 -6172 -12316 -8224 -24600 -57352 -49192 -114724 -229412 -458788 0
-7180 -14348 -12316 -8224 -8248 -16440 -49192 -114724 0
-7180 -14348 -28684 -24604 -24600 -16440 -32824 -98344 -229412 0
-7180 -14348 -28684 -24604 -57364 -49176 -32824 -98344 -196648 -458788 0
-7180 -14348 -28684 -57356 -57364 -114708 -98328 -65592 -196648 -393256 -917540 0
-14348 -12316 -8224 -64 -16440 -49192 -114724 0
-14348 -12316 -8224 -16416 -49176 -49192 -114724 -229412 -458788 0
-14348 -12316 -24604 -16416 -16440 -49192 -98344 -229412 0
-28684 -24604 -16416 -64 -32824 -98344 -229412 0
-57356 -49180 -32800 -64 -65592 -196648 -458788 0
-114700 -98332 -65568 -64 -131128 -393256 -917540 0
-460 -412 -316 -64 -568 -1576 -3592 0
-460 -412 -316 -572 -1588 -1576 -3592 -7176 -14344 0
-460 -412 -796 -572 -1588 -3620 -7204 -7176 -14344 -28680 -57352 0
-460 -412 -796 -572 -1588 -3620 -7204 -57352 -114696 -229384 -458760 0
-460 -908 -796 -572 -1588 -3124 -7204 -7176 -14344 -28680 -57352 0
-460 -908 -1804 -1564 -3604 -7188 -6196 -14372 -28708 -24616 -57352 -114696 -229384 0
-460 -908 -1804 -1564 -3604 -7188 -14356 -14372 -28708 -24616 -49192 -114696 -229384 0
-460 -908 -1804 -3596 -3604 -3124 -6196 -4152 -12328 -28680 -57352 0
-460 -908 -1804 -3596 -7188 -6196 -4152 -8248 -24616 -57352 0
-460 -908 -1804 -3596 -7188 -14356 -12340 -8248 -24616 -49192 -114696 0
-460 -908 -1804 -3596 -14356 -12340 -8248 -16440 -49192 -114696 0
-908 -796 -572 -64 -1080 -3112 -7176 0
-908 -796 -572 -1084 -3124 -3112 -7176 -14344 -28680 0
-908 -796 -572 -1084 -3124 -7204 -7176 -14344 -28680 -57352 0
-908 -796 -572 -1084 -3124 -7204 -28680 -57352 -114696 -229384 0
-908 -796 -572 -1084 -3124 -7204 -57352 -114696 -229384 -458760 0
-908 -796 -1564 -1084 -3124 -7204 -14372 -114696 -229384 -458760 -917512 0
-908 -796 -1564 -3100 -3124 -7204 -6184 -12328 -28680 -57352 0
-908 -1804 -1564 -1084 -3124 -6196 -14372 -14344 -28680 -57352 -114696 0
-908 -1804 -1564 -3100 -7188 -6196 -6184 -12328 -24616 -57352 0
-908 -1804 -3596 -3100 -3124 -2104 -4152 -12328 -28680 0
-908 -1804 -3596 -3100 -7188 -6196 -4152 -12328 -24616 -57352 0
-908 -1804 -3596 -3100 -7188 -14356 -12340 -28708 -57380 -49192 -114696 -229384 -458760 0
-908 -1804 -3596 -7180 -7188 -6196 -4152 -8248 -24616 -57352 0
-908 -1804 -3596 -7180 -7188 -6196 -12340 -8248 -24616 -57352 -114696 0
-908 -1804 -3596 -7180 -28692 -24628 -16440 -32824 -98344 -229384 0
-908 -1804 -3596 -7180 -57364 -49204 -32824 -65592 -196648 -458760 0
-908 -1804 -3596 -7180 -57364 -114708 -98356 -65592 -196648 -393256 -917512 0
-1804 -1564 -1084 -64 -2104 -6184 -14344 0
-1804 -1564 -1084 -2108 -6196 -6184 -14344 -28680 -57352 0
-1804 -1564 -1084 -2108 -6196 -14372 -14344 -28680 -57352 -114696 0
-1804 -1564 -3100 -2108 -2104 -6184 -12328 -28680 0
-1804 -1564 -3100 -2108 -6196 -6184 -12328 -28680 -57352 0
-1804 -1564 -3100 -2108 -6196 -14372 -12328 -28680 -57352 -114696 0
-1804 -3596 -3100 -2108 -6196 -12340 -28708 -28680 -57352 -114696 -229384 0
-1804 -3596 -3100 -6172 -6196 -4152 -12328 -24616 -57352 0
-1804 -3596 -7180 -6172 -6196 -4152 -8248 -24616 -57352 0
-1804 -3596 -7180 -6172 -6196 -12340 -8248 -24616 -57352 -114696 0
-1804 -3596 -7180 -6172 -14356 -12340 -8248 -24616 -49192 -114696 0
-1804 -3596 -7180 -6172 -14356 -28692 -24628 -57380 -114724 -98344 -229384 -458760 -917512 0
-1804 -3596 -7180 -14348 -14356 -12340 -8248 -16440 -49192 -114696 0
-1804 -3596 -7180 -14348 -14356 -12340 -24628 -16440 -49192 -114696 -229384 0
-1804 -3596 -7180 -14348 -28692 -24628 -16440 -32824 -98344 -229384 0
-3596 -3100 -2108 -64 -4152 -12328 -28680 0
-3596 -3100 -2108 -4156 -12340 -12328 -28680 -57352 -114696 0
-3596 -3100 -6172 -4156 -4152 -12328 -24616 -57352 0
-3596 -3100 -6172 -4156 -12340 -28708 -24616 -57352 -114696 -229384 0
-3596 -3100 -6172 -4156 -12340 -28708 -57380 -114696 -229384 -458760 -917512 0
-3596 -3100 -6172 -12316 -12340 -28708 -24616 -49192 -114696 -229384 0
-3596 -7180 -6172 -4156 -12340 -24628 -57380 -57352 -114696 -229384 -458760 0
-3596 -7180 -14348 -12316 -12340 -8248 -16440 -49192 -114696 0
-3596 -7180 -14348 -12316 -12340 -24628 -16440 -49192 -114696 -229384 0
-3596 -7180 -14348 -12316 -28692 -24628 -16440 -49192 -98344 -229384 0
-3596 -7180 -14348 -28684 -28692 -24628 -16440 -32824 -98344 -229384 0
-3596 -7180 -14348 -28684 -28692 -24628 -49204 -32824 -98344 -229384 -458760 0
-3596 -7180 -14348 -28684 -28692 -57364 -49204 -32824 -98344 -196648 -458760 0
-7180 -6172 -4156 -64 -8248 -24616 -57352 0
-7180 -6172 -4156 -8252 -8248 -24616 -57352 -114696 0
-7180 -6172 -4156 -8252 -24628 -24616 -57352 -114696 -229384 0
-7180 -6172 -12316 -8252 -8248 -24616 -49192 -114696 0
-7180 -6172 -12316 -8252 -24628 -57380 -49192 -114696 -229384 -458760 0
-7180 -14348 -12316 -8252 -24628 -49204 -49192 -114696 -229384 -458760 0
-7180 -14348 -28684 -24604 -24628 -16440 -32824 -98344 -229384 0
-7180 -14348 -28684 -24604 -57364 -49204 -32824 -98344 -196648 -458760 0
-7180 -14348 -28684 -57356 -57364 -49204 -98356 -65592 -196648 -458760 -917512 0
-14348 -12316 -8252 -64 -16440 -49192 -114696 0
-14348 -12316 -8252 -16444 -49204 -49192 -114696 -229384 -458760 0
-14348 -12316 -24604 -16444 -16440 -49192 -98344 -229384 0
-14348 -28684 -24604 -16444 -16440 -32824 -98344 -229384 0
-14348 -28684 -57356 -49180 -49204 -32824 -65592 -196648 -458760 0
-28684 -24604 -16444 -64 -32824 -98344 -229384 0
-28684 -24604 -16444 -32828 -32824 -98344 -229384 -458760 0
-57356 -49180 -32828 -64 -65592 -196648 -458760 0
-114700 -98332 -65596 -64 -131128 -393256 -917512 0
-460 -428 -304 -64 -568 -1560 -3604 0
-460 -428 -304 -560 -1576 -1560 -3604 -7188 -14356 0
-460 -428 -304 -560 -1576 -3592 -3604 -7188 -14356 -28692 0
-460 -428 -812 -560 -1576 -1560 -3096 -7188 -14356 0
-460 -428 -812 -560 -1576 -3592 -7176 -7188 -14356 -28692 -57364 0
-460 -428 -812 -560 -1576 -3592 -7176 -57364 -114708 -229396 -458772 0
-460 -908 -812 -560 -568 -1080 -3096 -7188 0
-460 -908 -812 -560 -1576 -3112 -7176 -7188 -14356 -28692 -57364 0
-460 -908 -1804 -1580 -3620 -7204 -6184 -14344 -28680 -57352 -57364 -114708 -229396 -458772 0
-460 -908 -1804 -3596 -28708 -57380 -49192 -32824 -98328 -196632 -458772 0
-908 -812 -560 -64 -1080 -3096 -7188 0
-908 -812 -560 -1072 -1080 -3096 -7188 -14356 0
-908 -812 -560 -1072 -3112 -7176 -7188 -14356 -28692 -57364 0
-908 -812 -560 -1072 -3112 -7176 -14356 -28692 -57364 -114708 0
-908 -812 -1580 -1072 -1080 -3096 -6168 -14356 0
-908 -812 -1580 -1072 -3112 -7176 -6168 -14356 -28692 -57364 0
-908 -1804 -1580 -1072 -3112 -6184 -14344 -14356 -28692 -57364 -114708 0
-908 -1804 -3596 -3116 -3112 -2104 -4152 -12312 -28692 0
-908 -1804 -3596 -3116 -7204 -6184 -4152 -12312 -24600 -57364 0
-908 -1804 -3596 -3116 -7204 -14372 -12328 -28680 -57352 -49176 -114708 -229396 -458772 0
-908 -1804 -3596 -7180 -7204 -6184 -4152 -8248 -24600 -57364 0
-908 -1804 -3596 -7180 -7204 -6184 -12328 -8248 -24600 -57364 -114708 0
-908 -1804 -3596 -7180 -57380 -114724 -98344 -65592 -196632 -393240 -917524 0
-1804 -1580 -1072 -64 -2104 -6168 -14356 0
-1804 -1580 -1072 -2096 -2104 -6168 -14356 -28692 0
-1804 -1580 -1072 -2096 -6184 -6168 -14356 -28692 -57364 0
-1804 -1580 -1072 -2096 -6184 -14344 -14356 -28692 -57364 -114708 0
-1804 -1580 -3116 -2096 -6184 -14344 -12312 -28692 -57364 -114708 0
-1804 -3596 -3116 -2096 -6184 -12328 -28680 -28692 -57364 -114708 -229396 0
-1804 -3596 -3116 -6188 -14372 -12328 -12312 -24600 -49176 -114708 0
-1804 -3596 -3116 -6188 -14372 -12328 -28680 -24600 -49176 -114708 -229396 0
-1804 -3596 -3116 -6188 -14372 -12328 -28680 -57352 -49176 -114708 -229396 -458772 0
-1804 -3596 -3116 -6188 -14372 -28708 -28680 -57352 -114696 -98328 -229396 -458772 -917524 0
-1804 -3596 -7180 -6188 -6184 -4152 -8248 -24600 -57364 0
-1804 -3596 -7180 -6188 -14372 -12328 -8248 -24600 -49176 -114708 0
-1804 -3596 -7180 -6188 -14372 -28708 -24616 -57352 -49176 -98328 -229396 -458772 0
-1804 -3596 -7180 -6188 -14372 -28708 -24616 -57352 -114696 -98328 -229396 -458772 -917524 0
-1804 -3596 -7180 -14348 -14372 -12328 -8248 -16440 -49176 -114708 0
-1804 -3596 -7180 -14348 -14372 -12328 -24616 -16440 -49176 -114708 -229396 0
-1804 -3596 -7180 -14348 -57380 -49192 -32824 -65592 -196632 -458772 0
-3596 -3116 -2096 -64 -4152 -12312 -28692 0
-3596 -3116 -2096 -4144 -4152 -12312 -28692 -57364 0
-3596 -3116 -2096 -4144 -12328 -12312 -28692 -57364 -114708 0
-3596 -3116 -6188 -4144 -4152 -12312 -24600 -57364 0
-3596 -3116 -6188 -4144 -12328 -28680 -24600 -57364 -114708 -229396 0
-3596 -7180 -6188 -4144 -4152 -8248 -24600 -57364 0
-3596 -7180 -6188 -4144 -12328 -8248 -24600 -57364 -114708 0
-3596 -7180 -6188 -4144 -12328 -24616 -57352 -57364 -114708 -229396 -458772 0
-3596 -7180 -6188 -12332 -28708 -24616 -24600 -49176 -98328 -229396 0
-3596 -7180 -14348 -12332 -12328 -8248 -16440 -49176 -114708 0
-3596 -7180 -14348 -12332 -28708 -24616 -16440 -49176 -98328 -229396 0
-3596 -7180 -14348 -12332 -28708 -57380 -49192 -49176 -98328 -196632 -458772 0
-3596 -7180 -14348 -28684 -28708 -24616 -16440 -32824 -98328 -229396 0
-3596 -7180 -14348 -28684 -28708 -24616 -49192 -32824 -98328 -229396 -458772 0
-3596 -7180 -14348 -28684 -57380 -49192 -32824 -65592 -196632 -458772 0
-7180 -6188 -4144 -64 -8248 -24600 -57364 0
-7180 -6188 -4144 -8240 -24616 -24600 -57364 -114708 -229396 0
-7180 -6188 -12332 -8240 -8248 -24600 -49176 -114708 0
-7180 -6188 -12332 -8240 -24616 -24600 -49176 -114708 -229396 0
-7180 -6188 -12332 -8240 -24616 -57352 -49176 -114708 -229396 -458772 0
-7180 -14348 -12332 -8240 -8248 -16440 -49176 -114708 0
-7180 -14348 -12332 -24620 -57380 -49192 -49176 -98328 -196632 -458772 0
-7180 -14348 -28684 -24620 -24616 -16440 -32824 -98328 -229396 0
-7180 -14348 -28684 -24620 -57380 -49192 -32824 -98328 -196632 -458772 0
-7180 -14348 -28684 -57356 -57380 -49192 -98344 -65592 -196632 -458772 -917524 0
-14348 -12332 -8240 -64 -16440 -49176 -114708 0
-14348 -12332 -8240 -16432 -49192 -49176 -114708 -229396 -458772 0
-14348 -12332 -24620 -16432 -16440 -49176 -98328 -229396 0
-14348 -28684 -57356 -49196 -49192 -32824 -65592 -196632 -458772 0
-28684 -24620 -16432 -64 -32824 -98328 -229396 0
-57356 -49196 -32816 -64 -65592 -196632 -458772 0
-114700 -98348 -65584 -64 -131128 -393240 -917524 0
-460 -428 -316 -64 -568 -1560 -3592 0
-460 -428 -316 -572 -1588 -3604 -3592 -7176 -14344 -28680 0
-460 -908 -1804 -1580 -3620 -7204 -6196 -14356 -28692 -24600 -57352 -114696 -229384 0
-460 -908 -1804 -3596 -7204 -6196 -4152 -8248 -24600 -57352 0
-908 -812 -572 -64 -1080 -3096 -7176 0
-908 -812 -572 -1084 -3124 -3096 -7176 -14344 -28680 0
-908 -812 -1580 -1084 -1080 -3096 -6168 -14344 0
-908 -812 -1580 -1084 -3124 -7188 -6168 -14344 -28680 -57352 0
-908 -812 -1580 -1084 -3124 -7188 -14356 -114696 -229384 -458760 -917512 0
-908 -1804 -3596 -3116 -3124 -2104 -4152 -12312 -28680 0
-908 -1804 -3596 -3116 -3124 -6196 -4152 -12312 -28680 -57352 0
-908 -1804 -3596 -3116 -7204 -6196 -4152 -12312 -24600 -57352 0
-908 -1804 -3596 -3116 -7204 -14372 -12340 -28692 -57364 -49176 -114696 -229384 -458760 0
-908 -1804 -3596 -7180 -7204 -6196 -4152 -8248 -24600 -57352 0
-908 -1804 -3596 -7180 -7204 -6196 -12340 -8248 -24600 -57352 -114696 0
-908 -1804 -3596 -7180 -7204 -14372 -28708 -24628 -57364 -114708 -98328 -229384 -458760 -917512 0
-908 -1804 -3596 -7180 -57380 -114724 -98356 -65592 -196632 -393240 -917512 0
-1804 -1580 -1084 -64 -2104 -6168 -14344 0
-1804 -1580 -1084 -2108 -2104 -6168 -14344 -28680 0
-1804 -1580 -1084 -2108 -6196 -6168 -14344 -28680 -57352 0
-1804 -1580 -1084 -2108 -6196 -14356 -14344 -28680 -57352 -114696 0
-1804 -1580 -1084 -2108 -6196 -14356 -28680 -57352 -114696 -229384 0
-1804 -1580 -3116 -6188 -6196 -14356 -12312 -24600 -57352 -114696 0
-1804 -1580 -3116 -6188 -14372 -14356 -28692 -24600 -49176 -114696 -229384 0
-1804 -3596 -3116 -2108 -6196 -12340 -28692 -28680 -57352 -114696 -229384 0
-1804 -3596 -7180 -6188 -6196 -4152 -8248 -24600 -57352 0
-1804 -3596 -7180 -6188 -14372 -12340 -8248 -24600 -49176 -114696 0
-1804 -3596 -7180 -6188 -14372 -28708 -24628 -24600 -49176 -98328 -229384 0
-1804 -3596 -7180 -14348 -14372 -12340 -8248 -16440 -49176 -114696 0
-1804 -3596 -7180 -14348 -14372 -12340 -24628 -16440 -49176 -114696 -229384 0
-1804 -3596 -7180 -14348 -57380 -49204 -32824 -65592 -196632 -458760 0
-1804 -3596 -7180 -14348 -57380 -114724 -98356 -65592 -196632 -393240 -917512 0
-3596 -3116 -2108 -64 -4152 -12312 -28680 0
-3596 -3116 -2108 -4156 -12340 -12312 -28680 -57352 -114696 0
-3596 -3116 -6188 -4156 -12340 -28692 -57364 -114696 -229384 -458760 -917512 0
-3596 -7180 -6188 -4156 -4152 -8248 -24600 -57352 0
-3596 -7180 -6188 -4156 -12340 -24628 -57364 -57352 -114696 -229384 -458760 0
-3596 -7180 -14348 -12332 -12340 -8248 -16440 -49176 -114696 0
-3596 -7180 -14348 -28684 -28708 -24628 -16440 -32824 -98328 -229384 0
-3596 -7180 -14348 -28684 -57380 -49204 -32824 -65592 -196632 -458760 0
-7180 -6188 -4156 -64 -8248 -24600 -57352 0
-7180 -6188 -4156 -8252 -8248 -24600 -57352 -114696 0
-7180 -6188 -4156 -8252 -24628 -57364 -114696 -229384 -458760 -917512 0
-7180 -6188 -12332 -8252 -24628 -57364 -49176 -114696 -229384 -458760 0
-7180 -6188 -12332 -24620 -24628 -57364 -49176 -98328 -229384 -458760 0
-7180 -14348 -28684 -24620 -24628 -16440 -32824 -98328 -229384 0
-7180 -14348 -28684 -24620 -57380 -49204 -32824 -98328 -196632 -458760 0
-7180 -14348 -28684 -57356 -57380 -49204 -98356 -65592 -196632 -458760 -917512 0
-14348 -12332 -8252 -64 -16440 -49176 -114696 0
-14348 -12332 -8252 -16444 -49204 -49176 -114696 -229384 -458760 0
-28684 -24620 -16444 -64 -32824 -98328 -229384 0
-57356 -49196 -32828 -64 -65592 -196632 -458760 0
-114700 -98348 -65596 -64 -131128 -393240 -917512 0
-468 -408 -288 -64 -560 -1580 -3620 0
-468 -408 -288 -544 -1552 -1580 -3620 -7204 -14372 0
-468 -408 -288 -544 -1552 -3596 -57380 -114724 -229412 -458788 0
-468 -408 -792 -544 -1552 -3596 -3116 -7204 -14372 -28708 0
-468 -408 -792 -544 -1552 -3596 -7180 -57380 -114724 -229412 -458788 0
-468 -916 -792 -544 -560 -1072 -3116 -7204 0
-468 -916 -792 -544 -1552 -3088 -7180 -7204 -14372 -28708 -57380 0
-468 -916 -1812 -1560 -1552 -1072 -2096 -6188 -14372 0
-468 -916 -1812 -1560 -3592 -7176 -6160 -6188 -12332 -24620 -57380 0
-468 -916 -1812 -1560 -3592 -7176 -6160 -14348 -28684 -24620 -57380 -114724 -229412 0
-468 -916 -1812 -1560 -3592 -7176 -14344 -14348 -28684 -24620 -49196 -114724 -229412 0
-468 -916 -1812 -3604 -3592 -7176 -14344 -12304 -28684 -57356 -49196 -114724 -229412 -458788 0
-468 -916 -1812 -3604 -7176 -6160 -4144 -8240 -24620 -57380 0
-468 -916 -1812 -3604 -7176 -14344 -12304 -8240 -24620 -49196 -114724 0
-916 -792 -544 -64 -1072 -3116 -7204 0
-916 -792 -544 -1056 -1072 -3116 -7204 -14372 0
-916 -792 -544 -1056 -3088 -3116 -7204 -14372 -28708 0
-916 -792 -544 -1056 -3088 -7180 -7204 -14372 -28708 -57380 0
-916 -792 -544 -1056 -3088 -7180 -14372 -28708 -57380 -114724 0
-916 -792 -1560 -1056 -3088 -7180 -14348 -14372 -28708 -57380 -114724 0
-916 -792 -1560 -1056 -3088 -7180 -14348 -114724 -229412 -458788 -917540 0
-916 -1812 -1560 -1056 -1072 -2096 -6188 -14372 0
-916 -1812 -1560 -1056 -3088 -6160 -14348 -14372 -28708 -57380 -114724 0
-916 -1812 -1560 -3096 -7176 -6160 -6188 -12332 -24620 -57380 0
-916 -1812 -3604 -3096 -3088 -2096 -4144 -12332 -28708 0
-916 -1812 -3604 -3096 -7176 -14344 -12304 -28684 -24620 -49196 -114724 -229412 0
-916 -1812 -3604 -3096 -7176 -14344 -12304 -28684 -57356 -49196 -114724 -229412 -458788 0
-916 -1812 -3604 -7188 -7176 -6160 -4144 -8240 -24620 -57380 0
-916 -1812 -3604 -7188 -28680 -24592 -16432 -32816 -98348 -229412 0
-916 -1812 -3604 -7188 -57352 -114696 -98320 -65584 -196652 -393260 -917540 0
-1812 -1560 -1056 -64 -2096 -6188 -14372 0
-1812 -1560 -1056 -2080 -2096 -6188 -14372 -28708 0
-1812 -1560 -1056 -2080 -6160 -6188 -14372 -28708 -57380 0
-1812 -1560 -1056 -2080 -6160 -14348 -14372 -28708 -57380 -114724 0
-1812 -1560 -3096 -2080 -2096 -6188 -12332 -28708 0
-1812 -1560 -3096 -2080 -6160 -14348 -12332 -28708 -57380 -114724 0
-1812 -1560 -3096 -2080 -6160 -14348 -28684 -57380 -114724 -229412 -458788 0
-1812 -1560 -3096 -6168 -6160 -6188 -12332 -24620 -57380 0
-1812 -3604 -3096 -2080 -6160 -12304 -28684 -28708 -57380 -114724 -229412 0
-1812 -3604 -3096 -6168 -14344 -12304 -12332 -24620 -49196 -114724 0
-1812 -3604 -7188 -6168 -6160 -4144 -8240 -24620 -57380 0
-1812 -3604 -7188 -6168 -14344 -12304 -8240 -24620 -49196 -114724 0
-1812 -3604 -7188 -6168 -14344 -28680 -24592 -57356 -114700 -98348 -229412 -458788 -917540 0
-1812 -3604 -7188 -14356 -14344 -12304 -24592 -16432 -49196 -114724 -229412 0
-1812 -3604 -7188 -14356 -57352 -49168 -32816 -65584 -196652 -458788 0
-3604 -3096 -2080 -64 -4144 -12332 -28708 0
-3604 -3096 -2080 -4128 -12304 -12332 -28708 -57380 -114724 0
-3604 -3096 -2080 -4128 -12304 -28684 -28708 -57380 -114724 -229412 0
-3604 -3096 -6168 -4128 -4144 -12332 -24620 -57380 0
-3604 -3096 -6168 -12312 -12304 -28684 -24620 -49196 -114724 -229412 0
-3604 -7188 -6168 -4128 -12304 -8240 -24620 -57380 -114724 0
-3604 -7188 -6168 -4128 -12304 -24592 -57356 -57380 -114724 -229412 -458788 0
-3604 -7188 -6168 -12312 -28680 -24592 -24620 -49196 -98348 -229412 0
-3604 -7188 -14356 -12312 -12304 -8240 -16432 -49196 -114724 0
-3604 -7188 -14356 -12312 -28680 -24592 -16432 -49196 -98348 -229412 0
-3604 -7188 -14356 -28692 -28680 -24592 -16432 -32816 -98348 -229412 0
-3604 -7188 -14356 -28692 -28680 -24592 -49168 -32816 -98348 -229412 -458788 0
-3604 -7188 -14356 -28692 -57352 -114696 -98320 -65584 -196652 -393260 -917540 0
-7188 -6168 -4128 -64 -8240 -24620 -57380 0
-7188 -6168 -4128 -8224 -24592 -24620 -57380 -114724 -229412 0
-7188 -6168 -4128 -8224 -24592 -57356 -57380 -114724 -229412 -458788 0
-7188 -6168 -12312 -8224 -8240 -24620 -49196 -114724 0
-7188 -6168 -12312 -8224 -24592 -57356 -49196 -114724 -229412 -458788 0
-7188 -6168 -12312 -24600 -24592 -24620 -49196 -98348 -229412 0
-7188 -14356 -12312 -8224 -24592 -49168 -49196 -114724 -229412 -458788 0
-7188 -14356 -28692 -24600 -24592 -16432 -32816 -98348 -229412 0
-7188 -14356 -28692 -24600 -57352 -49168 -32816 -98348 -196652 -458788 0
-7188 -14356 -28692 -57364 -57352 -49168 -32816 -65584 -196652 -458788 0
-7188 -14356 -28692 -57364 -57352 -49168 -98320 -65584 -196652 -458788 -917540 0
-14356 -12312 -8224 -64 -16432 -49196 -114724 0
-14356 -12312 -24600 -16416 -16432 -49196 -98348 -229412 0
-14356 -28692 -24600 -16416 -16432 -32816 -98348 -229412 0
-14356 -28692 -57364 -49176 -49168 -32816 -65584 -196652 -458788 0
-28692 -24600 -16416 -64 -32816 -98348 -229412 0
-28692 -57364 -49176 -32800 -32816 -65584 -196652 -458788 0
-57364 -49176 -32800 -64 -65584 -196652 -458788 0
-114708 -98328 -65568 -64 -131120 -393260 -917540 0
-468 -408 -312 -64 -560 -1580 -3596 0
-468 -408 -792 -568 -1576 -3620 -3116 -7180 -14348 -28684 0
-468 -408 -792 -568 -1576 -3620 -7204 -57356 -114700 -229388 -458764 0
-468 -408 -792 -1560 -1576 -3620 -3116 -6188 -14348 -28684 0
-468 -916 -792 -568 -1576 -3112 -7204 -7180 -14348 -28684 -57356 0
-468 -916 -1812 -1560 -1576 -1072 -2096 -6188 -14348 0
-468 -916 -1812 -1560 -3592 -7176 -6184 -6188 -12332 -24620 -57356 0
-468 -916 -1812 -1560 -3592 -7176 -6184 -14372 -28708 -24620 -57356 -114700 -229388 0
-468 -916 -1812 -3604 -3592 -7176 -14344 -12328 -28708 -57380 -49196 -114700 -229388 -458764 0
-468 -916 -1812 -3604 -7176 -6184 -4144 -8240 -24620 -57356 0
-468 -916 -1812 -3604 -7176 -14344 -12328 -8240 -24620 -49196 -114700 0
-916 -792 -568 -64 -1072 -3116 -7180 0
-916 -792 -568 -1080 -1072 -3116 -7180 -14348 0
-916 -792 -568 -1080 -3112 -3116 -7180 -14348 -28684 0
-916 -792 -568 -1080 -3112 -7204 -14348 -28684 -57356 -114700 0
-916 -792 -1560 -3096 -3112 -7204 -14372 -12332 -28684 -57356 -114700 0
-916 -1812 -1560 -1080 -3112 -6184 -6188 -14348 -28684 -57356 0
-916 -1812 -1560 -1080 -3112 -6184 -14372 -14348 -28684 -57356 -114700 0
-916 -1812 -1560 -3096 -7176 -6184 -6188 -12332 -24620 -57356 0
-916 -1812 -3604 -3096 -3112 -2096 -4144 -12332 -28684 0
-916 -1812 -3604 -3096 -7176 -14344 -12328 -12332 -24620 -49196 -114700 0
-916 -1812 -3604 -3096 -7176 -14344 -12328 -28708 -57380 -49196 -114700 -229388 -458764 0
-916 -1812 -3604 -7188 -7176 -6184 -4144 -8240 -24620 -57356 0
-916 -1812 -3604 -7188 -7176 -6184 -12328 -8240 -24620 -57356 -114700 0
-916 -1812 -3604 -7188 -7176 -14344 -28680 -24616 -57380 -114724 -98348 -229388 -458764 -917516 0
-916 -1812 -3604 -7188 -28680 -24616 -16432 -32816 -98348 -229388 0
-916 -1812 -3604 -7188 -57352 -114696 -98344 -65584 -196652 -393260 -917516 0
-1812 -1560 -1080 -64 -2096 -6188 -14348 0
-1812 -1560 -1080 -2104 -2096 -6188 -14348 -28684 0
-1812 -1560 -1080 -2104 -6184 -6188 -14348 -28684 -57356 0
-1812 -1560 -1080 -2104 -6184 -14372 -14348 -28684 -57356 -114700 0
-1812 -1560 -3096 -2104 -2096 -6188 -12332 -28684 0
-1812 -3604 -3096 -2104 -6184 -4144 -12332 -28684 -57356 0
-1812 -3604 -3096 -2104 -6184 -12328 -12332 -28684 -57356 -114700 0
-1812 -3604 -3096 -2104 -6184 -12328 -28708 -28684 -57356 -114700 -229388 0
-1812 -3604 -3096 -2104 -6184 -12328 -28708 -57356 -114700 -229388 -458764 0
-1812 -3604 -7188 -6168 -6184 -4144 -8240 -24620 -57356 0
-1812 -3604 -7188 -6168 -14344 -12328 -8240 -24620 -49196 -114700 0
-1812 -3604 -7188 -14356 -14344 -12328 -8240 -16432 -49196 -114700 0
-1812 -3604 -7188 -14356 -14344 -12328 -24616 -16432 -49196 -114700 -229388 0
-1812 -3604 -7188 -14356 -57352 -49192 -32816 -65584 -196652 -458764 0
-3604 -3096 -2104 -64 -4144 -12332 -28684 0
-3604 -3096 -2104 -4152 -4144 -12332 -28684 -57356 0
-3604 -3096 -2104 -4152 -12328 -12332 -28684 -57356 -114700 0
-3604 -3096 -6168 -4152 -4144 -12332 -24620 -57356 0
-3604 -3096 -6168 -4152 -12328 -28708 -24620 -57356 -114700 -229388 0
-3604 -7188 -6168 -4152 -4144 -8240 -24620 -57356 0
-3604 -7188 -6168 -4152 -12328 -24616 -57380 -57356 -114700 -229388 -458764 0
-3604 -7188 -14356 -12312 -28680 -24616 -16432 -49196 -98348 -229388 0
-3604 -7188 -14356 -28692 -28680 -24616 -16432 -32816 -98348 -229388 0
-3604 -7188 -14356 -28692 -28680 -24616 -49192 -32816 -98348 -229388 -458764 0
-7188 -6168 -4152 -64 -8240 -24620 -57356 0
-7188 -6168 -4152 -8248 -24616 -24620 -57356 -114700 -229388 0
-7188 -6168 -12312 -8248 -8240 -24620 -49196 -114700 0
-7188 -6168 -12312 -8248 -24616 -57380 -114724 -114700 -229388 -458764 -917516 0
-7188 -14356 -12312 -24600 -57352 -49192 -49196 -98348 -196652 -458764 0
-7188 -14356 -28692 -24600 -24616 -16432 -32816 -98348 -229388 0
-7188 -14356 -28692 -57364 -57352 -49192 -98344 -65584 -196652 -458764 -917516 0
-7188 -14356 -28692 -57364 -57352 -114696 -98344 -65584 -196652 -393260 -917516 0
-14356 -12312 -8248 -64 -16432 -49196 -114700 0
-14356 -12312 -8248 -16440 -49192 -49196 -114700 -229388 -458764 0
-14356 -12312 -24600 -16440 -16432 -49196 -98348 -229388 0
-14356 -28692 -24600 -16440 -16432 -32816 -98348 -229388 0
-14356 -28692 -57364 -49176 -49192 -32816 -65584 -196652 -458764 0
-28692 -24600 -16440 -64 -32816 -98348 -229388 0
-57364 -49176 -32824 -64 -65584 -196652 -458764 0
-114708 -98328 -65592 -64 -131120 -393260 -917516 0
-468 -412 -288 -64 -560 -1576 -3620 0
-468 -412 -288 -544 -1552 -3592 -57380 -114724 -229412 -458788 0
-468 -412 -796 -544 -560 -1576 -3112 -7204 0
-468 -412 -796 -544 -1552 -3592 -7176 -57380 -114724 -229412 -458788 0
-468 -916 -796 -544 -560 -1072 -3112 -7204 0
-468 -916 -1812 -1564 -3596 -7180 -6160 -14344 -28680 -24616 -57380 -114724 -229412 0
-468 -916 -1812 -3604 -3596 -3088 -6160 -4144 -12328 -28708 -57380 0
-468 -916 -1812 -3604 -14348 -12304 -8240 -16432 -49192 -114724 0
-468 -916 -1812 -3604 -28684 -57356 -49168 -32816 -98344 -196648 -458788 0
-916 -796 -544 -64 -1072 -3112 -7204 0
-916 -796 -544 -1056 -1072 -3112 -7204 -14372 0
-916 -796 -544 -1056 -3088 -3112 -7204 -14372 -28708 0
-916 -796 -544 -1056 -3088 -7176 -7204 -14372 -28708 -57380 0
-916 -796 -544 -1056 -3088 -7176 -14372 -28708 -57380 -114724 0
-916 -796 -1564 -3100 -3088 -7176 -6184 -12328 -28708 -57380 0
-916 -1812 -1564 -1056 -3088 -2096 -6184 -14372 -28708 0
-916 -1812 -1564 -1056 -3088 -6160 -14344 -14372 -28708 -57380 -114724 0
-916 -1812 -1564 -3100 -7180 -14348 -28680 -57352 -49192 -98344 -229412 -458788 0
-916 -1812 -3604 -3100 -3088 -2096 -4144 -12328 -28708 0
-916 -1812 -3604 -3100 -7180 -6160 -4144 -12328 -24616 -57380 0
-916 -1812 -3604 -3100 -7180 -14348 -12304 -28680 -57352 -49192 -114724 -229412 -458788 0
-916 -1812 -3604 -7188 -7180 -6160 -4144 -8240 -24616 -57380 0
-916 -1812 -3604 -7188 -7180 -6160 -12304 -8240 -24616 -57380 -114724 0
-916 -1812 -3604 -7188 -7180 -14348 -28684 -24592 -57352 -114696 -98344 -229412 -458788 -917540 0
-916 -1812 -3604 -7188 -14348 -12304 -8240 -16432 -49192 -114724 0
-916 -1812 -3604 -7188 -28684 -24592 -16432 -32816 -98344 -229412 0
-1812 -1564 -1056 -64 -2096 -6184 -14372 0
-1812 -1564 -1056 -2080 -2096 -6184 -14372 -28708 0
-1812 -1564 -1056 -2080 -6160 -6184 -14372 -28708 -57380 0
-1812 -1564 -1056 -2080 -6160 -14344 -14372 -28708 -57380 -114724 0
-1812 -1564 -3100 -2080 -2096 -6184 -12328 -28708 0
-1812 -1564 -3100 -2080 -6160 -14344 -12328 -28708 -57380 -114724 0
-1812 -1564 -3100 -6172 -14348 -14344 -28680 -24616 -49192 -114724 -229412 0
-1812 -3604 -3100 -2080 -2096 -4144 -12328 -28708 0
-1812 -3604 -3100 -6172 -14348 -12304 -12328 -24616 -49192 -114724 0
-1812 -3604 -7188 -6172 -6160 -4144 -8240 -24616 -57380 0
-1812 -3604 -7188 -6172 -14348 -12304 -8240 -24616 -49192 -114724 0
-1812 -3604 -7188 -14356 -14348 -12304 -24592 -16432 -49192 -114724 -229412 0
-1812 -3604 -7188 -14356 -28684 -24592 -16432 -32816 -98344 -229412 0
-1812 -3604 -7188 -14356 -28684 -57356 -114700 -98320 -98344 -196648 -393256 -917540 0
-1812 -3604 -7188 -14356 -57356 -49168 -32816 -65584 -196648 -458788 0
-3604 -3100 -2080 -64 -4144 -12328 -28708 0
-3604 -3100 -2080 -4128 -12304 -12328 -28708 -57380 -114724 0
-3604 -3100 -2080 -4128 -12304 -28680 -28708 -57380 -114724 -229412 0
-3604 -3100 -6172 -4128 -12304 -28680 -24616 -57380 -114724 -229412 0
-3604 -3100 -6172 -12316 -12304 -28680 -24616 -49192 -114724 -229412 0
-3604 -7188 -6172 -4128 -4144 -8240 -24616 -57380 0
-3604 -7188 -6172 -4128 -12304 -8240 -24616 -57380 -114724 0
-3604 -7188 -6172 -4128 -12304 -24592 -57352 -57380 -114724 -229412 -458788 0
-3604 -7188 -6172 -12316 -28684 -24592 -24616 -49192 -98344 -229412 0
-3604 -7188 -14356 -12316 -12304 -8240 -16432 -49192 -114724 0
-3604 -7188 -14356 -28692 -28684 -24592 -49168 -32816 -98344 -229412 -458788 0
-3604 -7188 -14356 -28692 -28684 -57356 -49168 -32816 -98344 -196648 -458788 0
-7188 -6172 -4128 -64 -8240 -24616 -57380 0
-7188 -6172 -4128 -8224 -24592 -24616 -57380 -114724 -229412 0
-7188 -6172 -4128 -8224 -24592 -57352 -57380 -114724 -229412 -458788 0
-7188 -6172 -12316 -8224 -8240 -24616 -49192 -114724 0
-7188 -6172 -12316 -8224 -24592 -57352 -49192 -114724 -229412 -458788 0
-7188 -14356 -12316 -8224 -8240 -16432 -49192 -114724 0
-7188 -14356 -28692 -24604 -24592 -16432 -32816 -98344 -229412 0
-7188 -14356 -28692 -24604 -57356 -49168 -32816 -98344 -196648 -458788 0
-7188 -14356 -28692 -57364 -57356 -49168 -32816 -65584 -196648 -458788 0
-14356 -12316 -8224 -64 -16432 -49192 -114724 0
-14356 -12316 -8224 -16416 -49168 -114696 -114724 -229412 -458788 -917540 0
-14356 -12316 -24604 -16416 -16432 -49192 -98344 -229412 0
-14356 -28692 -57364 -49180 -49168 -32816 -65584 -196648 -458788 0
-28692 -24604 -16416 -64 -32816 -98344 -229412 0
-28692 -24604 -16416 -32800 -98320 -98344 -229412 -458788 -917540 0
-57364 -49180 -32800 -64 -65584 -196648 -458788 0
-114708 -98332 -65568 -64 -131120 -393256 -917540 0
-468 -412 -316 -64 -560 -1576 -3592 0
-468 -412 -316 -572 -560 -1576 -3592 -7176 0
-468 -412 -796 -572 -1580 -3620 -7204 -7176 -14344 -28680 -57352 0
-468 -412 -796 -572 -1580 -3620 -7204 -14344 -28680 -57352 -114696 0
-468 -412 -796 -572 -1580 -3620 -7204 -57352 -114696 -229384 -458760 0
-468 -916 -796 -572 -1580 -3116 -3112 -7176 -14344 -28680 0
-468 -916 -796 -572 -1580 -3116 -7204 -7176 -14344 -28680 -57352 0
-468 -916 -1812 -1564 -3596 -7180 -6188 -6184 -12328 -24616 -57352 0
-468 -916 -1812 -1564 -3596 -7180 -6188 -14372 -28708 -24616 -57352 -114696 -229384 0
-468 -916 -1812 -3604 -7180 -6188 -4144 -8240 -24616 -57352 0
-468 -916 -1812 -3604 -28684 -57356 -49196 -32816 -98344 -196648 -458760 0
-916 -796 -572 -64 -1072 -3112 -7176 0
-916 -796 -572 -1084 -1072 -3112 -7176 -14344 0
-916 -796 -572 -1084 -3116 -3112 -7176 -14344 -28680 0
-916 -796 -572 -1084 -3116 -7204 -7176 -14344 -28680 -57352 0
-916 -796 -572 -1084 -3116 -7204 -14344 -28680 -57352 -114696 0
-916 -796 -572 -1084 -3116 -7204 -28680 -57352 -114696 -229384 0
-916 -796 -1564 -1084 -3116 -7204 -6184 -14344 -28680 -57352 0
-916 -796 -1564 -1084 -3116 -7204 -14372 -114696 -229384 -458760 -917512 0
-916 -1812 -1564 -1084 -3116 -6188 -14372 -14344 -28680 -57352 -114696 0
-916 -1812 -1564 -3100 -7180 -6188 -6184 -12328 -24616 -57352 0
-916 -1812 -3604 -3100 -3116 -2096 -4144 -12328 -28680 0
-916 -1812 -3604 -3100 -7180 -6188 -4144 -12328 -24616 -57352 0
-916 -1812 -3604 -3100 -7180 -14348 -12332 -28708 -57380 -49192 -114696 -229384 -458760 0
-916 -1812 -3604 -7188 -7180 -6188 -4144 -8240 -24616 -57352 0
-916 -1812 -3604 -7188 -7180 -6188 -12332 -8240 -24616 -57352 -114696 0
-916 -1812 -3604 -7188 -7180 -14348 -28684 -24620 -57380 -114724 -98344 -229384 -458760 -917512 0
-916 -1812 -3604 -7188 -14348 -12332 -8240 -16432 -49192 -114696 0
-1812 -1564 -1084 -64 -2096 -6184 -14344 0
-1812 -1564 -1084 -2108 -6188 -6184 -14344 -28680 -57352 0
-1812 -1564 -1084 -2108 -6188 -14372 -14344 -28680 -57352 -114696 0
-1812 -1564 -1084 -2108 -6188 -14372 -28680 -57352 -114696 -229384 0
-1812 -1564 -3100 -2108 -2096 -6184 -12328 -28680 0
-1812 -1564 -3100 -2108 -6188 -6184 -12328 -28680 -57352 0
-1812 -3604 -3100 -2108 -2096 -4144 -12328 -28680 0
-1812 -3604 -3100 -2108 -6188 -4144 -12328 -28680 -57352 0
-1812 -3604 -3100 -2108 -6188 -12332 -28708 -28680 -57352 -114696 -229384 0
-1812 -3604 -7188 -6172 -6188 -4144 -8240 -24616 -57352 0
-1812 -3604 -7188 -6172 -6188 -12332 -8240 -24616 -57352 -114696 0
-1812 -3604 -7188 -6172 -14348 -12332 -8240 -24616 -49192 -114696 0
-1812 -3604 -7188 -6172 -14348 -28684 -24620 -24616 -49192 -98344 -229384 0
-1812 -3604 -7188 -6172 -14348 -28684 -24620 -57380 -114724 -98344 -229384 -458760 -917512 0
-1812 -3604 -7188 -14356 -14348 -12332 -24620 -16432 -49192 -114696 -229384 0
-1812 -3604 -7188 -14356 -14348 -28684 -24620 -16432 -49192 -98344 -229384 0
-1812 -3604 -7188 -14356 -57356 -49196 -32816 -65584 -196648 -458760 0
-3604 -3100 -2108 -64 -4144 -12328 -28680 0
-3604 -3100 -2108 -4156 -12332 -12328 -28680 -57352 -114696 0
-3604 -3100 -2108 -4156 -12332 -28708 -28680 -57352 -114696 -229384 0
-3604 -3100 -6172 -12316 -12332 -28708 -24616 -49192 -114696 -229384 0
-3604 -7188 -6172 -4156 -4144 -8240 -24616 -57352 0
-3604 -7188 -6172 -12316 -28684 -24620 -24616 -49192 -98344 -229384 0
-3604 -7188 -14356 -12316 -12332 -8240 -16432 -49192 -114696 0
-3604 -7188 -14356 -12316 -12332 -24620 -16432 -49192 -114696 -229384 0
-3604 -7188 -14356 -28692 -28684 -24620 -49196 -32816 -98344 -229384 -458760 0
-7188 -6172 -4156 -64 -8240 -24616 -57352 0
-7188 -6172 -4156 -8252 -24620 -24616 -57352 -114696 -229384 0
-7188 -6172 -4156 -8252 -24620 -57380 -57352 -114696 -229384 -458760 0
-7188 -6172 -4156 -8252 -24620 -57380 -114696 -229384 -458760 -917512 0
-7188 -6172 -12316 -8252 -8240 -24616 -49192 -114696 0
-7188 -6172 -12316 -8252 -24620 -57380 -49192 -114696 -229384 -458760 0
-7188 -14356 -12316 -8252 -24620 -16432 -49192 -114696 -229384 0
-7188 -14356 -28692 -24604 -24620 -16432 -32816 -98344 -229384 0
-7188 -14356 -28692 -24604 -57356 -49196 -32816 -98344 -196648 -458760 0
-7188 -14356 -28692 -57364 -57356 -49196 -32816 -65584 -196648 -458760 0
-7188 -14356 -28692 -57364 -57356 -49196 -98348 -65584 -196648 -458760 -917512 0
-14356 -12316 -8252 -64 -16432 -49192 -114696 0
-14356 -12316 -8252 -16444 -49196 -49192 -114696 -229384 -458760 0
-14356 -12316 -24604 -16444 -16432 -49192 -98344 -229384 0
-14356 -28692 -24604 -16444 -16432 -32816 -98344 -229384 0
-14356 -28692 -57364 -49180 -49196 -32816 -65584 -196648 -458760 0
-28692 -24604 -16444 -64 -32816 -98344 -229384 0
-28692 -24604 -16444 -32828 -98348 -98344 -229384 -458760 -917512 0
-57364 -49180 -32828 -64 -65584 -196648 -458760 0
-114708 -98332 -65596 -64 -131120 -393256 -917512 0
-468 -436 -312 -64 -560 -1552 -3596 0
-468 -436 -820 -568 -1576 -3592 -7176 -57356 -114700 -229388 -458764 0
-468 -916 -1812 -1588 -3620 -7204 -6184 -14344 -28680 -24592 -57356 -114700 -229388 0
-468 -916 -1812 -3604 -3620 -3112 -6184 -4144 -12304 -28684 -57356 0
-468 -916 -1812 -3604 -3620 -7204 -14372 -12328 -28680 -57352 -49168 -114700 -229388 -458764 0
-468 -916 -1812 -3604 -14372 -12328 -8240 -16432 -49168 -114700 0
-468 -916 -1812 -3604 -28708 -57380 -49192 -32816 -98320 -196624 -458764 0
-916 -820 -568 -64 -1072 -3088 -7180 0
-916 -820 -568 -1080 -1072 -3088 -7180 -14348 0
-916 -820 -568 -1080 -3112 -7176 -14348 -28684 -57356 -114700 0
-916 -820 -1588 -1080 -3112 -3088 -6160 -14348 -28684 0
-916 -820 -1588 -1080 -3112 -7176 -6160 -14348 -28684 -57356 0
-916 -1812 -1588 -1080 -3112 -6184 -14344 -14348 -28684 -57356 -114700 0
-916 -1812 -3604 -3124 -3112 -2096 -4144 -12304 -28684 0
-916 -1812 -3604 -3124 -7204 -6184 -4144 -12304 -24592 -57356 0
-916 -1812 -3604 -3124 -7204 -14372 -12328 -28680 -24592 -49168 -114700 -229388 0
-916 -1812 -3604 -3124 -7204 -14372 -12328 -28680 -57352 -49168 -114700 -229388 -458764 0
-916 -1812 -3604 -7188 -7204 -6184 -12328 -8240 -24592 -57356 -114700 0
-916 -1812 -3604 -7188 -7204 -14372 -28708 -24616 -57352 -114696 -98320 -229388 -458764 -917516 0
-916 -1812 -3604 -7188 -14372 -12328 -8240 -16432 -49168 -114700 0
-1812 -1588 -1080 -64 -2096 -6160 -14348 0
-1812 -1588 -1080 -2104 -6184 -6160 -14348 -28684 -57356 0
-1812 -1588 -1080 -2104 -6184 -14344 -14348 -28684 -57356 -114700 0
-1812 -1588 -3124 -2104 -2096 -6160 -12304 -28684 0
-1812 -1588 -3124 -2104 -6184 -14344 -12304 -28684 -57356 -114700 0
-1812 -1588 -3124 -6196 -6184 -14344 -12304 -24592 -57356 -114700 0
-1812 -1588 -3124 -6196 -6184 -14344 -28680 -24592 -57356 -114700 -229388 0
-1812 -3604 -3124 -2104 -2096 -4144 -12304 -28684 0
-1812 -3604 -3124 -2104 -6184 -12328 -12304 -28684 -57356 -114700 0
-1812 -3604 -3124 -2104 -6184 -12328 -28680 -28684 -57356 -114700 -229388 0
-1812 -3604 -3124 -6196 -14372 -12328 -12304 -24592 -49168 -114700 0
-1812 -3604 -7188 -6196 -6184 -4144 -8240 -24592 -57356 0
-1812 -3604 -7188 -14356 -14372 -12328 -24616 -16432 -49168 -114700 -229388 0
-1812 -3604 -7188 -14356 -28708 -57380 -49192 -32816 -98320 -196624 -458764 0
-3604 -3124 -2104 -64 -4144 -12304 -28684 0
-3604 -3124 -2104 -4152 -12328 -12304 -28684 -57356 -114700 0
-3604 -3124 -6196 -4152 -12328 -28680 -24592 -57356 -114700 -229388 0
-3604 -3124 -6196 -12340 -28708 -28680 -57352 -49168 -98320 -229388 -458764 0
-3604 -7188 -6196 -4152 -12328 -24616 -57352 -57356 -114700 -229388 -458764 0
-3604 -7188 -6196 -12340 -28708 -24616 -24592 -49168 -98320 -229388 0
-3604 -7188 -14356 -12340 -12328 -8240 -16432 -49168 -114700 0
-3604 -7188 -14356 -28692 -28708 -24616 -16432 -32816 -98320 -229388 0
-3604 -7188 -14356 -28692 -57380 -49192 -32816 -65584 -196624 -458764 0
-7188 -6196 -4152 -64 -8240 -24592 -57356 0
-7188 -6196 -4152 -8248 -24616 -24592 -57356 -114700 -229388 0
-7188 -6196 -12340 -8248 -8240 -24592 -49168 -114700 0
-7188 -6196 -12340 -8248 -24616 -57352 -49168 -114700 -229388 -458764 0
-7188 -14356 -12340 -24628 -24616 -16432 -49168 -98320 -229388 0
-7188 -14356 -28692 -24628 -24616 -16432 -32816 -98320 -229388 0
-7188 -14356 -28692 -57364 -57380 -49192 -32816 -65584 -196624 -458764 0
-7188 -14356 -28692 -57364 -57380 -49192 -98344 -65584 -196624 -458764 -917516 0
-7188 -14356 -28692 -57364 -57380 -114724 -98344 -65584 -196624 -393232 -917516 0
-14356 -12340 -8248 -64 -16432 -49168 -114700 0
-14356 -12340 -8248 -16440 -49192 -114696 -114700 -229388 -458764 -917516 0
-14356 -12340 -24628 -16440 -16432 -49168 -98320 -229388 0
-14356 -28692 -24628 -16440 -16432 -32816 -98320 -229388 0
-28692 -24628 -16440 -64 -32816 -98320 -229388 0
-28692 -24628 -16440 -32824 -98344 -98320 -229388 -458764 -917516 0
-28692 -57364 -49204 -32824 -32816 -65584 -196624 -458764 0
-57364 -49204 -32824 -64 -65584 -196624 -458764 0
-114708 -98356 -65592 -64 -131120 -393232 -917516 0
-468 -436 -316 -64 -560 -1552 -3592 0
-468 -436 -820 -572 -1580 -3596 -7180 -7176 -14344 -28680 -57352 0
-468 -436 -820 -572 -1580 -3596 -7180 -14344 -28680 -57352 -114696 0
-468 -436 -820 -572 -1580 -3596 -7180 -57352 -114696 -229384 -458760 0
-468 -916 -820 -572 -1580 -3116 -7180 -7176 -14344 -28680 -57352 0
-468 -916 -1812 -1588 -3620 -7204 -6188 -14348 -28684 -24592 -57352 -114696 -229384 0
-468 -916 -1812 -1588 -3620 -7204 -14372 -14348 -28684 -24592 -49168 -114696 -229384 0
-468 -916 -1812 -3604 -3620 -3116 -2096 -4144 -12304 -28680 0
-468 -916 -1812 -3604 -3620 -3116 -6188 -4144 -12304 -28680 -57352 0
-468 -916 -1812 -3604 -7204 -6188 -4144 -8240 -24592 -57352 0
-468 -916 -1812 -3604 -57380 -49196 -32816 -65584 -196624 -458760 0
-916 -820 -572 -64 -1072 -3088 -7176 0
-916 -820 -572 -1084 -1072 -3088 -7176 -14344 0
-916 -820 -572 -1084 -3116 -3088 -7176 -14344 -28680 0
-916 -820 -572 -1084 -3116 -7180 -7176 -14344 -28680 -57352 0
-916 -820 -572 -1084 -3116 -7180 -14344 -28680 -57352 -114696 0
-916 -820 -1588 -1084 -3116 -7180 -6160 -14344 -28680 -57352 0
-916 -820 -1588 -1084 -3116 -7180 -14348 -114696 -229384 -458760 -917512 0
-916 -1812 -1588 -1084 -3116 -6188 -14348 -14344 -28680 -57352 -114696 0
-916 -1812 -1588 -3124 -7204 -14372 -14348 -12304 -24592 -49168 -114696 0
-916 -1812 -3604 -3124 -3116 -2096 -4144 -12304 -28680 0
-916 -1812 -3604 -3124 -7204 -6188 -4144 -12304 -24592 -57352 0
-916 -1812 -3604 -3124 -7204 -14372 -12332 -28684 -57356 -49168 -114696 -229384 -458760 0
-916 -1812 -3604 -7188 -7204 -6188 -4144 -8240 -24592 -57352 0
-916 -1812 -3604 -7188 -7204 -6188 -12332 -8240 -24592 -57352 -114696 0
-916 -1812 -3604 -7188 -7204 -14372 -28708 -24620 -57356 -114700 -98320 -229384 -458760 -917512 0
-916 -1812 -3604 -7188 -57380 -114724 -98348 -65584 -196624 -393232 -917512 0
-1812 -1588 -1084 -64 -2096 -6160 -14344 0
-1812 -1588 -1084 -2108 -6188 -6160 -14344 -28680 -57352 0
-1812 -1588 -1084 -2108 -6188 -14348 -14344 -28680 -57352 -114696 0
-1812 -1588 -1084 -2108 -6188 -14348 -28680 -57352 -114696 -229384 0
-1812 -1588 -3124 -2108 -2096 -6160 -12304 -28680 0
-1812 -1588 -3124 -2108 -6188 -14348 -28684 -28680 -57352 -114696 -229384 0
-1812 -1588 -3124 -6196 -6188 -14348 -28684 -24592 -57352 -114696 -229384 0
-1812 -1588 -3124 -6196 -14372 -14348 -28684 -24592 -49168 -114696 -229384 0
-1812 -3604 -3124 -2108 -2096 -4144 -12304 -28680 0
-1812 -3604 -3124 -2108 -6188 -4144 -12304 -28680 -57352 0
-1812 -3604 -3124 -2108 -6188 -12332 -12304 -28680 -57352 -114696 0
-1812 -3604 -3124 -2108 -6188 -12332 -28684 -28680 -57352 -114696 -229384 0
-1812 -3604 -7188 -6196 -6188 -4144 -8240 -24592 -57352 0
-1812 -3604 -7188 -6196 -14372 -12332 -8240 -24592 -49168 -114696 0
-1812 -3604 -7188 -14356 -14372 -12332 -24620 -16432 -49168 -114696 -229384 0
-1812 -3604 -7188 -14356 -14372 -28708 -24620 -16432 -49168 -98320 -229384 0
-1812 -3604 -7188 -14356 -57380 -49196 -32816 -65584 -196624 -458760 0
-3604 -3124 -2108 -64 -4144 -12304 -28680 0
-3604 -3124 -2108 -4156 -12332 -12304 -28680 -57352 -114696 0
-3604 -3124 -2108 -4156 -12332 -28684 -28680 -57352 -114696 -229384 0
-3604 -3124 -6196 -4156 -12332 -28684 -24592 -57352 -114696 -229384 0
-3604 -3124 -6196 -12340 -12332 -12304 -24592 -49168 -114696 0
-3604 -7188 -6196 -4156 -12332 -24620 -57356 -57352 -114696 -229384 -458760 0
-3604 -7188 -6196 -12340 -28708 -24620 -24592 -49168 -98320 -229384 0
-3604 -7188 -14356 -12340 -12332 -8240 -16432 -49168 -114696 0
-3604 -7188 -14356 -12340 -12332 -24620 -16432 -49168 -114696 -229384 0
-3604 -7188 -14356 -12340 -28708 -57380 -49196 -49168 -98320 -196624 -458760 0
-3604 -7188 -14356 -28692 -28708 -24620 -16432 -32816 -98320 -229384 0
-7188 -6196 -4156 -64 -8240 -24592 -57352 0
-7188 -6196 -4156 -8252 -8240 -24592 -57352 -114696 0
-7188 -6196 -4156 -8252 -24620 -24592 -57352 -114696 -229384 0
-7188 -6196 -4156 -8252 -24620 -57356 -57352 -114696 -229384 -458760 0
-7188 -6196 -12340 -8252 -8240 -24592 -49168 -114696 0
-7188 -6196 -12340 -8252 -24620 -57356 -49168 -114696 -229384 -458760 0
-7188 -6196 -12340 -24628 -24620 -57356 -49168 -98320 -229384 -458760 0
-7188 -14356 -12340 -8252 -24620 -49196 -114700 -114696 -229384 -458760 -917512 0
-7188 -14356 -12340 -24628 -24620 -16432 -49168 -98320 -229384 0
-7188 -14356 -28692 -24628 -24620 -16432 -32816 -98320 -229384 0
-7188 -14356 -28692 -57364 -57380 -49196 -32816 -65584 -196624 -458760 0
-14356 -12340 -8252 -64 -16432 -49168 -114696 0
-14356 -12340 -24628 -16444 -16432 -49168 -98320 -229384 0
-14356 -28692 -24628 -16444 -16432 -32816 -98320 -229384 0
-28692 -24628 -16444 -64 -32816 -98320 -229384 0
-28692 -57364 -49204 -32828 -32816 -65584 -196624 -458760 0
-57364 -49204 -32828 -64 -65584 -196624 -458760 0
-114708 -98356 -65596 -64 -131120 -393232 -917512 0
-484 -424 -304 -64 -544 -1564 -3604 0
-484 -424 -304 -560 -1552 -1564 -3604 -7188 -14356 0
-484 -424 -304 -560 -1552 -3596 -3604 -7188 -14356 -28692 0
-484 -424 -304 -560 -1552 -3596 -14356 -28692 -57364 -114708 0
-484 -424 -304 -560 -1552 -3596 -57364 -114708 -229396 -458772 0
-484 -424 -808 -560 -1552 -3596 -7180 -7188 -14356 -28692 -57364 0
-484 -424 -808 -560 -1552 -3596 -7180 -14356 -28692 -57364 -114708 0
-484 -424 -808 -560 -1552 -3596 -7180 -57364 -114708 -229396 -458772 0
-484 -932 -1828 -1576 -3592 -7176 -6160 -14348 -28684 -24604 -57364 -114708 -229396 0
-484 -932 -1828 -3620 -3592 -3088 -2080 -4128 -12316 -28692 0
-484 -932 -1828 -3620 -3592 -3088 -6160 -4128 -12316 -28692 -57364 0
-484 -932 -1828 -3620 -7176 -6160 -4128 -8224 -24604 -57364 0
-484 -932 -1828 -3620 -28680 -57352 -49168 -32800 -98332 -196636 -458772 0
-932 -808 -560 -64 -1056 -3100 -7188 0
-932 -808 -560 -1072 -3088 -3100 -7188 -14356 -28692 0
-932 -808 -560 -1072 -3088 -7180 -7188 -14356 -28692 -57364 0
-932 -808 -560 -1072 -3088 -7180 -14356 -28692 -57364 -114708 0
-932 -808 -560 -1072 -3088 -7180 -57364 -114708 -229396 -458772 0
-932 -808 -1576 -1072 -1056 -3100 -6172 -14356 0
-932 -808 -1576 -1072 -3088 -7180 -14348 -114708 -229396 -458772 -917524 0
-932 -808 -1576 -3112 -3088 -7180 -6172 -12316 -28692 -57364 0
-932 -808 -1576 -3112 -7176 -28684 -57356 -114700 -98332 -229396 -458772 -917524 0
-932 -1828 -1576 -1072 -1056 -2080 -6172 -14356 0
-932 -1828 -1576 -1072 -3088 -6160 -14348 -14356 -28692 -57364 -114708 0
-932 -1828 -1576 -3112 -7176 -6160 -6172 -12316 -24604 -57364 0
-932 -1828 -1576 -3112 -7176 -14344 -14348 -12316 -24604 -49180 -114708 0
-932 -1828 -3620 -3112 -3088 -2080 -4128 -12316 -28692 0
-932 -1828 -3620 -3112 -7176 -14344 -12304 -28684 -57356 -49180 -114708 -229396 -458772 0
-932 -1828 -3620 -3112 -7176 -14344 -28680 -28684 -57356 -49180 -98332 -229396 -458772 0
-932 -1828 -3620 -7204 -7176 -6160 -4128 -8224 -24604 -57364 0
-932 -1828 -3620 -7204 -7176 -6160 -12304 -8224 -24604 -57364 -114708 0
-932 -1828 -3620 -7204 -7176 -14344 -28680 -24592 -57356 -114700 -98332 -229396 -458772 -917524 0
-1828 -1576 -1072 -64 -2080 -6172 -14356 0
-1828 -1576 -1072 -2096 -2080 -6172 -14356 -28692 0
-1828 -1576 -1072 -2096 -6160 -6172 -14356 -28692 -57364 0
-1828 -1576 -1072 -2096 -6160 -14348 -14356 -28692 -57364 -114708 0
-1828 -1576 -3112 -2096 -2080 -6172 -12316 -28692 0
-1828 -1576 -3112 -2096 -6160 -14348 -12316 -28692 -57364 -114708 0
-1828 -1576 -3112 -6184 -6160 -6172 -12316 -24604 -57364 0
-1828 -1576 -3112 -6184 -6160 -14348 -28684 -24604 -57364 -114708 -229396 0
-1828 -3620 -3112 -2096 -6160 -12304 -28684 -28692 -57364 -114708 -229396 0
-1828 -3620 -3112 -6184 -14344 -12304 -12316 -24604 -49180 -114708 0
-1828 -3620 -7204 -6184 -6160 -4128 -8224 -24604 -57364 0
-1828 -3620 -7204 -6184 -14344 -28680 -57352 -57356 -49180 -98332 -196636 -458772 0
-1828 -3620 -7204 -14372 -14344 -12304 -24592 -16416 -49180 -114708 -229396 0
-1828 -3620 -7204 -14372 -14344 -28680 -57352 -49168 -49180 -98332 -196636 -458772 0
-3620 -3112 -2096 -64 -4128 -12316 -28692 0
-3620 -3112 -2096 -4144 -12304 -12316 -28692 -57364 -114708 0
-3620 -3112 -2096 -4144 -12304 -28684 -28692 -57364 -114708 -229396 0
-3620 -3112 -6184 -4144 -4128 -12316 -24604 -57364 0
-3620 -3112 -6184 -4144 -12304 -12316 -24604 -57364 -114708 0
-3620 -7204 -6184 -4144 -12304 -24592 -57356 -57364 -114708 -229396 -458772 0
-3620 -7204 -14372 -12328 -12304 -8224 -16416 -49180 -114708 0
-3620 -7204 -14372 -28708 -28680 -24592 -49168 -32800 -98332 -229396 -458772 0
-3620 -7204 -14372 -28708 -57352 -49168 -32800 -65568 -196636 -458772 0
-3620 -7204 -14372 -28708 -57352 -114696 -98320 -65568 -196636 -393244 -917524 0
-7204 -6184 -4144 -64 -8224 -24604 -57364 0
-7204 -6184 -4144 -8240 -8224 -24604 -57364 -114708 0
-7204 -6184 -4144 -8240 -24592 -57356 -114708 -229396 -458772 -917524 0
-7204 -14372 -12328 -8240 -8224 -16416 -49180 -114708 0
-7204 -14372 -12328 -8240 -24592 -16416 -49180 -114708 -229396 0
-7204 -14372 -12328 -24616 -57352 -49168 -49180 -98332 -196636 -458772 0
-7204 -14372 -28708 -24616 -24592 -16416 -32800 -98332 -229396 0
-7204 -14372 -28708 -57380 -57352 -49168 -32800 -65568 -196636 -458772 0
-7204 -14372 -28708 -57380 -57352 -49168 -98320 -65568 -196636 -458772 -917524 0
-14372 -12328 -8240 -64 -16416 -49180 -114708 0
-14372 -12328 -8240 -16432 -49168 -49180 -114708 -229396 -458772 0
-14372 -12328 -24616 -16432 -16416 -49180 -98332 -229396 0
-14372 -28708 -24616 -16432 -16416 -32800 -98332 -229396 0
-28708 -24616 -16432 -64 -32800 -98332 -229396 0
-28708 -24616 -16432 -32816 -98320 -98332 -229396 -458772 -917524 0
-28708 -57380 -49192 -32816 -32800 -65568 -196636 -458772 0
-57380 -49192 -32816 -64 -65568 -196636 -458772 0
-114724 -98344 -65584 -64 -131104 -393244 -917524 0
-484 -424 -312 -64 -544 -1564 -3596 0
-484 -424 -312 -568 -544 -1564 -3596 -7180 0
-484 -424 -312 -568 -1560 -3604 -3596 -7180 -14348 -28684 0
-484 -424 -808 -568 -1560 -3604 -7188 -7180 -14348 -28684 -57356 0
-484 -424 -808 -568 -1560 -3604 -7188 -57356 -114700 -229388 -458764 0
-484 -932 -1828 -1576 -1560 -1056 -2080 -6172 -14348 0
-484 -932 -1828 -1576 -3592 -7176 -6168 -14356 -28692 -24604 -57356 -114700 -229388 0
-484 -932 -1828 -3620 -3592 -3096 -2080 -4128 -12316 -28684 0
-484 -932 -1828 -3620 -3592 -3096 -6168 -4128 -12316 -28684 -57356 0
-484 -932 -1828 -3620 -28680 -57352 -49176 -32800 -98332 -196636 -458764 0
-932 -808 -568 -64 -1056 -3100 -7180 0
-932 -808 -568 -1080 -1056 -3100 -7180 -14348 0
-932 -808 -568 -1080 -3096 -7188 -7180 -14348 -28684 -57356 0
-932 -808 -568 -1080 -3096 -7188 -14348 -28684 -57356 -114700 0
-932 -808 -1576 -1080 -3096 -7188 -14356 -114700 -229388 -458764 -917516 0
-932 -808 -1576 -3112 -3096 -7188 -6172 -12316 -28684 -57356 0
-932 -1828 -1576 -1080 -1056 -2080 -6172 -14348 0
-932 -1828 -1576 -1080 -3096 -2080 -6172 -14348 -28684 0
-932 -1828 -1576 -1080 -3096 -6168 -14356 -14348 -28684 -57356 -114700 0
-932 -1828 -1576 -3112 -3096 -2080 -6172 -12316 -28684 0
-932 -1828 -1576 -3112 -7176 -6168 -6172 -12316 -24604 -57356 0
-932 -1828 -3620 -3112 -7176 -6168 -4128 -12316 -24604 -57356 0
-932 -1828 -3620 -3112 -7176 -14344 -12312 -28692 -57364 -49180 -114700 -229388 -458764 0
-932 -1828 -3620 -7204 -7176 -6168 -4128 -8224 -24604 -57356 0
-932 -1828 -3620 -7204 -7176 -6168 -12312 -8224 -24604 -57356 -114700 0
-932 -1828 -3620 -7204 -14344 -28680 -24600 -16416 -49180 -98332 -229388 0
-932 -1828 -3620 -7204 -28680 -24600 -16416 -32800 -98332 -229388 0
-932 -1828 -3620 -7204 -28680 -57352 -49176 -32800 -98332 -196636 -458764 0
-932 -1828 -3620 -7204 -57352 -49176 -32800 -65568 -196636 -458764 0
-932 -1828 -3620 -7204 -57352 -114696 -98328 -65568 -196636 -393244 -917516 0
-1828 -1576 -1080 -64 -2080 -6172 -14348 0
-1828 -1576 -1080 -2104 -2080 -6172 -14348 -28684 0
-1828 -1576 -1080 -2104 -6168 -6172 -14348 -28684 -57356 0
-1828 -1576 -1080 -2104 -6168 -14356 -14348 -28684 -57356 -114700 0
-1828 -1576 -3112 -6184 -14344 -14356 -28692 -24604 -49180 -114700 -229388 0
-1828 -3620 -3112 -2104 -2080 -4128 -12316 -28684 0
-1828 -3620 -3112 -2104 -6168 -12312 -12316 -28684 -57356 -114700 0
-1828 -3620 -3112 -2104 -6168 -12312 -28692 -28684 -57356 -114700 -229388 0
-1828 -3620 -3112 -6184 -14344 -12312 -12316 -24604 -49180 -114700 0
-1828 -3620 -7204 -6184 -6168 -4128 -8224 -24604 -57356 0
-1828 -3620 -7204 -6184 -14344 -12312 -8224 -24604 -49180 -114700 0
-1828 -3620 -7204 -6184 -14344 -28680 -24600 -57364 -114708 -98332 -229388 -458764 -917516 0
-1828 -3620 -7204 -14372 -14344 -12312 -8224 -16416 -49180 -114700 0
-1828 -3620 -7204 -14372 -14344 -12312 -24600 -16416 -49180 -114700 -229388 0
-1828 -3620 -7204 -14372 -14344 -28680 -24600 -16416 -49180 -98332 -229388 0
-1828 -3620 -7204 -14372 -28680 -24600 -16416 -32800 -98332 -229388 0
-3620 -3112 -2104 -64 -4128 -12316 -28684 0
-3620 -3112 -2104 -4152 -12312 -12316 -28684 -57356 -114700 0
-3620 -3112 -2104 -4152 -12312 -28692 -28684 -57356 -114700 -229388 0
-3620 -3112 -6184 -4152 -4128 -12316 -24604 -57356 0
-3620 -3112 -6184 -4152 -12312 -12316 -24604 -57356 -114700 0
-3620 -3112 -6184 -4152 -12312 -28692 -24604 -57356 -114700 -229388 0
-3620 -3112 -6184 -12328 -28680 -28692 -57364 -114708 -98332 -229388 -458764 -917516 0
-3620 -7204 -6184 -12328 -28680 -24600 -24604 -49180 -98332 -229388 0
-3620 -7204 -14372 -12328 -12312 -8224 -16416 -49180 -114700 0
-3620 -7204 -14372 -12328 -12312 -24600 -16416 -49180 -114700 -229388 0
-3620 -7204 -14372 -12328 -28680 -24600 -16416 -49180 -98332 -229388 0
-3620 -7204 -14372 -28708 -28680 -24600 -49176 -32800 -98332 -229388 -458764 0
-3620 -7204 -14372 -28708 -57352 -49176 -32800 -65568 -196636 -458764 0
-7204 -6184 -4152 -64 -8224 -24604 -57356 0
-7204 -6184 -4152 -8248 -24600 -24604 -57356 -114700 -229388 0
-7204 -6184 -4152 -8248 -24600 -57364 -57356 -114700 -229388 -458764 0
-7204 -6184 -4152 -8248 -24600 -57364 -114700 -229388 -458764 -917516 0
-7204 -6184 -12328 -8248 -24600 -57364 -49180 -114700 -229388 -458764 0
-7204 -6184 -12328 -24616 -24600 -57364 -49180 -98332 -229388 -458764 0
-7204 -14372 -12328 -8248 -8224 -16416 -49180 -114700 0
-7204 -14372 -12328 -24616 -57352 -49176 -49180 -98332 -196636 -458764 0
-7204 -14372 -28708 -24616 -24600 -16416 -32800 -98332 -229388 0
-7204 -14372 -28708 -24616 -24600 -49176 -98328 -98332 -229388 -458764 -917516 0
-7204 -14372 -28708 -57380 -57352 -49176 -32800 -65568 -196636 -458764 0
-7204 -14372 -28708 -57380 -57352 -49176 -98328 -65568 -196636 -458764 -917516 0
-14372 -12328 -8248 -64 -16416 -49180 -114700 0
-14372 -12328 -8248 -16440 -16416 -49180 -114700 -229388 0
-14372 -12328 -24616 -16440 -16416 -49180 -98332 -229388 0
-14372 -28708 -24616 -16440 -16416 -32800 -98332 -229388 0
-28708 -24616 -16440 -64 -32800 -98332 -229388 0
-28708 -24616 -16440 -32824 -98328 -98332 -229388 -458764 -917516 0
-57380 -49192 -32824 -64 -65568 -196636 -458764 0
-114724 -98344 -65592 -64 -131104 -393244 -917516 0
-484 -428 -304 -64 -544 -1560 -3604 0
-484 -428 -304 -560 -544 -1560 -3604 -7188 0
-484 -428 -304 -560 -1552 -1560 -3604 -7188 -14356 0
-484 -428 -304 -560 -1552 -3592 -3604 -7188 -14356 -28692 0
-484 -428 -304 -560 -1552 -3592 -57364 -114708 -229396 -458772 0
-484 -428 -812 -560 -1552 -3592 -7176 -14356 -28692 -57364 -114708 0
-484 -428 -812 -560 -1552 -3592 -7176 -57364 -114708 -229396 -458772 0
-484 -932 -812 -560 -544 -1056 -3096 -7188 0
-484 -932 -1828 -1580 -3596 -7180 -6160 -14344 -28680 -24600 -57364 -114708 -229396 0
-484 -932 -1828 -3620 -28684 -57356 -49168 -32800 -98328 -196632 -458772 0
-932 -812 -560 -64 -1056 -3096 -7188 0
-932 -812 -560 -1072 -3088 -3096 -7188 -14356 -28692 0
-932 -812 -560 -1072 -3088 -7176 -7188 -14356 -28692 -57364 0
-932 -812 -560 -1072 -3088 -7176 -14356 -28692 -57364 -114708 0
-932 -812 -1580 -1072 -3088 -7176 -14344 -28692 -57364 -114708 -229396 0
-932 -812 -1580 -1072 -3088 -7176 -14344 -114708 -229396 -458772 -917524 0
-932 -812 -1580 -3116 -3088 -7176 -14344 -12312 -28692 -57364 -114708 0
-932 -812 -1580 -3116 -7180 -7176 -14344 -12312 -24600 -57364 -114708 0
-932 -1828 -1580 -1072 -3088 -6160 -14344 -14356 -28692 -57364 -114708 0
-932 -1828 -3620 -3116 -3088 -2080 -4128 -12312 -28692 0
-932 -1828 -3620 -3116 -3088 -6160 -4128 -12312 -28692 -57364 0
-932 -1828 -3620 -3116 -7180 -6160 -4128 -12312 -24600 -57364 0
-932 -1828 -3620 -3116 -7180 -14348 -12304 -28680 -57352 -49176 -114708 -229396 -458772 0
-932 -1828 -3620 -7204 -57356 -114700 -98320 -65568 -196632 -393240 -917524 0
-1828 -1580 -1072 -64 -2080 -6168 -14356 0
-1828 -1580 -1072 -2096 -2080 -6168 -14356 -28692 0
-1828 -1580 -1072 -2096 -6160 -6168 -14356 -28692 -57364 0
-1828 -1580 -1072 -2096 -6160 -14344 -14356 -28692 -57364 -114708 0
-1828 -1580 -1072 -2096 -6160 -14344 -28692 -57364 -114708 -229396 0
-1828 -1580 -1072 -2096 -6160 -14344 -57364 -114708 -229396 -458772 0
-1828 -1580 -3116 -2096 -2080 -6168 -12312 -28692 0
-1828 -1580 -3116 -2096 -6160 -14344 -28680 -28692 -57364 -114708 -229396 0
-1828 -3620 -3116 -2096 -6160 -4128 -12312 -28692 -57364 0
-1828 -3620 -3116 -2096 -6160 -12304 -28680 -28692 -57364 -114708 -229396 0
-1828 -3620 -3116 -6188 -14348 -12304 -12312 -24600 -49176 -114708 0
-1828 -3620 -7204 -6188 -6160 -4128 -8224 -24600 -57364 0
-1828 -3620 -7204 -6188 -14348 -28684 -24592 -57352 -114696 -98328 -229396 -458772 -917524 0
-1828 -3620 -7204 -6188 -14348 -28684 -57356 -57352 -114696 -98328 -196632 -458772 -917524 0
-1828 -3620 -7204 -14372 -14348 -12304 -24592 -16416 -49176 -114708 -229396 0
-1828 -3620 -7204 -14372 -28684 -24592 -16416 -32800 -98328 -229396 0
-3620 -3116 -2096 -64 -4128 -12312 -28692 0
-3620 -3116 -2096 -4144 -4128 -12312 -28692 -57364 0
-3620 -3116 -2096 -4144 -12304 -12312 -28692 -57364 -114708 0
-3620 -3116 -2096 -4144 -12304 -28680 -28692 -57364 -114708 -229396 0
-3620 -3116 -6188 -4144 -12304 -28680 -24600 -57364 -114708 -229396 0
-3620 -3116 -6188 -12332 -12304 -28680 -24600 -49176 -114708 -229396 0
-3620 -7204 -6188 -4144 -12304 -24592 -57352 -57364 -114708 -229396 -458772 0
-3620 -7204 -14372 -12332 -12304 -8224 -16416 -49176 -114708 0
-3620 -7204 -14372 -28708 -28684 -24592 -16416 -32800 -98328 -229396 0
-3620 -7204 -14372 -28708 -28684 -24592 -49168 -32800 -98328 -229396 -458772 0
-3620 -7204 -14372 -28708 -28684 -57356 -49168 -32800 -98328 -196632 -458772 0
-3620 -7204 -14372 -28708 -57356 -49168 -32800 -65568 -196632 -458772 0
-3620 -7204 -14372 -28708 -57356 -114700 -98320 -65568 -196632 -393240 -917524 0
-7204 -6188 -4144 -64 -8224 -24600 -57364 0
-7204 -6188 -4144 -8240 -8224 -24600 -57364 -114708 0
-7204 -6188 -4144 -8240 -24592 -24600 -57364 -114708 -229396 0
-7204 -6188 -4144 -8240 -24592 -57352 -57364 -114708 -229396 -458772 0
-7204 -6188 -4144 -8240 -24592 -57352 -114708 -229396 -458772 -917524 0
-7204 -6188 -12332 -8240 -8224 -24600 -49176 -114708 0
-7204 -6188 -12332 -8240 -24592 -57352 -49176 -114708 -229396 -458772 0
-7204 -6188 -12332 -24620 -24592 -57352 -49176 -98328 -229396 -458772 0
-7204 -14372 -12332 -24620 -57356 -49168 -49176 -98328 -196632 -458772 0
-7204 -14372 -28708 -24620 -24592 -16416 -32800 -98328 -229396 0
-7204 -14372 -28708 -24620 -57356 -49168 -32800 -98328 -196632 -458772 0
-7204 -14372 -28708 -57380 -57356 -49168 -98320 -65568 -196632 -458772 -917524 0
-14372 -12332 -8240 -64 -16416 -49176 -114708 0
-14372 -12332 -8240 -16432 -49168 -49176 -114708 -229396 -458772 0
-14372 -12332 -8240 -16432 -49168 -114696 -114708 -229396 -458772 -917524 0
-14372 -12332 -24620 -16432 -16416 -49176 -98328 -229396 0
-14372 -28708 -24620 -16432 -16416 -32800 -98328 -229396 0
-14372 -28708 -57380 -49196 -49168 -32800 -65568 -196632 -458772 0
-28708 -24620 -16432 -64 -32800 -98328 -229396 0
-28708 -24620 -16432 -32816 -98320 -98328 -229396 -458772 -917524 0
-28708 -24620 -49196 -32816 -32800 -98328 -196632 -458772 0
-28708 -57380 -49196 -32816 -32800 -65568 -196632 -458772 0
-57380 -49196 -32816 -64 -65568 -196632 -458772 0
-114724 -98348 -65584 -64 -131104 -393240 -917524 0
-484 -428 -316 -64 -544 -1560 -3592 0
-484 -428 -316 -572 -1564 -3604 -3592 -7176 -14344 -28680 0
-484 -428 -316 -572 -1564 -3604 -57352 -114696 -229384 -458760 0
-484 -428 -812 -572 -1564 -3604 -7188 -57352 -114696 -229384 -458760 0
-484 -932 -1828 -1580 -3596 -7180 -6172 -14356 -28692 -24600 -57352 -114696 -229384 0
-484 -932 -1828 -3620 -3596 -3100 -6172 -4128 -12312 -28680 -57352 0
-484 -932 -1828 -3620 -28684 -57356 -49180 -32800 -98328 -196632 -458760 0
-932 -812 -572 -64 -1056 -3096 -7176 0
-932 -812 -572 -1084 -3100 -7188 -14344 -28680 -57352 -114696 0
-932 -812 -1580 -1084 -1056 -3096 -6168 -14344 0
-932 -812 -1580 -1084 -3100 -7188 -6168 -14344 -28680 -57352 0
-932 -812 -1580 -1084 -3100 -7188 -14356 -14344 -28680 -57352 -114696 0
-932 -812 -1580 -1084 -3100 -7188 -14356 -114696 -229384 -458760 -917512 0
-932 -1828 -1580 -1084 -3100 -6172 -14356 -14344 -28680 -57352 -114696 0
-932 -1828 -1580 -3116 -7180 -14348 -28692 -57364 -114708 -98328 -229384 -458760 -917512 0
-932 -1828 -3620 -3116 -7180 -6172 -4128 -12312 -24600 -57352 0
-932 -1828 -3620 -3116 -7180 -14348 -12316 -28692 -57364 -49176 -114696 -229384 -458760 0
-932 -1828 -3620 -7204 -7180 -6172 -4128 -8224 -24600 -57352 0
-932 -1828 -3620 -7204 -7180 -6172 -12316 -8224 -24600 -57352 -114696 0
-932 -1828 -3620 -7204 -7180 -14348 -28684 -24604 -57364 -114708 -98328 -229384 -458760 -917512 0
-932 -1828 -3620 -7204 -14348 -12316 -8224 -16416 -49176 -114696 0
-932 -1828 -3620 -7204 -14348 -28684 -24604 -16416 -49176 -98328 -229384 0
-1828 -1580 -1084 -64 -2080 -6168 -14344 0
-1828 -1580 -1084 -2108 -2080 -6168 -14344 -28680 0
-1828 -1580 -1084 -2108 -6172 -6168 -14344 -28680 -57352 0
-1828 -1580 -1084 -2108 -6172 -14356 -14344 -28680 -57352 -114696 0
-1828 -1580 -3116 -2108 -2080 -6168 -12312 -28680 0
-1828 -1580 -3116 -2108 -6172 -6168 -12312 -28680 -57352 0
-1828 -3620 -3116 -2108 -2080 -4128 -12312 -28680 0
-1828 -3620 -3116 -2108 -6172 -4128 -12312 -28680 -57352 0
-1828 -3620 -3116 -2108 -6172 -12316 -28692 -28680 -57352 -114696 -229384 0
-1828 -3620 -3116 -6188 -14348 -12316 -12312 -24600 -49176 -114696 0
-1828 -3620 -3116 -6188 -14348 -28684 -28692 -57364 -114708 -98328 -229384 -458760 -917512 0
-1828 -3620 -7204 -6188 -6172 -4128 -8224 -24600 -57352 0
-1828 -3620 -7204 -6188 -14348 -28684 -24604 -57364 -114708 -98328 -229384 -458760 -917512 0
-1828 -3620 -7204 -14372 -14348 -12316 -8224 -16416 -49176 -114696 0
-1828 -3620 -7204 -14372 -14348 -12316 -24604 -16416 -49176 -114696 -229384 0
-1828 -3620 -7204 -14372 -28684 -24604 -16416 -32800 -98328 -229384 0
-1828 -3620 -7204 -14372 -57356 -49180 -32800 -65568 -196632 -458760 0
-3620 -3116 -2108 -64 -4128 -12312 -28680 0
-3620 -3116 -2108 -4156 -12316 -12312 -28680 -57352 -114696 0
-3620 -3116 -6188 -4156 -4128 -12312 -24600 -57352 0
-3620 -7204 -6188 -4156 -4128 -8224 -24600 -57352 0
-3620 -7204 -6188 -4156 -12316 -24604 -57364 -57352 -114696 -229384 -458760 0
-3620 -7204 -14372 -12332 -12316 -8224 -16416 -49176 -114696 0
-3620 -7204 -14372 -28708 -28684 -24604 -49180 -32800 -98328 -229384 -458760 0
-7204 -6188 -4156 -64 -8224 -24600 -57352 0
-7204 -6188 -4156 -8252 -24604 -57364 -57352 -114696 -229384 -458760 0
-7204 -6188 -12332 -8252 -24604 -57364 -49176 -114696 -229384 -458760 0
-7204 -14372 -12332 -8252 -8224 -16416 -49176 -114696 0
-7204 -14372 -28708 -24620 -24604 -16416 -32800 -98328 -229384 0
-7204 -14372 -28708 -57380 -57356 -49180 -32800 -65568 -196632 -458760 0
-7204 -14372 -28708 -57380 -57356 -49180 -98332 -65568 -196632 -458760 -917512 0
-14372 -12332 -8252 -64 -16416 -49176 -114696 0
-14372 -28708 -57380 -49196 -49180 -32800 -65568 -196632 -458760 0
-28708 -24620 -16444 -64 -32800 -98328 -229384 0
-28708 -57380 -49196 -32828 -32800 -65568 -196632 -458760 0
-28708 -57380 -114724 -98348 -98332 -65568 -131104 -393240 -917512 0
-57380 -49196 -32828 -64 -65568 -196632 -458760 0
-114724 -98348 -65596 -64 -131104 -393240 -917512 0
-484 -436 -312 -64 -544 -1552 -3596 0
-484 -436 -312 -568 -544 -1552 -3596 -7180 0
-484 -436 -312 -568 -1560 -1552 -3596 -7180 -14348 0
-484 -436 -312 -568 -1560 -3592 -14348 -28684 -57356 -114700 0
-484 -932 -1828 -1588 -3604 -7188 -6168 -14344 -28680 -24592 -57356 -114700 -229388 0
-484 -932 -1828 -3620 -3604 -7188 -6168 -4128 -12304 -24592 -57356 0
-484 -932 -1828 -3620 -3604 -7188 -14356 -12312 -28680 -57352 -49168 -114700 -229388 -458764 0
-484 -932 -1828 -3620 -28692 -57364 -49176 -32800 -98320 -196624 -458764 0
-932 -820 -568 -64 -1056 -3088 -7180 0
-932 -820 -568 -1080 -1056 -3088 -7180 -14348 0
-932 -820 -568 -1080 -3096 -3088 -7180 -14348 -28684 0
-932 -820 -568 -1080 -3096 -7176 -7180 -14348 -28684 -57356 0
-932 -820 -1588 -1080 -1056 -3088 -6160 -14348 0
-932 -820 -1588 -1080 -3096 -7176 -14344 -114700 -229388 -458764 -917516 0
-932 -1828 -1588 -1080 -3096 -6168 -6160 -14348 -28684 -57356 0
-932 -1828 -1588 -1080 -3096 -6168 -14344 -14348 -28684 -57356 -114700 0
-932 -1828 -1588 -3124 -3096 -2080 -6160 -12304 -28684 0
-932 -1828 -1588 -3124 -7188 -6168 -14344 -28680 -24592 -57356 -114700 -229388 0
-932 -1828 -1588 -3124 -7188 -14356 -14344 -12304 -24592 -49168 -114700 0
-932 -1828 -1588 -3124 -7188 -14356 -14344 -28680 -57352 -49168 -114700 -229388 -458764 0
-932 -1828 -3620 -3124 -3096 -2080 -4128 -12304 -28684 0
-932 -1828 -3620 -3124 -7188 -6168 -4128 -12304 -24592 -57356 0
-932 -1828 -3620 -3124 -7188 -14356 -12312 -12304 -24592 -49168 -114700 0
-932 -1828 -3620 -3124 -7188 -14356 -12312 -28680 -57352 -49168 -114700 -229388 -458764 0
-932 -1828 -3620 -7204 -7188 -6168 -4128 -8224 -24592 -57356 0
-932 -1828 -3620 -7204 -7188 -6168 -12312 -8224 -24592 -57356 -114700 0
-932 -1828 -3620 -7204 -57364 -114708 -98328 -65568 -196624 -393232 -917516 0
-1828 -1588 -1080 -64 -2080 -6160 -14348 0
-1828 -1588 -1080 -2104 -6168 -6160 -14348 -28684 -57356 0
-1828 -1588 -1080 -2104 -6168 -14344 -14348 -28684 -57356 -114700 0
-1828 -1588 -3124 -2104 -6168 -6160 -12304 -28684 -57356 0
-1828 -1588 -3124 -2104 -6168 -14344 -12304 -28684 -57356 -114700 0
-1828 -1588 -3124 -6196 -6168 -14344 -12304 -24592 -57356 -114700 0
-1828 -1588 -3124 -6196 -6168 -14344 -28680 -24592 -57356 -114700 -229388 0
-1828 -1588 -3124 -6196 -14356 -14344 -28680 -24592 -49168 -114700 -229388 0
-1828 -3620 -3124 -6196 -14356 -12312 -12304 -24592 -49168 -114700 0
-1828 -3620 -3124 -6196 -14356 -28692 -57352 -114696 -98320 -196624 -458764 -917516 0
-1828 -3620 -3124 -6196 -14356 -28692 -114696 -98320 -196624 -393232 -917516 0
-1828 -3620 -7204 -6196 -6168 -4128 -8224 -24592 -57356 0
-1828 -3620 -7204 -6196 -14356 -28692 -24600 -24592 -49168 -98320 -229388 0
-1828 -3620 -7204 -6196 -14356 -28692 -24600 -57352 -114696 -98320 -229388 -458764 -917516 0
-1828 -3620 -7204 -14372 -14356 -12312 -24600 -16416 -49168 -114700 -229388 0
-1828 -3620 -7204 -14372 -28692 -24600 -49176 -32800 -98320 -229388 -458764 0
-1828 -3620 -7204 -14372 -57364 -49176 -32800 -65568 -196624 -458764 0
-1828 -3620 -7204 -14372 -57364 -114708 -98328 -65568 -196624 -393232 -917516 0
-3620 -3124 -2104 -64 -4128 -12304 -28684 0
-3620 -3124 -2104 -4152 -12312 -12304 -28684 -57356 -114700 0
-3620 -3124 -2104 -4152 -12312 -28680 -28684 -57356 -114700 -229388 0
-3620 -3124 -6196 -4152 -4128 -12304 -24592 -57356 0
-3620 -3124 -6196 -4152 -12312 -12304 -24592 -57356 -114700 0
-3620 -3124 -6196 -4152 -12312 -28680 -24592 -57356 -114700 -229388 0
-3620 -7204 -6196 -4152 -12312 -24600 -57352 -57356 -114700 -229388 -458764 0
-3620 -7204 -6196 -12340 -12312 -8224 -24592 -49168 -114700 0
-3620 -7204 -6196 -12340 -28692 -24600 -24592 -49168 -98320 -229388 0
-3620 -7204 -14372 -12340 -12312 -8224 -16416 -49168 -114700 0
-3620 -7204 -14372 -12340 -28692 -24600 -16416 -49168 -98320 -229388 0
-3620 -7204 -14372 -28708 -28692 -24600 -16416 -32800 -98320 -229388 0
-3620 -7204 -14372 -28708 -28692 -57364 -49176 -32800 -98320 -196624 -458764 0
-3620 -7204 -14372 -28708 -57364 -49176 -32800 -65568 -196624 -458764 0
-3620 -7204 -14372 -28708 -57364 -114708 -98328 -65568 -196624 -393232 -917516 0
-7204 -6196 -4152 -64 -8224 -24592 -57356 0
-7204 -6196 -4152 -8248 -24600 -24592 -57356 -114700 -229388 0
-7204 -6196 -12340 -8248 -8224 -24592 -49168 -114700 0
-7204 -14372 -12340 -8248 -8224 -16416 -49168 -114700 0
-7204 -14372 -12340 -24628 -24600 -16416 -49168 -98320 -229388 0
-7204 -14372 -12340 -24628 -57364 -49176 -49168 -98320 -196624 -458764 0
-7204 -14372 -28708 -24628 -24600 -16416 -32800 -98320 -229388 0
-7204 -14372 -28708 -57380 -57364 -49176 -32800 -65568 -196624 -458764 0
-7204 -14372 -28708 -57380 -57364 -49176 -98328 -65568 -196624 -458764 -917516 0
-7204 -14372 -28708 -57380 -57364 -114708 -98328 -65568 -196624 -393232 -917516 0
-14372 -12340 -8248 -64 -16416 -49168 -114700 0
-14372 -12340 -8248 -16440 -49176 -49168 -114700 -229388 -458764 0
-14372 -12340 -24628 -16440 -16416 -49168 -98320 -229388 0
-14372 -28708 -24628 -16440 -16416 -32800 -98320 -229388 0
-14372 -28708 -57380 -49204 -49176 -32800 -65568 -196624 -458764 0
-28708 -24628 -16440 -64 -32800 -98320 -229388 0
-57380 -49204 -32824 -64 -65568 -196624 -458764 0
-114724 -98356 -65592 -64 -131104 -393232 -917516 0
-484 -436 -316 -64 -544 -1552 -3592 0
-484 -436 -316 -572 -1564 -1552 -3592 -7176 -14344 0
-484 -436 -820 -572 -1564 -3596 -7180 -7176 -14344 -28680 -57352 0
-484 -932 -1828 -1588 -3604 -7188 -6172 -14348 -12304 -24592 -57352 -114696 0
-484 -932 -1828 -1588 -3604 -7188 -6172 -14348 -28684 -24592 -57352 -114696 -229384 0
-484 -932 -1828 -3620 -3604 -7188 -14356 -12316 -28684 -57356 -49168 -114696 -229384 -458760 0
-484 -932 -1828 -3620 -7188 -6172 -4128 -8224 -24592 -57352 0
-932 -820 -572 -64 -1056 -3088 -7176 0
-932 -820 -572 -1084 -1056 -3088 -7176 -14344 0
-932 -820 -572 -1084 -3100 -3088 -7176 -14344 -28680 0
-932 -820 -1588 -1084 -3100 -7180 -6160 -14344 -28680 -57352 0
-932 -1828 -1588 -1084 -3100 -6172 -14348 -14344 -28680 -57352 -114696 0
-932 -1828 -3620 -3124 -7188 -14356 -12316 -28684 -24592 -49168 -114696 -229384 0
-932 -1828 -3620 -3124 -7188 -14356 -12316 -28684 -57356 -49168 -114696 -229384 -458760 0
-932 -1828 -3620 -3124 -7188 -14356 -12316 -28684 -57356 -114700 -114696 -229384 -458760 -917512 0
-932 -1828 -3620 -3124 -7188 -14356 -28692 -28684 -57356 -49168 -98320 -229384 -458760 0
-932 -1828 -3620 -7204 -7188 -6172 -12316 -8224 -24592 -57352 -114696 0
-932 -1828 -3620 -7204 -57364 -114708 -98332 -65568 -196624 -393232 -917512 0
-1828 -1588 -1084 -64 -2080 -6160 -14344 0
-1828 -1588 -1084 -2108 -6172 -6160 -14344 -28680 -57352 0
-1828 -1588 -1084 -2108 -6172 -14348 -14344 -28680 -57352 -114696 0
-1828 -1588 -3124 -2108 -2080 -6160 -12304 -28680 0
-1828 -1588 -3124 -2108 -6172 -6160 -12304 -28680 -57352 0
-1828 -1588 -3124 -2108 -6172 -14348 -12304 -28680 -57352 -114696 0
-1828 -3620 -3124 -2108 -2080 -4128 -12304 -28680 0
-1828 -3620 -3124 -2108 -6172 -12316 -28684 -28680 -57352 -114696 -229384 0
-1828 -3620 -3124 -6196 -14356 -12316 -12304 -24592 -49168 -114696 0
-1828 -3620 -3124 -6196 -14356 -28692 -28684 -24592 -49168 -98320 -229384 0
-1828 -3620 -3124 -6196 -14356 -28692 -28684 -57356 -114700 -98320 -229384 -458760 -917512 0
-1828 -3620 -7204 -6196 -6172 -4128 -8224 -24592 -57352 0
-1828 -3620 -7204 -6196 -14356 -28692 -24604 -57356 -114700 -98320 -229384 -458760 -917512 0
-1828 -3620 -7204 -14372 -14356 -12316 -8224 -16416 -49168 -114696 0
-1828 -3620 -7204 -14372 -14356 -12316 -24604 -16416 -49168 -114696 -229384 0
-1828 -3620 -7204 -14372 -57364 -114708 -98332 -65568 -196624 -393232 -917512 0
-3620 -3124 -2108 -64 -4128 -12304 -28680 0
-3620 -3124 -2108 -4156 -12316 -12304 -28680 -57352 -114696 0
-3620 -3124 -2108 -4156 -12316 -28684 -28680 -57352 -114696 -229384 0
-3620 -3124 -6196 -4156 -12316 -12304 -24592 -57352 -114696 0
-3620 -7204 -6196 -4156 -4128 -8224 -24592 -57352 0
-3620 -7204 -6196 -4156 -12316 -8224 -24592 -57352 -114696 0
-3620 -7204 -14372 -12340 -12316 -8224 -16416 -49168 -114696 0
-3620 -7204 -14372 -12340 -12316 -24604 -16416 -49168 -114696 -229384 0
-3620 -7204 -14372 -28708 -28692 -24604 -16416 -32800 -98320 -229384 0
-3620 -7204 -14372 -28708 -57364 -49180 -32800 -65568 -196624 -458760 0
-7204 -6196 -4156 -64 -8224 -24592 -57352 0
-7204 -6196 -4156 -8252 -8224 -24592 -57352 -114696 0
-7204 -6196 -4156 -8252 -24604 -24592 -57352 -114696 -229384 0
-7204 -6196 -12340 -8252 -8224 -24592 -49168 -114696 0
-7204 -6196 -12340 -8252 -24604 -57356 -49168 -114696 -229384 -458760 0
-7204 -14372 -12340 -8252 -8224 -16416 -49168 -114696 0
-7204 -14372 -12340 -24628 -57364 -49180 -49168 -98320 -196624 -458760 0
-7204 -14372 -28708 -24628 -24604 -16416 -32800 -98320 -229384 0
-7204 -14372 -28708 -57380 -57364 -49180 -98332 -65568 -196624 -458760 -917512 0
-7204 -14372 -28708 -57380 -57364 -114708 -98332 -65568 -196624 -393232 -917512 0
-14372 -12340 -8252 -64 -16416 -49168 -114696 0
-14372 -12340 -8252 -16444 -16416 -49168 -114696 -229384 0
-14372 -12340 -8252 -16444 -49180 -49168 -114696 -229384 -458760 0
-14372 -12340 -24628 -16444 -16416 -49168 -98320 -229384 0
-14372 -28708 -24628 -16444 -16416 -32800 -98320 -229384 0
-28708 -24628 -16444 -64 -32800 -98320 -229384 0
-57380 -49204 -32828 -64 -65568 -196624 -458760 0
-114724 -98356 -65596 -64 -131104 -393232 -917512 0
